<?xml version="1.0"?>
<VTKFile type="UnstructuredGrid" version="0.1">
<UnstructuredGrid>
<Piece NumberOfPoints="      1156" NumberOfCells="      1024">
<Points>
<DataArray type="Float64"                                    Name="coordinates"                                                      NumberOfComponents=" 3" format="ascii">
              0.133000000               0.000000000               0.000000000               0.155937500               0.000000000               0.000000000               0.178875000               0.000000000               0.000000000               0.201812500               0.000000000               0.000000000               0.224750000               0.000000000               0.000000000               0.247687500               0.000000000               0.000000000               0.270625000               0.000000000               0.000000000               0.293562500               0.000000000               0.000000000               0.316500000               0.000000000               0.000000000               0.339437500               0.000000000               0.000000000               0.362375000               0.000000000               0.000000000               0.385312500               0.000000000               0.000000000               0.408250000               0.000000000               0.000000000               0.431187500               0.000000000               0.000000000               0.454125000               0.000000000               0.000000000               0.477062500               0.000000000               0.000000000               0.500000000               0.000000000               0.000000000               0.132359569               0.013036280               0.000000000               0.155337096               0.016127762               0.000000000               0.178314623               0.019219245               0.000000000               0.201292150               0.022310727               0.000000000               0.224269676               0.025402210               0.000000000               0.247247203               0.028493692               0.000000000               0.270224730               0.031585175               0.000000000               0.293202257               0.034676657               0.000000000               0.316179784               0.037768140               0.000000000               0.339157311               0.040859622               0.000000000               0.362134838               0.043951105               0.000000000               0.385112365               0.047042587               0.000000000               0.408089892               0.050134070               0.000000000               0.431067419               0.053225552               0.000000000               0.454044946               0.056317035               0.000000000               0.477022473               0.059408517               0.000000000               0.500000000               0.062500000               0.000000000               0.130444442               0.025947013               0.000000000               0.153541665               0.032137825               0.000000000               0.176638887               0.038328636               0.000000000               0.199736109               0.044519448               0.000000000               0.222833332               0.050710260               0.000000000               0.245930554               0.056901071               0.000000000               0.269027776               0.063091883               0.000000000               0.292124999               0.069282695               0.000000000               0.315222221               0.075473506               0.000000000               0.338319444               0.081664318               0.000000000               0.361416666               0.087855130               0.000000000               0.384513888               0.094045942               0.000000000               0.407611111               0.100236753               0.000000000               0.430708333               0.106427565               0.000000000               0.453805555               0.112618377               0.000000000               0.476902778               0.118809188               0.000000000               0.500000000               0.125000000               0.000000000               0.127273065               0.038607862               0.000000000               0.150568498               0.047913621               0.000000000               0.173863932               0.057219379               0.000000000               0.197159365               0.066525138               0.000000000               0.220454798               0.075830897               0.000000000               0.243750232               0.085136655               0.000000000               0.267045665               0.094442414               0.000000000               0.290341099               0.103748172               0.000000000               0.313636532               0.113053931               0.000000000               0.336931966               0.122359690               0.000000000               0.360227399               0.131665448               0.000000000               0.383522833               0.140971207               0.000000000               0.406818266               0.150276966               0.000000000               0.430113700               0.159582724               0.000000000               0.453409133               0.168888483               0.000000000               0.476704567               0.178194241               0.000000000               0.500000000               0.187500000               0.000000000               0.122875978               0.050896897               0.000000000               0.146446229               0.063340840               0.000000000               0.170016481               0.075784784               0.000000000               0.193586732               0.088228728               0.000000000               0.217156983               0.100672672               0.000000000               0.240727235               0.113116616               0.000000000               0.264297486               0.125560560               0.000000000               0.287867738               0.138004504               0.000000000               0.311437989               0.150448448               0.000000000               0.335008240               0.162892392               0.000000000               0.358578492               0.175336336               0.000000000               0.382148743               0.187780280               0.000000000               0.405718994               0.200224224               0.000000000               0.429289246               0.212668168               0.000000000               0.452859497               0.225112112               0.000000000               0.476429749               0.237556056               0.000000000               0.500000000               0.250000000               0.000000000               0.117295528               0.062695766               0.000000000               0.141214558               0.078308531               0.000000000               0.165133587               0.093921295               0.000000000               0.189052617               0.109534060               0.000000000               0.212971646               0.125146824               0.000000000               0.236890676               0.140759589               0.000000000               0.260809705               0.156372354               0.000000000               0.284728735               0.171985118               0.000000000               0.308647764               0.187597883               0.000000000               0.332566794               0.203210648               0.000000000               0.356485823               0.218823412               0.000000000               0.380404853               0.234436177               0.000000000               0.404323882               0.250048941               0.000000000               0.428242912               0.265661706               0.000000000               0.452161941               0.281274471               0.000000000               0.476080971               0.296887235               0.000000000               0.500000000               0.312500000               0.000000000               0.110585458               0.073890841               0.000000000               0.134923867               0.092710163               0.000000000               0.159262276               0.111529486               0.000000000               0.183600685               0.130348808               0.000000000               0.207939094               0.149168131               0.000000000               0.232277503               0.167987453               0.000000000               0.256615912               0.186806776               0.000000000               0.280954320               0.205626098               0.000000000               0.305292729               0.224445420               0.000000000               0.329631138               0.243264743               0.000000000               0.353969547               0.262084065               0.000000000               0.378307956               0.280903388               0.000000000               0.402646365               0.299722710               0.000000000               0.426984773               0.318542033               0.000000000               0.451323182               0.337361355               0.000000000               0.475661591               0.356180678               0.000000000               0.500000000               0.375000000               0.000000000               0.102810390               0.084374307               0.000000000               0.127634741               0.106444663               0.000000000               0.152459092               0.128515018               0.000000000               0.177283442               0.150585374               0.000000000               0.202107793               0.172655730               0.000000000               0.226932143               0.194726086               0.000000000               0.251756494               0.216796442               0.000000000               0.276580845               0.238866798               0.000000000               0.301405195               0.260937153               0.000000000               0.326229546               0.283007509               0.000000000               0.351053896               0.305077865               0.000000000               0.375878247               0.327148221               0.000000000               0.400702598               0.349218577               0.000000000               0.425526948               0.371288933               0.000000000               0.450351299               0.393359288               0.000000000               0.475175649               0.415429644               0.000000000               0.500000000               0.437500000               0.000000000               0.094045202               0.094045202               0.000000000               0.119417377               0.119417377               0.000000000               0.144789552               0.144789552               0.000000000               0.170161727               0.170161727               0.000000000               0.195533901               0.195533901               0.000000000               0.220906076               0.220906076               0.000000000               0.246278251               0.246278251               0.000000000               0.271650426               0.271650426               0.000000000               0.297022601               0.297022601               0.000000000               0.322394776               0.322394776               0.000000000               0.347766951               0.347766951               0.000000000               0.373139126               0.373139126               0.000000000               0.398511300               0.398511300               0.000000000               0.423883475               0.423883475               0.000000000               0.449255650               0.449255650               0.000000000               0.474627825               0.474627825               0.000000000               0.500000000               0.500000000               0.000000000               0.084374307               0.102810390               0.000000000               0.106444663               0.127634741               0.000000000               0.128515018               0.152459092               0.000000000               0.150585374               0.177283442               0.000000000               0.172655730               0.202107793               0.000000000               0.194726086               0.226932143               0.000000000               0.216796442               0.251756494               0.000000000               0.238866798               0.276580845               0.000000000               0.260937153               0.301405195               0.000000000               0.283007509               0.326229546               0.000000000               0.305077865               0.351053896               0.000000000               0.327148221               0.375878247               0.000000000               0.349218577               0.400702598               0.000000000               0.371288933               0.425526948               0.000000000               0.393359288               0.450351299               0.000000000               0.415429644               0.475175649               0.000000000               0.437500000               0.500000000               0.000000000               0.073890841               0.110585458               0.000000000               0.092710163               0.134923867               0.000000000               0.111529486               0.159262276               0.000000000               0.130348808               0.183600685               0.000000000               0.149168131               0.207939094               0.000000000               0.167987453               0.232277503               0.000000000               0.186806776               0.256615912               0.000000000               0.205626098               0.280954320               0.000000000               0.224445420               0.305292729               0.000000000               0.243264743               0.329631138               0.000000000               0.262084065               0.353969547               0.000000000               0.280903388               0.378307956               0.000000000               0.299722710               0.402646365               0.000000000               0.318542033               0.426984773               0.000000000               0.337361355               0.451323182               0.000000000               0.356180678               0.475661591               0.000000000               0.375000000               0.500000000               0.000000000               0.062695766               0.117295528               0.000000000               0.078308531               0.141214558               0.000000000               0.093921295               0.165133587               0.000000000               0.109534060               0.189052617               0.000000000               0.125146824               0.212971646               0.000000000               0.140759589               0.236890676               0.000000000               0.156372354               0.260809705               0.000000000               0.171985118               0.284728735               0.000000000               0.187597883               0.308647764               0.000000000               0.203210648               0.332566794               0.000000000               0.218823412               0.356485823               0.000000000               0.234436177               0.380404853               0.000000000               0.250048941               0.404323882               0.000000000               0.265661706               0.428242912               0.000000000               0.281274471               0.452161941               0.000000000               0.296887235               0.476080971               0.000000000               0.312500000               0.500000000               0.000000000               0.050896897               0.122875978               0.000000000               0.063340840               0.146446229               0.000000000               0.075784784               0.170016481               0.000000000               0.088228728               0.193586732               0.000000000               0.100672672               0.217156983               0.000000000               0.113116616               0.240727235               0.000000000               0.125560560               0.264297486               0.000000000               0.138004504               0.287867738               0.000000000               0.150448448               0.311437989               0.000000000               0.162892392               0.335008240               0.000000000               0.175336336               0.358578492               0.000000000               0.187780280               0.382148743               0.000000000               0.200224224               0.405718994               0.000000000               0.212668168               0.429289246               0.000000000               0.225112112               0.452859497               0.000000000               0.237556056               0.476429749               0.000000000               0.250000000               0.500000000               0.000000000               0.038607862               0.127273065               0.000000000               0.047913621               0.150568498               0.000000000               0.057219379               0.173863932               0.000000000               0.066525138               0.197159365               0.000000000               0.075830897               0.220454798               0.000000000               0.085136655               0.243750232               0.000000000               0.094442414               0.267045665               0.000000000               0.103748172               0.290341099               0.000000000               0.113053931               0.313636532               0.000000000               0.122359690               0.336931966               0.000000000               0.131665448               0.360227399               0.000000000               0.140971207               0.383522833               0.000000000               0.150276966               0.406818266               0.000000000               0.159582724               0.430113700               0.000000000               0.168888483               0.453409133               0.000000000               0.178194241               0.476704567               0.000000000               0.187500000               0.500000000               0.000000000               0.025947013               0.130444442               0.000000000               0.032137825               0.153541665               0.000000000               0.038328636               0.176638887               0.000000000               0.044519448               0.199736109               0.000000000               0.050710260               0.222833332               0.000000000               0.056901071               0.245930554               0.000000000               0.063091883               0.269027776               0.000000000               0.069282695               0.292124999               0.000000000               0.075473506               0.315222221               0.000000000               0.081664318               0.338319444               0.000000000               0.087855130               0.361416666               0.000000000               0.094045942               0.384513888               0.000000000               0.100236753               0.407611111               0.000000000               0.106427565               0.430708333               0.000000000               0.112618377               0.453805555               0.000000000               0.118809188               0.476902778               0.000000000               0.125000000               0.500000000               0.000000000               0.013036280               0.132359569               0.000000000               0.016127762               0.155337096               0.000000000               0.019219245               0.178314623               0.000000000               0.022310727               0.201292150               0.000000000               0.025402210               0.224269676               0.000000000               0.028493692               0.247247203               0.000000000               0.031585175               0.270224730               0.000000000               0.034676657               0.293202257               0.000000000               0.037768140               0.316179784               0.000000000               0.040859622               0.339157311               0.000000000               0.043951105               0.362134838               0.000000000               0.047042587               0.385112365               0.000000000               0.050134070               0.408089892               0.000000000               0.053225552               0.431067419               0.000000000               0.056317035               0.454044946               0.000000000               0.059408517               0.477022473               0.000000000               0.062500000               0.500000000               0.000000000               0.000000000               0.133000000               0.000000000               0.000000000               0.155937500               0.000000000               0.000000000               0.178875000               0.000000000               0.000000000               0.201812500               0.000000000               0.000000000               0.224750000               0.000000000               0.000000000               0.247687500               0.000000000               0.000000000               0.270625000               0.000000000               0.000000000               0.293562500               0.000000000               0.000000000               0.316500000               0.000000000               0.000000000               0.339437500               0.000000000               0.000000000               0.362375000               0.000000000               0.000000000               0.385312500               0.000000000               0.000000000               0.408250000               0.000000000               0.000000000               0.431187500               0.000000000               0.000000000               0.454125000               0.000000000               0.000000000               0.477062500               0.000000000               0.000000000               0.500000000               0.000000000               0.133000000               0.000000000               0.000000000               0.155937500               0.000000000               0.000000000               0.178875000               0.000000000               0.000000000               0.201812500               0.000000000               0.000000000               0.224750000               0.000000000               0.000000000               0.247687500               0.000000000               0.000000000               0.270625000               0.000000000               0.000000000               0.293562500               0.000000000               0.000000000               0.316500000               0.000000000               0.000000000               0.339437500               0.000000000               0.000000000               0.362375000               0.000000000               0.000000000               0.385312500               0.000000000               0.000000000               0.408250000               0.000000000               0.000000000               0.431187500               0.000000000               0.000000000               0.454125000               0.000000000               0.000000000               0.477062500               0.000000000               0.000000000               0.500000000               0.000000000               0.000000000               0.132359569              -0.013036280               0.000000000               0.155337096              -0.016127762               0.000000000               0.178314623              -0.019219245               0.000000000               0.201292150              -0.022310727               0.000000000               0.224269676              -0.025402210               0.000000000               0.247247203              -0.028493692               0.000000000               0.270224730              -0.031585175               0.000000000               0.293202257              -0.034676657               0.000000000               0.316179784              -0.037768140               0.000000000               0.339157311              -0.040859622               0.000000000               0.362134838              -0.043951105               0.000000000               0.385112365              -0.047042587               0.000000000               0.408089892              -0.050134070               0.000000000               0.431067419              -0.053225552               0.000000000               0.454044946              -0.056317035               0.000000000               0.477022473              -0.059408517               0.000000000               0.500000000              -0.062500000               0.000000000               0.130444442              -0.025947013               0.000000000               0.153541665              -0.032137825               0.000000000               0.176638887              -0.038328636               0.000000000               0.199736109              -0.044519448               0.000000000               0.222833332              -0.050710260               0.000000000               0.245930554              -0.056901071               0.000000000               0.269027776              -0.063091883               0.000000000               0.292124999              -0.069282695               0.000000000               0.315222221              -0.075473506               0.000000000               0.338319444              -0.081664318               0.000000000               0.361416666              -0.087855130               0.000000000               0.384513888              -0.094045942               0.000000000               0.407611111              -0.100236753               0.000000000               0.430708333              -0.106427565               0.000000000               0.453805555              -0.112618377               0.000000000               0.476902778              -0.118809188               0.000000000               0.500000000              -0.125000000               0.000000000               0.127273065              -0.038607862               0.000000000               0.150568498              -0.047913621               0.000000000               0.173863932              -0.057219379               0.000000000               0.197159365              -0.066525138               0.000000000               0.220454798              -0.075830897               0.000000000               0.243750232              -0.085136655               0.000000000               0.267045665              -0.094442414               0.000000000               0.290341099              -0.103748172               0.000000000               0.313636532              -0.113053931               0.000000000               0.336931966              -0.122359690               0.000000000               0.360227399              -0.131665448               0.000000000               0.383522833              -0.140971207               0.000000000               0.406818266              -0.150276966               0.000000000               0.430113700              -0.159582724               0.000000000               0.453409133              -0.168888483               0.000000000               0.476704567              -0.178194241               0.000000000               0.500000000              -0.187500000               0.000000000               0.122875978              -0.050896897               0.000000000               0.146446229              -0.063340840               0.000000000               0.170016481              -0.075784784               0.000000000               0.193586732              -0.088228728               0.000000000               0.217156983              -0.100672672               0.000000000               0.240727235              -0.113116616               0.000000000               0.264297486              -0.125560560               0.000000000               0.287867738              -0.138004504               0.000000000               0.311437989              -0.150448448               0.000000000               0.335008240              -0.162892392               0.000000000               0.358578492              -0.175336336               0.000000000               0.382148743              -0.187780280               0.000000000               0.405718994              -0.200224224               0.000000000               0.429289246              -0.212668168               0.000000000               0.452859497              -0.225112112               0.000000000               0.476429749              -0.237556056               0.000000000               0.500000000              -0.250000000               0.000000000               0.117295528              -0.062695766               0.000000000               0.141214558              -0.078308531               0.000000000               0.165133587              -0.093921295               0.000000000               0.189052617              -0.109534060               0.000000000               0.212971646              -0.125146824               0.000000000               0.236890676              -0.140759589               0.000000000               0.260809705              -0.156372354               0.000000000               0.284728735              -0.171985118               0.000000000               0.308647764              -0.187597883               0.000000000               0.332566794              -0.203210648               0.000000000               0.356485823              -0.218823412               0.000000000               0.380404853              -0.234436177               0.000000000               0.404323882              -0.250048941               0.000000000               0.428242912              -0.265661706               0.000000000               0.452161941              -0.281274471               0.000000000               0.476080971              -0.296887235               0.000000000               0.500000000              -0.312500000               0.000000000               0.110585458              -0.073890841               0.000000000               0.134923867              -0.092710163               0.000000000               0.159262276              -0.111529486               0.000000000               0.183600685              -0.130348808               0.000000000               0.207939094              -0.149168131               0.000000000               0.232277503              -0.167987453               0.000000000               0.256615912              -0.186806776               0.000000000               0.280954320              -0.205626098               0.000000000               0.305292729              -0.224445420               0.000000000               0.329631138              -0.243264743               0.000000000               0.353969547              -0.262084065               0.000000000               0.378307956              -0.280903388               0.000000000               0.402646365              -0.299722710               0.000000000               0.426984773              -0.318542033               0.000000000               0.451323182              -0.337361355               0.000000000               0.475661591              -0.356180678               0.000000000               0.500000000              -0.375000000               0.000000000               0.102810390              -0.084374307               0.000000000               0.127634741              -0.106444663               0.000000000               0.152459092              -0.128515018               0.000000000               0.177283442              -0.150585374               0.000000000               0.202107793              -0.172655730               0.000000000               0.226932143              -0.194726086               0.000000000               0.251756494              -0.216796442               0.000000000               0.276580845              -0.238866798               0.000000000               0.301405195              -0.260937153               0.000000000               0.326229546              -0.283007509               0.000000000               0.351053896              -0.305077865               0.000000000               0.375878247              -0.327148221               0.000000000               0.400702598              -0.349218577               0.000000000               0.425526948              -0.371288933               0.000000000               0.450351299              -0.393359288               0.000000000               0.475175649              -0.415429644               0.000000000               0.500000000              -0.437500000               0.000000000               0.094045202              -0.094045202               0.000000000               0.119417377              -0.119417377               0.000000000               0.144789552              -0.144789552               0.000000000               0.170161727              -0.170161727               0.000000000               0.195533901              -0.195533901               0.000000000               0.220906076              -0.220906076               0.000000000               0.246278251              -0.246278251               0.000000000               0.271650426              -0.271650426               0.000000000               0.297022601              -0.297022601               0.000000000               0.322394776              -0.322394776               0.000000000               0.347766951              -0.347766951               0.000000000               0.373139126              -0.373139126               0.000000000               0.398511300              -0.398511300               0.000000000               0.423883475              -0.423883475               0.000000000               0.449255650              -0.449255650               0.000000000               0.474627825              -0.474627825               0.000000000               0.500000000              -0.500000000               0.000000000               0.084374307              -0.102810390               0.000000000               0.106444663              -0.127634741               0.000000000               0.128515018              -0.152459092               0.000000000               0.150585374              -0.177283442               0.000000000               0.172655730              -0.202107793               0.000000000               0.194726086              -0.226932143               0.000000000               0.216796442              -0.251756494               0.000000000               0.238866798              -0.276580845               0.000000000               0.260937153              -0.301405195               0.000000000               0.283007509              -0.326229546               0.000000000               0.305077865              -0.351053896               0.000000000               0.327148221              -0.375878247               0.000000000               0.349218577              -0.400702598               0.000000000               0.371288933              -0.425526948               0.000000000               0.393359288              -0.450351299               0.000000000               0.415429644              -0.475175649               0.000000000               0.437500000              -0.500000000               0.000000000               0.073890841              -0.110585458               0.000000000               0.092710163              -0.134923867               0.000000000               0.111529486              -0.159262276               0.000000000               0.130348808              -0.183600685               0.000000000               0.149168131              -0.207939094               0.000000000               0.167987453              -0.232277503               0.000000000               0.186806776              -0.256615912               0.000000000               0.205626098              -0.280954320               0.000000000               0.224445420              -0.305292729               0.000000000               0.243264743              -0.329631138               0.000000000               0.262084065              -0.353969547               0.000000000               0.280903388              -0.378307956               0.000000000               0.299722710              -0.402646365               0.000000000               0.318542033              -0.426984773               0.000000000               0.337361355              -0.451323182               0.000000000               0.356180678              -0.475661591               0.000000000               0.375000000              -0.500000000               0.000000000               0.062695766              -0.117295528               0.000000000               0.078308531              -0.141214558               0.000000000               0.093921295              -0.165133587               0.000000000               0.109534060              -0.189052617               0.000000000               0.125146824              -0.212971646               0.000000000               0.140759589              -0.236890676               0.000000000               0.156372354              -0.260809705               0.000000000               0.171985118              -0.284728735               0.000000000               0.187597883              -0.308647764               0.000000000               0.203210648              -0.332566794               0.000000000               0.218823412              -0.356485823               0.000000000               0.234436177              -0.380404853               0.000000000               0.250048941              -0.404323882               0.000000000               0.265661706              -0.428242912               0.000000000               0.281274471              -0.452161941               0.000000000               0.296887235              -0.476080971               0.000000000               0.312500000              -0.500000000               0.000000000               0.050896897              -0.122875978               0.000000000               0.063340840              -0.146446229               0.000000000               0.075784784              -0.170016481               0.000000000               0.088228728              -0.193586732               0.000000000               0.100672672              -0.217156983               0.000000000               0.113116616              -0.240727235               0.000000000               0.125560560              -0.264297486               0.000000000               0.138004504              -0.287867738               0.000000000               0.150448448              -0.311437989               0.000000000               0.162892392              -0.335008240               0.000000000               0.175336336              -0.358578492               0.000000000               0.187780280              -0.382148743               0.000000000               0.200224224              -0.405718994               0.000000000               0.212668168              -0.429289246               0.000000000               0.225112112              -0.452859497               0.000000000               0.237556056              -0.476429749               0.000000000               0.250000000              -0.500000000               0.000000000               0.038607862              -0.127273065               0.000000000               0.047913621              -0.150568498               0.000000000               0.057219379              -0.173863932               0.000000000               0.066525138              -0.197159365               0.000000000               0.075830897              -0.220454798               0.000000000               0.085136655              -0.243750232               0.000000000               0.094442414              -0.267045665               0.000000000               0.103748172              -0.290341099               0.000000000               0.113053931              -0.313636532               0.000000000               0.122359690              -0.336931966               0.000000000               0.131665448              -0.360227399               0.000000000               0.140971207              -0.383522833               0.000000000               0.150276966              -0.406818266               0.000000000               0.159582724              -0.430113700               0.000000000               0.168888483              -0.453409133               0.000000000               0.178194241              -0.476704567               0.000000000               0.187500000              -0.500000000               0.000000000               0.025947013              -0.130444442               0.000000000               0.032137825              -0.153541665               0.000000000               0.038328636              -0.176638887               0.000000000               0.044519448              -0.199736109               0.000000000               0.050710260              -0.222833332               0.000000000               0.056901071              -0.245930554               0.000000000               0.063091883              -0.269027776               0.000000000               0.069282695              -0.292124999               0.000000000               0.075473506              -0.315222221               0.000000000               0.081664318              -0.338319444               0.000000000               0.087855130              -0.361416666               0.000000000               0.094045942              -0.384513888               0.000000000               0.100236753              -0.407611111               0.000000000               0.106427565              -0.430708333               0.000000000               0.112618377              -0.453805555               0.000000000               0.118809188              -0.476902778               0.000000000               0.125000000              -0.500000000               0.000000000               0.013036280              -0.132359569               0.000000000               0.016127762              -0.155337096               0.000000000               0.019219245              -0.178314623               0.000000000               0.022310727              -0.201292150               0.000000000               0.025402210              -0.224269676               0.000000000               0.028493692              -0.247247203               0.000000000               0.031585175              -0.270224730               0.000000000               0.034676657              -0.293202257               0.000000000               0.037768140              -0.316179784               0.000000000               0.040859622              -0.339157311               0.000000000               0.043951105              -0.362134838               0.000000000               0.047042587              -0.385112365               0.000000000               0.050134070              -0.408089892               0.000000000               0.053225552              -0.431067419               0.000000000               0.056317035              -0.454044946               0.000000000               0.059408517              -0.477022473               0.000000000               0.062500000              -0.500000000               0.000000000               0.000000000              -0.133000000               0.000000000               0.000000000              -0.155937500               0.000000000               0.000000000              -0.178875000               0.000000000               0.000000000              -0.201812500               0.000000000               0.000000000              -0.224750000               0.000000000               0.000000000              -0.247687500               0.000000000               0.000000000              -0.270625000               0.000000000               0.000000000              -0.293562500               0.000000000               0.000000000              -0.316500000               0.000000000               0.000000000              -0.339437500               0.000000000               0.000000000              -0.362375000               0.000000000               0.000000000              -0.385312500               0.000000000               0.000000000              -0.408250000               0.000000000               0.000000000              -0.431187500               0.000000000               0.000000000              -0.454125000               0.000000000               0.000000000              -0.477062500               0.000000000               0.000000000              -0.500000000               0.000000000              -0.133000000               0.000000000               0.000000000              -0.155937500               0.000000000               0.000000000              -0.178875000               0.000000000               0.000000000              -0.201812500               0.000000000               0.000000000              -0.224750000               0.000000000               0.000000000              -0.247687500               0.000000000               0.000000000              -0.270625000               0.000000000               0.000000000              -0.293562500               0.000000000               0.000000000              -0.316500000               0.000000000               0.000000000              -0.339437500               0.000000000               0.000000000              -0.362375000               0.000000000               0.000000000              -0.385312500               0.000000000               0.000000000              -0.408250000               0.000000000               0.000000000              -0.431187500               0.000000000               0.000000000              -0.454125000               0.000000000               0.000000000              -0.477062500               0.000000000               0.000000000              -0.500000000               0.000000000               0.000000000              -0.132359569              -0.013036280               0.000000000              -0.155337096              -0.016127762               0.000000000              -0.178314623              -0.019219245               0.000000000              -0.201292150              -0.022310727               0.000000000              -0.224269676              -0.025402210               0.000000000              -0.247247203              -0.028493692               0.000000000              -0.270224730              -0.031585175               0.000000000              -0.293202257              -0.034676657               0.000000000              -0.316179784              -0.037768140               0.000000000              -0.339157311              -0.040859622               0.000000000              -0.362134838              -0.043951105               0.000000000              -0.385112365              -0.047042587               0.000000000              -0.408089892              -0.050134070               0.000000000              -0.431067419              -0.053225552               0.000000000              -0.454044946              -0.056317035               0.000000000              -0.477022473              -0.059408517               0.000000000              -0.500000000              -0.062500000               0.000000000              -0.130444442              -0.025947013               0.000000000              -0.153541665              -0.032137825               0.000000000              -0.176638887              -0.038328636               0.000000000              -0.199736109              -0.044519448               0.000000000              -0.222833332              -0.050710260               0.000000000              -0.245930554              -0.056901071               0.000000000              -0.269027776              -0.063091883               0.000000000              -0.292124999              -0.069282695               0.000000000              -0.315222221              -0.075473506               0.000000000              -0.338319444              -0.081664318               0.000000000              -0.361416666              -0.087855130               0.000000000              -0.384513888              -0.094045942               0.000000000              -0.407611111              -0.100236753               0.000000000              -0.430708333              -0.106427565               0.000000000              -0.453805555              -0.112618377               0.000000000              -0.476902778              -0.118809188               0.000000000              -0.500000000              -0.125000000               0.000000000              -0.127273065              -0.038607862               0.000000000              -0.150568498              -0.047913621               0.000000000              -0.173863932              -0.057219379               0.000000000              -0.197159365              -0.066525138               0.000000000              -0.220454798              -0.075830897               0.000000000              -0.243750232              -0.085136655               0.000000000              -0.267045665              -0.094442414               0.000000000              -0.290341099              -0.103748172               0.000000000              -0.313636532              -0.113053931               0.000000000              -0.336931966              -0.122359690               0.000000000              -0.360227399              -0.131665448               0.000000000              -0.383522833              -0.140971207               0.000000000              -0.406818266              -0.150276966               0.000000000              -0.430113700              -0.159582724               0.000000000              -0.453409133              -0.168888483               0.000000000              -0.476704567              -0.178194241               0.000000000              -0.500000000              -0.187500000               0.000000000              -0.122875978              -0.050896897               0.000000000              -0.146446229              -0.063340840               0.000000000              -0.170016481              -0.075784784               0.000000000              -0.193586732              -0.088228728               0.000000000              -0.217156983              -0.100672672               0.000000000              -0.240727235              -0.113116616               0.000000000              -0.264297486              -0.125560560               0.000000000              -0.287867738              -0.138004504               0.000000000              -0.311437989              -0.150448448               0.000000000              -0.335008240              -0.162892392               0.000000000              -0.358578492              -0.175336336               0.000000000              -0.382148743              -0.187780280               0.000000000              -0.405718994              -0.200224224               0.000000000              -0.429289246              -0.212668168               0.000000000              -0.452859497              -0.225112112               0.000000000              -0.476429749              -0.237556056               0.000000000              -0.500000000              -0.250000000               0.000000000              -0.117295528              -0.062695766               0.000000000              -0.141214558              -0.078308531               0.000000000              -0.165133587              -0.093921295               0.000000000              -0.189052617              -0.109534060               0.000000000              -0.212971646              -0.125146824               0.000000000              -0.236890676              -0.140759589               0.000000000              -0.260809705              -0.156372354               0.000000000              -0.284728735              -0.171985118               0.000000000              -0.308647764              -0.187597883               0.000000000              -0.332566794              -0.203210648               0.000000000              -0.356485823              -0.218823412               0.000000000              -0.380404853              -0.234436177               0.000000000              -0.404323882              -0.250048941               0.000000000              -0.428242912              -0.265661706               0.000000000              -0.452161941              -0.281274471               0.000000000              -0.476080971              -0.296887235               0.000000000              -0.500000000              -0.312500000               0.000000000              -0.110585458              -0.073890841               0.000000000              -0.134923867              -0.092710163               0.000000000              -0.159262276              -0.111529486               0.000000000              -0.183600685              -0.130348808               0.000000000              -0.207939094              -0.149168131               0.000000000              -0.232277503              -0.167987453               0.000000000              -0.256615912              -0.186806776               0.000000000              -0.280954320              -0.205626098               0.000000000              -0.305292729              -0.224445420               0.000000000              -0.329631138              -0.243264743               0.000000000              -0.353969547              -0.262084065               0.000000000              -0.378307956              -0.280903388               0.000000000              -0.402646365              -0.299722710               0.000000000              -0.426984773              -0.318542033               0.000000000              -0.451323182              -0.337361355               0.000000000              -0.475661591              -0.356180678               0.000000000              -0.500000000              -0.375000000               0.000000000              -0.102810390              -0.084374307               0.000000000              -0.127634741              -0.106444663               0.000000000              -0.152459092              -0.128515018               0.000000000              -0.177283442              -0.150585374               0.000000000              -0.202107793              -0.172655730               0.000000000              -0.226932143              -0.194726086               0.000000000              -0.251756494              -0.216796442               0.000000000              -0.276580845              -0.238866798               0.000000000              -0.301405195              -0.260937153               0.000000000              -0.326229546              -0.283007509               0.000000000              -0.351053896              -0.305077865               0.000000000              -0.375878247              -0.327148221               0.000000000              -0.400702598              -0.349218577               0.000000000              -0.425526948              -0.371288933               0.000000000              -0.450351299              -0.393359288               0.000000000              -0.475175649              -0.415429644               0.000000000              -0.500000000              -0.437500000               0.000000000              -0.094045202              -0.094045202               0.000000000              -0.119417377              -0.119417377               0.000000000              -0.144789552              -0.144789552               0.000000000              -0.170161727              -0.170161727               0.000000000              -0.195533901              -0.195533901               0.000000000              -0.220906076              -0.220906076               0.000000000              -0.246278251              -0.246278251               0.000000000              -0.271650426              -0.271650426               0.000000000              -0.297022601              -0.297022601               0.000000000              -0.322394776              -0.322394776               0.000000000              -0.347766951              -0.347766951               0.000000000              -0.373139126              -0.373139126               0.000000000              -0.398511300              -0.398511300               0.000000000              -0.423883475              -0.423883475               0.000000000              -0.449255650              -0.449255650               0.000000000              -0.474627825              -0.474627825               0.000000000              -0.500000000              -0.500000000               0.000000000              -0.084374307              -0.102810390               0.000000000              -0.106444663              -0.127634741               0.000000000              -0.128515018              -0.152459092               0.000000000              -0.150585374              -0.177283442               0.000000000              -0.172655730              -0.202107793               0.000000000              -0.194726086              -0.226932143               0.000000000              -0.216796442              -0.251756494               0.000000000              -0.238866798              -0.276580845               0.000000000              -0.260937153              -0.301405195               0.000000000              -0.283007509              -0.326229546               0.000000000              -0.305077865              -0.351053896               0.000000000              -0.327148221              -0.375878247               0.000000000              -0.349218577              -0.400702598               0.000000000              -0.371288933              -0.425526948               0.000000000              -0.393359288              -0.450351299               0.000000000              -0.415429644              -0.475175649               0.000000000              -0.437500000              -0.500000000               0.000000000              -0.073890841              -0.110585458               0.000000000              -0.092710163              -0.134923867               0.000000000              -0.111529486              -0.159262276               0.000000000              -0.130348808              -0.183600685               0.000000000              -0.149168131              -0.207939094               0.000000000              -0.167987453              -0.232277503               0.000000000              -0.186806776              -0.256615912               0.000000000              -0.205626098              -0.280954320               0.000000000              -0.224445420              -0.305292729               0.000000000              -0.243264743              -0.329631138               0.000000000              -0.262084065              -0.353969547               0.000000000              -0.280903388              -0.378307956               0.000000000              -0.299722710              -0.402646365               0.000000000              -0.318542033              -0.426984773               0.000000000              -0.337361355              -0.451323182               0.000000000              -0.356180678              -0.475661591               0.000000000              -0.375000000              -0.500000000               0.000000000              -0.062695766              -0.117295528               0.000000000              -0.078308531              -0.141214558               0.000000000              -0.093921295              -0.165133587               0.000000000              -0.109534060              -0.189052617               0.000000000              -0.125146824              -0.212971646               0.000000000              -0.140759589              -0.236890676               0.000000000              -0.156372354              -0.260809705               0.000000000              -0.171985118              -0.284728735               0.000000000              -0.187597883              -0.308647764               0.000000000              -0.203210648              -0.332566794               0.000000000              -0.218823412              -0.356485823               0.000000000              -0.234436177              -0.380404853               0.000000000              -0.250048941              -0.404323882               0.000000000              -0.265661706              -0.428242912               0.000000000              -0.281274471              -0.452161941               0.000000000              -0.296887235              -0.476080971               0.000000000              -0.312500000              -0.500000000               0.000000000              -0.050896897              -0.122875978               0.000000000              -0.063340840              -0.146446229               0.000000000              -0.075784784              -0.170016481               0.000000000              -0.088228728              -0.193586732               0.000000000              -0.100672672              -0.217156983               0.000000000              -0.113116616              -0.240727235               0.000000000              -0.125560560              -0.264297486               0.000000000              -0.138004504              -0.287867738               0.000000000              -0.150448448              -0.311437989               0.000000000              -0.162892392              -0.335008240               0.000000000              -0.175336336              -0.358578492               0.000000000              -0.187780280              -0.382148743               0.000000000              -0.200224224              -0.405718994               0.000000000              -0.212668168              -0.429289246               0.000000000              -0.225112112              -0.452859497               0.000000000              -0.237556056              -0.476429749               0.000000000              -0.250000000              -0.500000000               0.000000000              -0.038607862              -0.127273065               0.000000000              -0.047913621              -0.150568498               0.000000000              -0.057219379              -0.173863932               0.000000000              -0.066525138              -0.197159365               0.000000000              -0.075830897              -0.220454798               0.000000000              -0.085136655              -0.243750232               0.000000000              -0.094442414              -0.267045665               0.000000000              -0.103748172              -0.290341099               0.000000000              -0.113053931              -0.313636532               0.000000000              -0.122359690              -0.336931966               0.000000000              -0.131665448              -0.360227399               0.000000000              -0.140971207              -0.383522833               0.000000000              -0.150276966              -0.406818266               0.000000000              -0.159582724              -0.430113700               0.000000000              -0.168888483              -0.453409133               0.000000000              -0.178194241              -0.476704567               0.000000000              -0.187500000              -0.500000000               0.000000000              -0.025947013              -0.130444442               0.000000000              -0.032137825              -0.153541665               0.000000000              -0.038328636              -0.176638887               0.000000000              -0.044519448              -0.199736109               0.000000000              -0.050710260              -0.222833332               0.000000000              -0.056901071              -0.245930554               0.000000000              -0.063091883              -0.269027776               0.000000000              -0.069282695              -0.292124999               0.000000000              -0.075473506              -0.315222221               0.000000000              -0.081664318              -0.338319444               0.000000000              -0.087855130              -0.361416666               0.000000000              -0.094045942              -0.384513888               0.000000000              -0.100236753              -0.407611111               0.000000000              -0.106427565              -0.430708333               0.000000000              -0.112618377              -0.453805555               0.000000000              -0.118809188              -0.476902778               0.000000000              -0.125000000              -0.500000000               0.000000000              -0.013036280              -0.132359569               0.000000000              -0.016127762              -0.155337096               0.000000000              -0.019219245              -0.178314623               0.000000000              -0.022310727              -0.201292150               0.000000000              -0.025402210              -0.224269676               0.000000000              -0.028493692              -0.247247203               0.000000000              -0.031585175              -0.270224730               0.000000000              -0.034676657              -0.293202257               0.000000000              -0.037768140              -0.316179784               0.000000000              -0.040859622              -0.339157311               0.000000000              -0.043951105              -0.362134838               0.000000000              -0.047042587              -0.385112365               0.000000000              -0.050134070              -0.408089892               0.000000000              -0.053225552              -0.431067419               0.000000000              -0.056317035              -0.454044946               0.000000000              -0.059408517              -0.477022473               0.000000000              -0.062500000              -0.500000000               0.000000000               0.000000000              -0.133000000               0.000000000               0.000000000              -0.155937500               0.000000000               0.000000000              -0.178875000               0.000000000               0.000000000              -0.201812500               0.000000000               0.000000000              -0.224750000               0.000000000               0.000000000              -0.247687500               0.000000000               0.000000000              -0.270625000               0.000000000               0.000000000              -0.293562500               0.000000000               0.000000000              -0.316500000               0.000000000               0.000000000              -0.339437500               0.000000000               0.000000000              -0.362375000               0.000000000               0.000000000              -0.385312500               0.000000000               0.000000000              -0.408250000               0.000000000               0.000000000              -0.431187500               0.000000000               0.000000000              -0.454125000               0.000000000               0.000000000              -0.477062500               0.000000000               0.000000000              -0.500000000               0.000000000              -0.133000000               0.000000000               0.000000000              -0.155937500               0.000000000               0.000000000              -0.178875000               0.000000000               0.000000000              -0.201812500               0.000000000               0.000000000              -0.224750000               0.000000000               0.000000000              -0.247687500               0.000000000               0.000000000              -0.270625000               0.000000000               0.000000000              -0.293562500               0.000000000               0.000000000              -0.316500000               0.000000000               0.000000000              -0.339437500               0.000000000               0.000000000              -0.362375000               0.000000000               0.000000000              -0.385312500               0.000000000               0.000000000              -0.408250000               0.000000000               0.000000000              -0.431187500               0.000000000               0.000000000              -0.454125000               0.000000000               0.000000000              -0.477062500               0.000000000               0.000000000              -0.500000000               0.000000000               0.000000000              -0.132359569               0.013036280               0.000000000              -0.155337096               0.016127762               0.000000000              -0.178314623               0.019219245               0.000000000              -0.201292150               0.022310727               0.000000000              -0.224269676               0.025402210               0.000000000              -0.247247203               0.028493692               0.000000000              -0.270224730               0.031585175               0.000000000              -0.293202257               0.034676657               0.000000000              -0.316179784               0.037768140               0.000000000              -0.339157311               0.040859622               0.000000000              -0.362134838               0.043951105               0.000000000              -0.385112365               0.047042587               0.000000000              -0.408089892               0.050134070               0.000000000              -0.431067419               0.053225552               0.000000000              -0.454044946               0.056317035               0.000000000              -0.477022473               0.059408517               0.000000000              -0.500000000               0.062500000               0.000000000              -0.130444442               0.025947013               0.000000000              -0.153541665               0.032137825               0.000000000              -0.176638887               0.038328636               0.000000000              -0.199736109               0.044519448               0.000000000              -0.222833332               0.050710260               0.000000000              -0.245930554               0.056901071               0.000000000              -0.269027776               0.063091883               0.000000000              -0.292124999               0.069282695               0.000000000              -0.315222221               0.075473506               0.000000000              -0.338319444               0.081664318               0.000000000              -0.361416666               0.087855130               0.000000000              -0.384513888               0.094045942               0.000000000              -0.407611111               0.100236753               0.000000000              -0.430708333               0.106427565               0.000000000              -0.453805555               0.112618377               0.000000000              -0.476902778               0.118809188               0.000000000              -0.500000000               0.125000000               0.000000000              -0.127273065               0.038607862               0.000000000              -0.150568498               0.047913621               0.000000000              -0.173863932               0.057219379               0.000000000              -0.197159365               0.066525138               0.000000000              -0.220454798               0.075830897               0.000000000              -0.243750232               0.085136655               0.000000000              -0.267045665               0.094442414               0.000000000              -0.290341099               0.103748172               0.000000000              -0.313636532               0.113053931               0.000000000              -0.336931966               0.122359690               0.000000000              -0.360227399               0.131665448               0.000000000              -0.383522833               0.140971207               0.000000000              -0.406818266               0.150276966               0.000000000              -0.430113700               0.159582724               0.000000000              -0.453409133               0.168888483               0.000000000              -0.476704567               0.178194241               0.000000000              -0.500000000               0.187500000               0.000000000              -0.122875978               0.050896897               0.000000000              -0.146446229               0.063340840               0.000000000              -0.170016481               0.075784784               0.000000000              -0.193586732               0.088228728               0.000000000              -0.217156983               0.100672672               0.000000000              -0.240727235               0.113116616               0.000000000              -0.264297486               0.125560560               0.000000000              -0.287867738               0.138004504               0.000000000              -0.311437989               0.150448448               0.000000000              -0.335008240               0.162892392               0.000000000              -0.358578492               0.175336336               0.000000000              -0.382148743               0.187780280               0.000000000              -0.405718994               0.200224224               0.000000000              -0.429289246               0.212668168               0.000000000              -0.452859497               0.225112112               0.000000000              -0.476429749               0.237556056               0.000000000              -0.500000000               0.250000000               0.000000000              -0.117295528               0.062695766               0.000000000              -0.141214558               0.078308531               0.000000000              -0.165133587               0.093921295               0.000000000              -0.189052617               0.109534060               0.000000000              -0.212971646               0.125146824               0.000000000              -0.236890676               0.140759589               0.000000000              -0.260809705               0.156372354               0.000000000              -0.284728735               0.171985118               0.000000000              -0.308647764               0.187597883               0.000000000              -0.332566794               0.203210648               0.000000000              -0.356485823               0.218823412               0.000000000              -0.380404853               0.234436177               0.000000000              -0.404323882               0.250048941               0.000000000              -0.428242912               0.265661706               0.000000000              -0.452161941               0.281274471               0.000000000              -0.476080971               0.296887235               0.000000000              -0.500000000               0.312500000               0.000000000              -0.110585458               0.073890841               0.000000000              -0.134923867               0.092710163               0.000000000              -0.159262276               0.111529486               0.000000000              -0.183600685               0.130348808               0.000000000              -0.207939094               0.149168131               0.000000000              -0.232277503               0.167987453               0.000000000              -0.256615912               0.186806776               0.000000000              -0.280954320               0.205626098               0.000000000              -0.305292729               0.224445420               0.000000000              -0.329631138               0.243264743               0.000000000              -0.353969547               0.262084065               0.000000000              -0.378307956               0.280903388               0.000000000              -0.402646365               0.299722710               0.000000000              -0.426984773               0.318542033               0.000000000              -0.451323182               0.337361355               0.000000000              -0.475661591               0.356180678               0.000000000              -0.500000000               0.375000000               0.000000000              -0.102810390               0.084374307               0.000000000              -0.127634741               0.106444663               0.000000000              -0.152459092               0.128515018               0.000000000              -0.177283442               0.150585374               0.000000000              -0.202107793               0.172655730               0.000000000              -0.226932143               0.194726086               0.000000000              -0.251756494               0.216796442               0.000000000              -0.276580845               0.238866798               0.000000000              -0.301405195               0.260937153               0.000000000              -0.326229546               0.283007509               0.000000000              -0.351053896               0.305077865               0.000000000              -0.375878247               0.327148221               0.000000000              -0.400702598               0.349218577               0.000000000              -0.425526948               0.371288933               0.000000000              -0.450351299               0.393359288               0.000000000              -0.475175649               0.415429644               0.000000000              -0.500000000               0.437500000               0.000000000              -0.094045202               0.094045202               0.000000000              -0.119417377               0.119417377               0.000000000              -0.144789552               0.144789552               0.000000000              -0.170161727               0.170161727               0.000000000              -0.195533901               0.195533901               0.000000000              -0.220906076               0.220906076               0.000000000              -0.246278251               0.246278251               0.000000000              -0.271650426               0.271650426               0.000000000              -0.297022601               0.297022601               0.000000000              -0.322394776               0.322394776               0.000000000              -0.347766951               0.347766951               0.000000000              -0.373139126               0.373139126               0.000000000              -0.398511300               0.398511300               0.000000000              -0.423883475               0.423883475               0.000000000              -0.449255650               0.449255650               0.000000000              -0.474627825               0.474627825               0.000000000              -0.500000000               0.500000000               0.000000000              -0.084374307               0.102810390               0.000000000              -0.106444663               0.127634741               0.000000000              -0.128515018               0.152459092               0.000000000              -0.150585374               0.177283442               0.000000000              -0.172655730               0.202107793               0.000000000              -0.194726086               0.226932143               0.000000000              -0.216796442               0.251756494               0.000000000              -0.238866798               0.276580845               0.000000000              -0.260937153               0.301405195               0.000000000              -0.283007509               0.326229546               0.000000000              -0.305077865               0.351053896               0.000000000              -0.327148221               0.375878247               0.000000000              -0.349218577               0.400702598               0.000000000              -0.371288933               0.425526948               0.000000000              -0.393359288               0.450351299               0.000000000              -0.415429644               0.475175649               0.000000000              -0.437500000               0.500000000               0.000000000              -0.073890841               0.110585458               0.000000000              -0.092710163               0.134923867               0.000000000              -0.111529486               0.159262276               0.000000000              -0.130348808               0.183600685               0.000000000              -0.149168131               0.207939094               0.000000000              -0.167987453               0.232277503               0.000000000              -0.186806776               0.256615912               0.000000000              -0.205626098               0.280954320               0.000000000              -0.224445420               0.305292729               0.000000000              -0.243264743               0.329631138               0.000000000              -0.262084065               0.353969547               0.000000000              -0.280903388               0.378307956               0.000000000              -0.299722710               0.402646365               0.000000000              -0.318542033               0.426984773               0.000000000              -0.337361355               0.451323182               0.000000000              -0.356180678               0.475661591               0.000000000              -0.375000000               0.500000000               0.000000000              -0.062695766               0.117295528               0.000000000              -0.078308531               0.141214558               0.000000000              -0.093921295               0.165133587               0.000000000              -0.109534060               0.189052617               0.000000000              -0.125146824               0.212971646               0.000000000              -0.140759589               0.236890676               0.000000000              -0.156372354               0.260809705               0.000000000              -0.171985118               0.284728735               0.000000000              -0.187597883               0.308647764               0.000000000              -0.203210648               0.332566794               0.000000000              -0.218823412               0.356485823               0.000000000              -0.234436177               0.380404853               0.000000000              -0.250048941               0.404323882               0.000000000              -0.265661706               0.428242912               0.000000000              -0.281274471               0.452161941               0.000000000              -0.296887235               0.476080971               0.000000000              -0.312500000               0.500000000               0.000000000              -0.050896897               0.122875978               0.000000000              -0.063340840               0.146446229               0.000000000              -0.075784784               0.170016481               0.000000000              -0.088228728               0.193586732               0.000000000              -0.100672672               0.217156983               0.000000000              -0.113116616               0.240727235               0.000000000              -0.125560560               0.264297486               0.000000000              -0.138004504               0.287867738               0.000000000              -0.150448448               0.311437989               0.000000000              -0.162892392               0.335008240               0.000000000              -0.175336336               0.358578492               0.000000000              -0.187780280               0.382148743               0.000000000              -0.200224224               0.405718994               0.000000000              -0.212668168               0.429289246               0.000000000              -0.225112112               0.452859497               0.000000000              -0.237556056               0.476429749               0.000000000              -0.250000000               0.500000000               0.000000000              -0.038607862               0.127273065               0.000000000              -0.047913621               0.150568498               0.000000000              -0.057219379               0.173863932               0.000000000              -0.066525138               0.197159365               0.000000000              -0.075830897               0.220454798               0.000000000              -0.085136655               0.243750232               0.000000000              -0.094442414               0.267045665               0.000000000              -0.103748172               0.290341099               0.000000000              -0.113053931               0.313636532               0.000000000              -0.122359690               0.336931966               0.000000000              -0.131665448               0.360227399               0.000000000              -0.140971207               0.383522833               0.000000000              -0.150276966               0.406818266               0.000000000              -0.159582724               0.430113700               0.000000000              -0.168888483               0.453409133               0.000000000              -0.178194241               0.476704567               0.000000000              -0.187500000               0.500000000               0.000000000              -0.025947013               0.130444442               0.000000000              -0.032137825               0.153541665               0.000000000              -0.038328636               0.176638887               0.000000000              -0.044519448               0.199736109               0.000000000              -0.050710260               0.222833332               0.000000000              -0.056901071               0.245930554               0.000000000              -0.063091883               0.269027776               0.000000000              -0.069282695               0.292124999               0.000000000              -0.075473506               0.315222221               0.000000000              -0.081664318               0.338319444               0.000000000              -0.087855130               0.361416666               0.000000000              -0.094045942               0.384513888               0.000000000              -0.100236753               0.407611111               0.000000000              -0.106427565               0.430708333               0.000000000              -0.112618377               0.453805555               0.000000000              -0.118809188               0.476902778               0.000000000              -0.125000000               0.500000000               0.000000000              -0.013036280               0.132359569               0.000000000              -0.016127762               0.155337096               0.000000000              -0.019219245               0.178314623               0.000000000              -0.022310727               0.201292150               0.000000000              -0.025402210               0.224269676               0.000000000              -0.028493692               0.247247203               0.000000000              -0.031585175               0.270224730               0.000000000              -0.034676657               0.293202257               0.000000000              -0.037768140               0.316179784               0.000000000              -0.040859622               0.339157311               0.000000000              -0.043951105               0.362134838               0.000000000              -0.047042587               0.385112365               0.000000000              -0.050134070               0.408089892               0.000000000              -0.053225552               0.431067419               0.000000000              -0.056317035               0.454044946               0.000000000              -0.059408517               0.477022473               0.000000000              -0.062500000               0.500000000               0.000000000               0.000000000               0.133000000               0.000000000               0.000000000               0.155937500               0.000000000               0.000000000               0.178875000               0.000000000               0.000000000               0.201812500               0.000000000               0.000000000               0.224750000               0.000000000               0.000000000               0.247687500               0.000000000               0.000000000               0.270625000               0.000000000               0.000000000               0.293562500               0.000000000               0.000000000               0.316500000               0.000000000               0.000000000               0.339437500               0.000000000               0.000000000               0.362375000               0.000000000               0.000000000               0.385312500               0.000000000               0.000000000               0.408250000               0.000000000               0.000000000               0.431187500               0.000000000               0.000000000               0.454125000               0.000000000               0.000000000               0.477062500               0.000000000               0.000000000               0.500000000               0.000000000 </DataArray>
</Points>
<Cells>
<DataArray type="Int32"                                    Name="connectivity"                                                      NumberOfComponents=" 1" format="ascii">
         0          1         18         17          1          2         19         18          2          3         20         19          3          4         21         20          4          5         22         21          5          6         23         22          6          7         24         23          7          8         25         24          8          9         26         25          9         10         27         26         10         11         28         27         11         12         29         28         12         13         30         29         13         14         31         30         14         15         32         31         15         16         33         32         17         18         35         34         18         19         36         35         19         20         37         36         20         21         38         37         21         22         39         38         22         23         40         39         23         24         41         40         24         25         42         41         25         26         43         42         26         27         44         43         27         28         45         44         28         29         46         45         29         30         47         46         30         31         48         47         31         32         49         48         32         33         50         49         34         35         52         51         35         36         53         52         36         37         54         53         37         38         55         54         38         39         56         55         39         40         57         56         40         41         58         57         41         42         59         58         42         43         60         59         43         44         61         60         44         45         62         61         45         46         63         62         46         47         64         63         47         48         65         64         48         49         66         65         49         50         67         66         51         52         69         68         52         53         70         69         53         54         71         70         54         55         72         71         55         56         73         72         56         57         74         73         57         58         75         74         58         59         76         75         59         60         77         76         60         61         78         77         61         62         79         78         62         63         80         79         63         64         81         80         64         65         82         81         65         66         83         82         66         67         84         83         68         69         86         85         69         70         87         86         70         71         88         87         71         72         89         88         72         73         90         89         73         74         91         90         74         75         92         91         75         76         93         92         76         77         94         93         77         78         95         94         78         79         96         95         79         80         97         96         80         81         98         97         81         82         99         98         82         83        100         99         83         84        101        100         85         86        103        102         86         87        104        103         87         88        105        104         88         89        106        105         89         90        107        106         90         91        108        107         91         92        109        108         92         93        110        109         93         94        111        110         94         95        112        111         95         96        113        112         96         97        114        113         97         98        115        114         98         99        116        115         99        100        117        116        100        101        118        117        102        103        120        119        103        104        121        120        104        105        122        121        105        106        123        122        106        107        124        123        107        108        125        124        108        109        126        125        109        110        127        126        110        111        128        127        111        112        129        128        112        113        130        129        113        114        131        130        114        115        132        131        115        116        133        132        116        117        134        133        117        118        135        134        119        120        137        136        120        121        138        137        121        122        139        138        122        123        140        139        123        124        141        140        124        125        142        141        125        126        143        142        126        127        144        143        127        128        145        144        128        129        146        145        129        130        147        146        130        131        148        147        131        132        149        148        132        133        150        149        133        134        151        150        134        135        152        151        136        137        154        153        137        138        155        154        138        139        156        155        139        140        157        156        140        141        158        157        141        142        159        158        142        143        160        159        143        144        161        160        144        145        162        161        145        146        163        162        146        147        164        163        147        148        165        164        148        149        166        165        149        150        167        166        150        151        168        167        151        152        169        168        153        154        171        170        154        155        172        171        155        156        173        172        156        157        174        173        157        158        175        174        158        159        176        175        159        160        177        176        160        161        178        177        161        162        179        178        162        163        180        179        163        164        181        180        164        165        182        181        165        166        183        182        166        167        184        183        167        168        185        184        168        169        186        185        170        171        188        187        171        172        189        188        172        173        190        189        173        174        191        190        174        175        192        191        175        176        193        192        176        177        194        193        177        178        195        194        178        179        196        195        179        180        197        196        180        181        198        197        181        182        199        198        182        183        200        199        183        184        201        200        184        185        202        201        185        186        203        202        187        188        205        204        188        189        206        205        189        190        207        206        190        191        208        207        191        192        209        208        192        193        210        209        193        194        211        210        194        195        212        211        195        196        213        212        196        197        214        213        197        198        215        214        198        199        216        215        199        200        217        216        200        201        218        217        201        202        219        218        202        203        220        219        204        205        222        221        205        206        223        222        206        207        224        223        207        208        225        224        208        209        226        225        209        210        227        226        210        211        228        227        211        212        229        228        212        213        230        229        213        214        231        230        214        215        232        231        215        216        233        232        216        217        234        233        217        218        235        234        218        219        236        235        219        220        237        236        221        222        239        238        222        223        240        239        223        224        241        240        224        225        242        241        225        226        243        242        226        227        244        243        227        228        245        244        228        229        246        245        229        230        247        246        230        231        248        247        231        232        249        248        232        233        250        249        233        234        251        250        234        235        252        251        235        236        253        252        236        237        254        253        238        239        256        255        239        240        257        256        240        241        258        257        241        242        259        258        242        243        260        259        243        244        261        260        244        245        262        261        245        246        263        262        246        247        264        263        247        248        265        264        248        249        266        265        249        250        267        266        250        251        268        267        251        252        269        268        252        253        270        269        253        254        271        270        255        256        273        272        256        257        274        273        257        258        275        274        258        259        276        275        259        260        277        276        260        261        278        277        261        262        279        278        262        263        280        279        263        264        281        280        264        265        282        281        265        266        283        282        266        267        284        283        267        268        285        284        268        269        286        285        269        270        287        286        270        271        288        287        306        307          1          0        307        308          2          1        308        309          3          2        309        310          4          3        310        311          5          4        311        312          6          5        312        313          7          6        313        314          8          7        314        315          9          8        315        316         10          9        316        317         11         10        317        318         12         11        318        319         13         12        319        320         14         13        320        321         15         14        321        322         16         15        323        324        307        306        324        325        308        307        325        326        309        308        326        327        310        309        327        328        311        310        328        329        312        311        329        330        313        312        330        331        314        313        331        332        315        314        332        333        316        315        333        334        317        316        334        335        318        317        335        336        319        318        336        337        320        319        337        338        321        320        338        339        322        321        340        341        324        323        341        342        325        324        342        343        326        325        343        344        327        326        344        345        328        327        345        346        329        328        346        347        330        329        347        348        331        330        348        349        332        331        349        350        333        332        350        351        334        333        351        352        335        334        352        353        336        335        353        354        337        336        354        355        338        337        355        356        339        338        357        358        341        340        358        359        342        341        359        360        343        342        360        361        344        343        361        362        345        344        362        363        346        345        363        364        347        346        364        365        348        347        365        366        349        348        366        367        350        349        367        368        351        350        368        369        352        351        369        370        353        352        370        371        354        353        371        372        355        354        372        373        356        355        374        375        358        357        375        376        359        358        376        377        360        359        377        378        361        360        378        379        362        361        379        380        363        362        380        381        364        363        381        382        365        364        382        383        366        365        383        384        367        366        384        385        368        367        385        386        369        368        386        387        370        369        387        388        371        370        388        389        372        371        389        390        373        372        391        392        375        374        392        393        376        375        393        394        377        376        394        395        378        377        395        396        379        378        396        397        380        379        397        398        381        380        398        399        382        381        399        400        383        382        400        401        384        383        401        402        385        384        402        403        386        385        403        404        387        386        404        405        388        387        405        406        389        388        406        407        390        389        408        409        392        391        409        410        393        392        410        411        394        393        411        412        395        394        412        413        396        395        413        414        397        396        414        415        398        397        415        416        399        398        416        417        400        399        417        418        401        400        418        419        402        401        419        420        403        402        420        421        404        403        421        422        405        404        422        423        406        405        423        424        407        406        425        426        409        408        426        427        410        409        427        428        411        410        428        429        412        411        429        430        413        412        430        431        414        413        431        432        415        414        432        433        416        415        433        434        417        416        434        435        418        417        435        436        419        418        436        437        420        419        437        438        421        420        438        439        422        421        439        440        423        422        440        441        424        423        442        443        426        425        443        444        427        426        444        445        428        427        445        446        429        428        446        447        430        429        447        448        431        430        448        449        432        431        449        450        433        432        450        451        434        433        451        452        435        434        452        453        436        435        453        454        437        436        454        455        438        437        455        456        439        438        456        457        440        439        457        458        441        440        459        460        443        442        460        461        444        443        461        462        445        444        462        463        446        445        463        464        447        446        464        465        448        447        465        466        449        448        466        467        450        449        467        468        451        450        468        469        452        451        469        470        453        452        470        471        454        453        471        472        455        454        472        473        456        455        473        474        457        456        474        475        458        457        476        477        460        459        477        478        461        460        478        479        462        461        479        480        463        462        480        481        464        463        481        482        465        464        482        483        466        465        483        484        467        466        484        485        468        467        485        486        469        468        486        487        470        469        487        488        471        470        488        489        472        471        489        490        473        472        490        491        474        473        491        492        475        474        493        494        477        476        494        495        478        477        495        496        479        478        496        497        480        479        497        498        481        480        498        499        482        481        499        500        483        482        500        501        484        483        501        502        485        484        502        503        486        485        503        504        487        486        504        505        488        487        505        506        489        488        506        507        490        489        507        508        491        490        508        509        492        491        510        511        494        493        511        512        495        494        512        513        496        495        513        514        497        496        514        515        498        497        515        516        499        498        516        517        500        499        517        518        501        500        518        519        502        501        519        520        503        502        520        521        504        503        521        522        505        504        522        523        506        505        523        524        507        506        524        525        508        507        525        526        509        508        527        528        511        510        528        529        512        511        529        530        513        512        530        531        514        513        531        532        515        514        532        533        516        515        533        534        517        516        534        535        518        517        535        536        519        518        536        537        520        519        537        538        521        520        538        539        522        521        539        540        523        522        540        541        524        523        541        542        525        524        542        543        526        525        544        545        528        527        545        546        529        528        546        547        530        529        547        548        531        530        548        549        532        531        549        550        533        532        550        551        534        533        551        552        535        534        552        553        536        535        553        554        537        536        554        555        538        537        555        556        539        538        556        557        540        539        557        558        541        540        558        559        542        541        559        560        543        542        561        562        545        544        562        563        546        545        563        564        547        546        564        565        548        547        565        566        549        548        566        567        550        549        567        568        551        550        568        569        552        551        569        570        553        552        570        571        554        553        571        572        555        554        572        573        556        555        573        574        557        556        574        575        558        557        575        576        559        558        576        577        560        559        578        579        596        595        579        580        597        596        580        581        598        597        581        582        599        598        582        583        600        599        583        584        601        600        584        585        602        601        585        586        603        602        586        587        604        603        587        588        605        604        588        589        606        605        589        590        607        606        590        591        608        607        591        592        609        608        592        593        610        609        593        594        611        610        595        596        613        612        596        597        614        613        597        598        615        614        598        599        616        615        599        600        617        616        600        601        618        617        601        602        619        618        602        603        620        619        603        604        621        620        604        605        622        621        605        606        623        622        606        607        624        623        607        608        625        624        608        609        626        625        609        610        627        626        610        611        628        627        612        613        630        629        613        614        631        630        614        615        632        631        615        616        633        632        616        617        634        633        617        618        635        634        618        619        636        635        619        620        637        636        620        621        638        637        621        622        639        638        622        623        640        639        623        624        641        640        624        625        642        641        625        626        643        642        626        627        644        643        627        628        645        644        629        630        647        646        630        631        648        647        631        632        649        648        632        633        650        649        633        634        651        650        634        635        652        651        635        636        653        652        636        637        654        653        637        638        655        654        638        639        656        655        639        640        657        656        640        641        658        657        641        642        659        658        642        643        660        659        643        644        661        660        644        645        662        661        646        647        664        663        647        648        665        664        648        649        666        665        649        650        667        666        650        651        668        667        651        652        669        668        652        653        670        669        653        654        671        670        654        655        672        671        655        656        673        672        656        657        674        673        657        658        675        674        658        659        676        675        659        660        677        676        660        661        678        677        661        662        679        678        663        664        681        680        664        665        682        681        665        666        683        682        666        667        684        683        667        668        685        684        668        669        686        685        669        670        687        686        670        671        688        687        671        672        689        688        672        673        690        689        673        674        691        690        674        675        692        691        675        676        693        692        676        677        694        693        677        678        695        694        678        679        696        695        680        681        698        697        681        682        699        698        682        683        700        699        683        684        701        700        684        685        702        701        685        686        703        702        686        687        704        703        687        688        705        704        688        689        706        705        689        690        707        706        690        691        708        707        691        692        709        708        692        693        710        709        693        694        711        710        694        695        712        711        695        696        713        712        697        698        715        714        698        699        716        715        699        700        717        716        700        701        718        717        701        702        719        718        702        703        720        719        703        704        721        720        704        705        722        721        705        706        723        722        706        707        724        723        707        708        725        724        708        709        726        725        709        710        727        726        710        711        728        727        711        712        729        728        712        713        730        729        714        715        732        731        715        716        733        732        716        717        734        733        717        718        735        734        718        719        736        735        719        720        737        736        720        721        738        737        721        722        739        738        722        723        740        739        723        724        741        740        724        725        742        741        725        726        743        742        726        727        744        743        727        728        745        744        728        729        746        745        729        730        747        746        731        732        749        748        732        733        750        749        733        734        751        750        734        735        752        751        735        736        753        752        736        737        754        753        737        738        755        754        738        739        756        755        739        740        757        756        740        741        758        757        741        742        759        758        742        743        760        759        743        744        761        760        744        745        762        761        745        746        763        762        746        747        764        763        748        749        766        765        749        750        767        766        750        751        768        767        751        752        769        768        752        753        770        769        753        754        771        770        754        755        772        771        755        756        773        772        756        757        774        773        757        758        775        774        758        759        776        775        759        760        777        776        760        761        778        777        761        762        779        778        762        763        780        779        763        764        781        780        765        766        783        782        766        767        784        783        767        768        785        784        768        769        786        785        769        770        787        786        770        771        788        787        771        772        789        788        772        773        790        789        773        774        791        790        774        775        792        791        775        776        793        792        776        777        794        793        777        778        795        794        778        779        796        795        779        780        797        796        780        781        798        797        782        783        800        799        783        784        801        800        784        785        802        801        785        786        803        802        786        787        804        803        787        788        805        804        788        789        806        805        789        790        807        806        790        791        808        807        791        792        809        808        792        793        810        809        793        794        811        810        794        795        812        811        795        796        813        812        796        797        814        813        797        798        815        814        799        800        817        816        800        801        818        817        801        802        819        818        802        803        820        819        803        804        821        820        804        805        822        821        805        806        823        822        806        807        824        823        807        808        825        824        808        809        826        825        809        810        827        826        810        811        828        827        811        812        829        828        812        813        830        829        813        814        831        830        814        815        832        831        816        817        834        833        817        818        835        834        818        819        836        835        819        820        837        836        820        821        838        837        821        822        839        838        822        823        840        839        823        824        841        840        824        825        842        841        825        826        843        842        826        827        844        843        827        828        845        844        828        829        846        845        829        830        847        846        830        831        848        847        831        832        849        848        833        834        562        561        834        835        563        562        835        836        564        563        836        837        565        564        837        838        566        565        838        839        567        566        839        840        568        567        840        841        569        568        841        842        570        569        842        843        571        570        843        844        572        571        844        845        573        572        845        846        574        573        846        847        575        574        847        848        576        575        848        849        577        576        884        885        579        578        885        886        580        579        886        887        581        580        887        888        582        581        888        889        583        582        889        890        584        583        890        891        585        584        891        892        586        585        892        893        587        586        893        894        588        587        894        895        589        588        895        896        590        589        896        897        591        590        897        898        592        591        898        899        593        592        899        900        594        593        901        902        885        884        902        903        886        885        903        904        887        886        904        905        888        887        905        906        889        888        906        907        890        889        907        908        891        890        908        909        892        891        909        910        893        892        910        911        894        893        911        912        895        894        912        913        896        895        913        914        897        896        914        915        898        897        915        916        899        898        916        917        900        899        918        919        902        901        919        920        903        902        920        921        904        903        921        922        905        904        922        923        906        905        923        924        907        906        924        925        908        907        925        926        909        908        926        927        910        909        927        928        911        910        928        929        912        911        929        930        913        912        930        931        914        913        931        932        915        914        932        933        916        915        933        934        917        916        935        936        919        918        936        937        920        919        937        938        921        920        938        939        922        921        939        940        923        922        940        941        924        923        941        942        925        924        942        943        926        925        943        944        927        926        944        945        928        927        945        946        929        928        946        947        930        929        947        948        931        930        948        949        932        931        949        950        933        932        950        951        934        933        952        953        936        935        953        954        937        936        954        955        938        937        955        956        939        938        956        957        940        939        957        958        941        940        958        959        942        941        959        960        943        942        960        961        944        943        961        962        945        944        962        963        946        945        963        964        947        946        964        965        948        947        965        966        949        948        966        967        950        949        967        968        951        950        969        970        953        952        970        971        954        953        971        972        955        954        972        973        956        955        973        974        957        956        974        975        958        957        975        976        959        958        976        977        960        959        977        978        961        960        978        979        962        961        979        980        963        962        980        981        964        963        981        982        965        964        982        983        966        965        983        984        967        966        984        985        968        967        986        987        970        969        987        988        971        970        988        989        972        971        989        990        973        972        990        991        974        973        991        992        975        974        992        993        976        975        993        994        977        976        994        995        978        977        995        996        979        978        996        997        980        979        997        998        981        980        998        999        982        981        999       1000        983        982       1000       1001        984        983       1001       1002        985        984       1003       1004        987        986       1004       1005        988        987       1005       1006        989        988       1006       1007        990        989       1007       1008        991        990       1008       1009        992        991       1009       1010        993        992       1010       1011        994        993       1011       1012        995        994       1012       1013        996        995       1013       1014        997        996       1014       1015        998        997       1015       1016        999        998       1016       1017       1000        999       1017       1018       1001       1000       1018       1019       1002       1001       1020       1021       1004       1003       1021       1022       1005       1004       1022       1023       1006       1005       1023       1024       1007       1006       1024       1025       1008       1007       1025       1026       1009       1008       1026       1027       1010       1009       1027       1028       1011       1010       1028       1029       1012       1011       1029       1030       1013       1012       1030       1031       1014       1013       1031       1032       1015       1014       1032       1033       1016       1015       1033       1034       1017       1016       1034       1035       1018       1017       1035       1036       1019       1018       1037       1038       1021       1020       1038       1039       1022       1021       1039       1040       1023       1022       1040       1041       1024       1023       1041       1042       1025       1024       1042       1043       1026       1025       1043       1044       1027       1026       1044       1045       1028       1027       1045       1046       1029       1028       1046       1047       1030       1029       1047       1048       1031       1030       1048       1049       1032       1031       1049       1050       1033       1032       1050       1051       1034       1033       1051       1052       1035       1034       1052       1053       1036       1035       1054       1055       1038       1037       1055       1056       1039       1038       1056       1057       1040       1039       1057       1058       1041       1040       1058       1059       1042       1041       1059       1060       1043       1042       1060       1061       1044       1043       1061       1062       1045       1044       1062       1063       1046       1045       1063       1064       1047       1046       1064       1065       1048       1047       1065       1066       1049       1048       1066       1067       1050       1049       1067       1068       1051       1050       1068       1069       1052       1051       1069       1070       1053       1052       1071       1072       1055       1054       1072       1073       1056       1055       1073       1074       1057       1056       1074       1075       1058       1057       1075       1076       1059       1058       1076       1077       1060       1059       1077       1078       1061       1060       1078       1079       1062       1061       1079       1080       1063       1062       1080       1081       1064       1063       1081       1082       1065       1064       1082       1083       1066       1065       1083       1084       1067       1066       1084       1085       1068       1067       1085       1086       1069       1068       1086       1087       1070       1069       1088       1089       1072       1071       1089       1090       1073       1072       1090       1091       1074       1073       1091       1092       1075       1074       1092       1093       1076       1075       1093       1094       1077       1076       1094       1095       1078       1077       1095       1096       1079       1078       1096       1097       1080       1079       1097       1098       1081       1080       1098       1099       1082       1081       1099       1100       1083       1082       1100       1101       1084       1083       1101       1102       1085       1084       1102       1103       1086       1085       1103       1104       1087       1086       1105       1106       1089       1088       1106       1107       1090       1089       1107       1108       1091       1090       1108       1109       1092       1091       1109       1110       1093       1092       1110       1111       1094       1093       1111       1112       1095       1094       1112       1113       1096       1095       1113       1114       1097       1096       1114       1115       1098       1097       1115       1116       1099       1098       1116       1117       1100       1099       1117       1118       1101       1100       1118       1119       1102       1101       1119       1120       1103       1102       1120       1121       1104       1103       1122       1123       1106       1105       1123       1124       1107       1106       1124       1125       1108       1107       1125       1126       1109       1108       1126       1127       1110       1109       1127       1128       1111       1110       1128       1129       1112       1111       1129       1130       1113       1112       1130       1131       1114       1113       1131       1132       1115       1114       1132       1133       1116       1115       1133       1134       1117       1116       1134       1135       1118       1117       1135       1136       1119       1118       1136       1137       1120       1119       1137       1138       1121       1120        272        273       1123       1122        273        274       1124       1123        274        275       1125       1124        275        276       1126       1125        276        277       1127       1126        277        278       1128       1127        278        279       1129       1128        279        280       1130       1129        280        281       1131       1130        281        282       1132       1131        282        283       1133       1132        283        284       1134       1133        284        285       1135       1134        285        286       1136       1135        286        287       1137       1136        287        288       1138       1137 </DataArray>
<DataArray type="Int32"                                    Name="offsets"                                                      NumberOfComponents=" 1" format="ascii">
         4          8         12         16         20         24         28         32         36         40         44         48         52         56         60         64         68         72         76         80         84         88         92         96        100        104        108        112        116        120        124        128        132        136        140        144        148        152        156        160        164        168        172        176        180        184        188        192        196        200        204        208        212        216        220        224        228        232        236        240        244        248        252        256        260        264        268        272        276        280        284        288        292        296        300        304        308        312        316        320        324        328        332        336        340        344        348        352        356        360        364        368        372        376        380        384        388        392        396        400        404        408        412        416        420        424        428        432        436        440        444        448        452        456        460        464        468        472        476        480        484        488        492        496        500        504        508        512        516        520        524        528        532        536        540        544        548        552        556        560        564        568        572        576        580        584        588        592        596        600        604        608        612        616        620        624        628        632        636        640        644        648        652        656        660        664        668        672        676        680        684        688        692        696        700        704        708        712        716        720        724        728        732        736        740        744        748        752        756        760        764        768        772        776        780        784        788        792        796        800        804        808        812        816        820        824        828        832        836        840        844        848        852        856        860        864        868        872        876        880        884        888        892        896        900        904        908        912        916        920        924        928        932        936        940        944        948        952        956        960        964        968        972        976        980        984        988        992        996       1000       1004       1008       1012       1016       1020       1024       1028       1032       1036       1040       1044       1048       1052       1056       1060       1064       1068       1072       1076       1080       1084       1088       1092       1096       1100       1104       1108       1112       1116       1120       1124       1128       1132       1136       1140       1144       1148       1152       1156       1160       1164       1168       1172       1176       1180       1184       1188       1192       1196       1200       1204       1208       1212       1216       1220       1224       1228       1232       1236       1240       1244       1248       1252       1256       1260       1264       1268       1272       1276       1280       1284       1288       1292       1296       1300       1304       1308       1312       1316       1320       1324       1328       1332       1336       1340       1344       1348       1352       1356       1360       1364       1368       1372       1376       1380       1384       1388       1392       1396       1400       1404       1408       1412       1416       1420       1424       1428       1432       1436       1440       1444       1448       1452       1456       1460       1464       1468       1472       1476       1480       1484       1488       1492       1496       1500       1504       1508       1512       1516       1520       1524       1528       1532       1536       1540       1544       1548       1552       1556       1560       1564       1568       1572       1576       1580       1584       1588       1592       1596       1600       1604       1608       1612       1616       1620       1624       1628       1632       1636       1640       1644       1648       1652       1656       1660       1664       1668       1672       1676       1680       1684       1688       1692       1696       1700       1704       1708       1712       1716       1720       1724       1728       1732       1736       1740       1744       1748       1752       1756       1760       1764       1768       1772       1776       1780       1784       1788       1792       1796       1800       1804       1808       1812       1816       1820       1824       1828       1832       1836       1840       1844       1848       1852       1856       1860       1864       1868       1872       1876       1880       1884       1888       1892       1896       1900       1904       1908       1912       1916       1920       1924       1928       1932       1936       1940       1944       1948       1952       1956       1960       1964       1968       1972       1976       1980       1984       1988       1992       1996       2000       2004       2008       2012       2016       2020       2024       2028       2032       2036       2040       2044       2048       2052       2056       2060       2064       2068       2072       2076       2080       2084       2088       2092       2096       2100       2104       2108       2112       2116       2120       2124       2128       2132       2136       2140       2144       2148       2152       2156       2160       2164       2168       2172       2176       2180       2184       2188       2192       2196       2200       2204       2208       2212       2216       2220       2224       2228       2232       2236       2240       2244       2248       2252       2256       2260       2264       2268       2272       2276       2280       2284       2288       2292       2296       2300       2304       2308       2312       2316       2320       2324       2328       2332       2336       2340       2344       2348       2352       2356       2360       2364       2368       2372       2376       2380       2384       2388       2392       2396       2400       2404       2408       2412       2416       2420       2424       2428       2432       2436       2440       2444       2448       2452       2456       2460       2464       2468       2472       2476       2480       2484       2488       2492       2496       2500       2504       2508       2512       2516       2520       2524       2528       2532       2536       2540       2544       2548       2552       2556       2560       2564       2568       2572       2576       2580       2584       2588       2592       2596       2600       2604       2608       2612       2616       2620       2624       2628       2632       2636       2640       2644       2648       2652       2656       2660       2664       2668       2672       2676       2680       2684       2688       2692       2696       2700       2704       2708       2712       2716       2720       2724       2728       2732       2736       2740       2744       2748       2752       2756       2760       2764       2768       2772       2776       2780       2784       2788       2792       2796       2800       2804       2808       2812       2816       2820       2824       2828       2832       2836       2840       2844       2848       2852       2856       2860       2864       2868       2872       2876       2880       2884       2888       2892       2896       2900       2904       2908       2912       2916       2920       2924       2928       2932       2936       2940       2944       2948       2952       2956       2960       2964       2968       2972       2976       2980       2984       2988       2992       2996       3000       3004       3008       3012       3016       3020       3024       3028       3032       3036       3040       3044       3048       3052       3056       3060       3064       3068       3072       3076       3080       3084       3088       3092       3096       3100       3104       3108       3112       3116       3120       3124       3128       3132       3136       3140       3144       3148       3152       3156       3160       3164       3168       3172       3176       3180       3184       3188       3192       3196       3200       3204       3208       3212       3216       3220       3224       3228       3232       3236       3240       3244       3248       3252       3256       3260       3264       3268       3272       3276       3280       3284       3288       3292       3296       3300       3304       3308       3312       3316       3320       3324       3328       3332       3336       3340       3344       3348       3352       3356       3360       3364       3368       3372       3376       3380       3384       3388       3392       3396       3400       3404       3408       3412       3416       3420       3424       3428       3432       3436       3440       3444       3448       3452       3456       3460       3464       3468       3472       3476       3480       3484       3488       3492       3496       3500       3504       3508       3512       3516       3520       3524       3528       3532       3536       3540       3544       3548       3552       3556       3560       3564       3568       3572       3576       3580       3584       3588       3592       3596       3600       3604       3608       3612       3616       3620       3624       3628       3632       3636       3640       3644       3648       3652       3656       3660       3664       3668       3672       3676       3680       3684       3688       3692       3696       3700       3704       3708       3712       3716       3720       3724       3728       3732       3736       3740       3744       3748       3752       3756       3760       3764       3768       3772       3776       3780       3784       3788       3792       3796       3800       3804       3808       3812       3816       3820       3824       3828       3832       3836       3840       3844       3848       3852       3856       3860       3864       3868       3872       3876       3880       3884       3888       3892       3896       3900       3904       3908       3912       3916       3920       3924       3928       3932       3936       3940       3944       3948       3952       3956       3960       3964       3968       3972       3976       3980       3984       3988       3992       3996       4000       4004       4008       4012       4016       4020       4024       4028       4032       4036       4040       4044       4048       4052       4056       4060       4064       4068       4072       4076       4080       4084       4088       4092       4096 </DataArray>
<DataArray type="UInt8"                                    Name="types"                                                      NumberOfComponents=" 1" format="ascii">
         9          9          9          9          9          9          9          9          9          9          9          9          9          9          9          9          9          9          9          9          9          9          9          9          9          9          9          9          9          9          9          9          9          9          9          9          9          9          9          9          9          9          9          9          9          9          9          9          9          9          9          9          9          9          9          9          9          9          9          9          9          9          9          9          9          9          9          9          9          9          9          9          9          9          9          9          9          9          9          9          9          9          9          9          9          9          9          9          9          9          9          9          9          9          9          9          9          9          9          9          9          9          9          9          9          9          9          9          9          9          9          9          9          9          9          9          9          9          9          9          9          9          9          9          9          9          9          9          9          9          9          9          9          9          9          9          9          9          9          9          9          9          9          9          9          9          9          9          9          9          9          9          9          9          9          9          9          9          9          9          9          9          9          9          9          9          9          9          9          9          9          9          9          9          9          9          9          9          9          9          9          9          9          9          9          9          9          9          9          9          9          9          9          9          9          9          9          9          9          9          9          9          9          9          9          9          9          9          9          9          9          9          9          9          9          9          9          9          9          9          9          9          9          9          9          9          9          9          9          9          9          9          9          9          9          9          9          9          9          9          9          9          9          9          9          9          9          9          9          9          9          9          9          9          9          9          9          9          9          9          9          9          9          9          9          9          9          9          9          9          9          9          9          9          9          9          9          9          9          9          9          9          9          9          9          9          9          9          9          9          9          9          9          9          9          9          9          9          9          9          9          9          9          9          9          9          9          9          9          9          9          9          9          9          9          9          9          9          9          9          9          9          9          9          9          9          9          9          9          9          9          9          9          9          9          9          9          9          9          9          9          9          9          9          9          9          9          9          9          9          9          9          9          9          9          9          9          9          9          9          9          9          9          9          9          9          9          9          9          9          9          9          9          9          9          9          9          9          9          9          9          9          9          9          9          9          9          9          9          9          9          9          9          9          9          9          9          9          9          9          9          9          9          9          9          9          9          9          9          9          9          9          9          9          9          9          9          9          9          9          9          9          9          9          9          9          9          9          9          9          9          9          9          9          9          9          9          9          9          9          9          9          9          9          9          9          9          9          9          9          9          9          9          9          9          9          9          9          9          9          9          9          9          9          9          9          9          9          9          9          9          9          9          9          9          9          9          9          9          9          9          9          9          9          9          9          9          9          9          9          9          9          9          9          9          9          9          9          9          9          9          9          9          9          9          9          9          9          9          9          9          9          9          9          9          9          9          9          9          9          9          9          9          9          9          9          9          9          9          9          9          9          9          9          9          9          9          9          9          9          9          9          9          9          9          9          9          9          9          9          9          9          9          9          9          9          9          9          9          9          9          9          9          9          9          9          9          9          9          9          9          9          9          9          9          9          9          9          9          9          9          9          9          9          9          9          9          9          9          9          9          9          9          9          9          9          9          9          9          9          9          9          9          9          9          9          9          9          9          9          9          9          9          9          9          9          9          9          9          9          9          9          9          9          9          9          9          9          9          9          9          9          9          9          9          9          9          9          9          9          9          9          9          9          9          9          9          9          9          9          9          9          9          9          9          9          9          9          9          9          9          9          9          9          9          9          9          9          9          9          9          9          9          9          9          9          9          9          9          9          9          9          9          9          9          9          9          9          9          9          9          9          9          9          9          9          9          9          9          9          9          9          9          9          9          9          9          9          9          9          9          9          9          9          9          9          9          9          9          9          9          9          9          9          9          9          9          9          9          9          9          9          9          9          9          9          9          9          9          9          9          9          9          9          9          9          9          9          9          9          9          9          9          9          9          9          9          9          9          9          9          9          9          9          9          9          9          9          9          9          9          9          9          9          9          9          9          9          9          9          9          9          9          9          9          9          9          9          9          9          9          9          9          9          9          9          9          9          9          9          9          9          9          9          9          9          9          9          9          9          9          9          9          9          9          9          9          9          9          9          9          9          9          9          9          9          9          9          9          9          9          9          9          9          9          9          9          9          9          9          9          9          9          9          9          9          9          9          9          9          9          9          9          9          9          9          9          9          9          9          9          9          9          9          9          9          9          9          9          9          9          9          9          9          9          9          9          9          9          9          9          9          9          9          9          9          9          9          9          9          9          9          9          9          9          9          9          9          9          9          9          9          9          9          9          9          9          9          9          9          9          9          9          9          9          9          9          9          9          9          9          9          9          9          9          9          9          9          9          9          9          9          9          9          9          9          9          9          9          9          9          9          9          9          9          9          9          9          9          9          9          9          9          9          9          9          9          9          9          9          9          9          9          9          9          9          9          9          9          9          9          9          9          9          9          9          9          9          9          9          9          9          9          9          9          9          9          9          9          9          9          9          9          9          9          9          9          9          9          9          9          9          9          9          9          9          9          9          9          9          9          9          9          9          9          9          9          9          9          9          9          9          9          9 </DataArray>
</Cells>
<CellData>
<DataArray type="Int32"                                    Name="material"                                                      NumberOfComponents=" 1" format="ascii">
         1          1          1          1          1          1          1          1          1          1          1          1          1          1          1          1          1          1          1          1          1          1          1          1          1          1          1          1          1          1          1          1          1          1          1          1          1          1          1          1          1          1          1          1          1          1          1          1          1          1          1          1          1          1          1          1          1          1          1          1          1          1          1          1          1          1          1          1          1          1          1          1          1          1          1          1          1          1          1          1          1          1          1          1          1          1          1          1          1          1          1          1          1          1          1          1          1          1          1          1          1          1          1          1          1          1          1          1          1          1          1          1          1          1          1          1          1          1          1          1          1          1          1          1          1          1          1          1          1          1          1          1          1          1          1          1          1          1          1          1          1          1          1          1          1          1          1          1          1          1          1          1          1          1          1          1          1          1          1          1          1          1          1          1          1          1          1          1          1          1          1          1          1          1          1          1          1          1          1          1          1          1          1          1          1          1          1          1          1          1          1          1          1          1          1          1          1          1          1          1          1          1          1          1          1          1          1          1          1          1          1          1          1          1          1          1          1          1          1          1          1          1          1          1          1          1          1          1          1          1          1          1          1          1          1          1          1          1          1          1          1          1          1          1          1          1          1          1          1          1          1          1          1          1          1          1          1          1          1          1          1          1          1          1          1          1          1          1          1          1          1          1          1          1          1          1          1          1          1          1          1          1          1          1          1          1          1          1          1          1          1          1          1          1          1          1          1          1          1          1          1          1          1          1          1          1          1          1          1          1          1          1          1          1          1          1          1          1          1          1          1          1          1          1          1          1          1          1          1          1          1          1          1          1          1          1          1          1          1          1          1          1          1          1          1          1          1          1          1          1          1          1          1          1          1          1          1          1          1          1          1          1          1          1          1          1          1          1          1          1          1          1          1          1          1          1          1          1          1          1          1          1          1          1          1          1          1          1          1          1          1          1          1          1          1          1          1          1          1          1          1          1          1          1          1          1          1          1          1          1          1          1          1          1          1          1          1          1          1          1          1          1          1          1          1          1          1          1          1          1          1          1          1          1          1          1          1          1          1          1          1          1          1          1          1          1          1          1          1          1          1          1          1          1          1          1          1          1          1          1          1          1          1          1          1          1          1          1          1          1          1          1          1          1          1          1          1          1          1          1          1          1          1          1          1          1          1          1          1          1          1          1          1          1          1          1          1          1          1          1          1          1          1          1          1          1          1          1          1          1          1          1          1          1          1          1          1          1          1          1          1          1          1          1          1          1          1          1          1          1          1          1          1          1          1          1          1          1          1          1          1          1          1          1          1          1          1          1          1          1          1          1          1          1          1          1          1          1          1          1          1          1          1          1          1          1          1          1          1          1          1          1          1          1          1          1          1          1          1          1          1          1          1          1          1          1          1          1          1          1          1          1          1          1          1          1          1          1          1          1          1          1          1          1          1          1          1          1          1          1          1          1          1          1          1          1          1          1          1          1          1          1          1          1          1          1          1          1          1          1          1          1          1          1          1          1          1          1          1          1          1          1          1          1          1          1          1          1          1          1          1          1          1          1          1          1          1          1          1          1          1          1          1          1          1          1          1          1          1          1          1          1          1          1          1          1          1          1          1          1          1          1          1          1          1          1          1          1          1          1          1          1          1          1          1          1          1          1          1          1          1          1          1          1          1          1          1          1          1          1          1          1          1          1          1          1          1          1          1          1          1          1          1          1          1          1          1          1          1          1          1          1          1          1          1          1          1          1          1          1          1          1          1          1          1          1          1          1          1          1          1          1          1          1          1          1          1          1          1          1          1          1          1          1          1          1          1          1          1          1          1          1          1          1          1          1          1          1          1          1          1          1          1          1          1          1          1          1          1          1          1          1          1          1          1          1          1          1          1          1          1          1          1          1          1          1          1          1          1          1          1          1          1          1          1          1          1          1          1          1          1          1          1          1          1          1          1          1          1          1          1          1          1          1          1          1          1          1          1          1          1          1          1          1          1          1          1          1          1          1          1          1          1          1          1          1          1          1          1          1          1          1          1          1          1          1          1          1          1          1          1          1          1          1          1          1          1          1          1          1          1          1          1          1          1          1          1          1          1          1          1          1          1          1          1          1          1          1          1          1          1          1          1          1          1          1          1          1          1          1          1          1          1          1          1          1          1          1          1          1          1          1          1          1          1          1          1          1          1          1          1          1          1          1          1          1          1          1          1          1          1          1          1          1          1          1          1          1          1          1          1          1          1          1          1          1          1          1          1          1          1          1          1          1          1          1          1          1          1          1          1          1          1          1          1          1          1          1          1          1          1          1          1          1          1          1          1          1          1          1          1          1          1          1          1          1          1          1          1          1          1          1          1          1          1          1          1          1          1          1          1          1          1          1          1          1          1          1          1          1          1          1          1          1 </DataArray>
</CellData>
<PointData>
<DataArray type="Float64"                                    Name="u"                                                      NumberOfComponents=" 3" format="ascii">
             -0.000872891              -0.000000000               0.999999985              -0.000923410               0.000000000               0.999999985              -0.000944632              -0.000000000               0.999999985              -0.000956503               0.000000000               0.999999985              -0.000966376              -0.000000000               0.999999985              -0.000976803              -0.000000000               0.999999985              -0.000988712               0.000000000               0.999999985              -0.001001796               0.000000000               0.999999985              -0.001015761              -0.000000000               0.999999985              -0.001030210              -0.000000000               0.999999985              -0.001044609              -0.000000000               0.999999985              -0.001058623              -0.000000000               0.999999985              -0.001071796               0.000000000               0.999999985              -0.001083740              -0.000000000               0.999999985              -0.001094047               0.000000000               0.999999985              -0.001102072              -0.000000000               0.999999985              -0.001106937               0.000000000               0.999999985              -0.000867941               0.000132267               0.999999985              -0.000914206               0.000105365               0.999999985              -0.000932832               0.000093172               0.999999985              -0.000943017               0.000088487               0.999999985              -0.000951663               0.000087474               0.999999985              -0.000961164               0.000088222               0.999999985              -0.000971956               0.000089436               0.999999985              -0.000983972               0.000090396               0.999999985              -0.000996828               0.000090672               0.999999985              -0.001009891               0.000089820               0.999999985              -0.001022742               0.000087642               0.999999985              -0.001035024               0.000083935               0.999999985              -0.001046284               0.000078287               0.999999985              -0.001056078               0.000070326               0.999999985              -0.001064017               0.000059499               0.999999985              -0.001069593               0.000044824               0.999999985              -0.001072215               0.000024778               0.999999985              -0.000853304               0.000263297               0.999999985              -0.000887317               0.000210290               0.999999985              -0.000898442               0.000187294               0.999999985              -0.000903979               0.000178890               0.999999985              -0.000909479               0.000177680               0.999999985              -0.000916395               0.000179632               0.999999985              -0.000924715               0.000182342               0.999999985              -0.000934072               0.000184505               0.999999985              -0.000943663               0.000184985               0.999999985              -0.000952939               0.000183420               0.999999985              -0.000961548               0.000179354               0.999999985              -0.000969052               0.000172486               0.999999985              -0.000975158               0.000161988               0.999999985              -0.000979508               0.000147180               0.999999985              -0.000981615               0.000127583               0.999999985              -0.000981184               0.000101688               0.999999985              -0.000978046               0.000067935               0.999999985              -0.000829370               0.000391924               0.999999985              -0.000844169               0.000314550               0.999999985              -0.000844405               0.000283039               0.999999985              -0.000843682               0.000272838               0.999999985              -0.000845185               0.000272604               0.999999985              -0.000848842               0.000276478               0.999999985              -0.000853961               0.000281015               0.999999985              -0.000859473               0.000284321               0.999999985              -0.000864574               0.000285139               0.999999985              -0.000868748               0.000282955               0.999999985              -0.000871576               0.000277413               0.999999985              -0.000872686               0.000268031               0.999999985              -0.000871686               0.000253858               0.999999985              -0.000868317               0.000234314               0.999999985              -0.000862325               0.000208878               0.999999985              -0.000853749               0.000176459               0.999999985              -0.000842770               0.000136405               0.999999985              -0.000796689               0.000516982               0.999999985              -0.000786871               0.000418140               0.999999985              -0.000775035               0.000381044               0.999999985              -0.000768160               0.000370972               0.999999985              -0.000765851               0.000372903               0.999999985              -0.000766475               0.000379134               0.999999985              -0.000768145               0.000385734               0.999999985              -0.000769565               0.000390071               0.999999985              -0.000769758               0.000391195               0.999999985              -0.000768098               0.000388612               0.999999985              -0.000764250               0.000381979               0.999999985              -0.000757851               0.000370746               0.999999985              -0.000748562               0.000354033               0.999999985              -0.000736293               0.000331390               0.999999985              -0.000721085               0.000302684               0.999999985              -0.000703173               0.000267707               0.999999985              -0.000683135               0.000226840               0.999999985              -0.000755705               0.000637466               0.999999985              -0.000718326               0.000521145               0.999999985              -0.000695283               0.000481507               0.999999985              -0.000683629               0.000473214               0.999999985              -0.000678874               0.000477958               0.999999985              -0.000677158               0.000486729               0.999999985              -0.000675794               0.000495004               0.999999985              -0.000673017               0.000500374               0.999999985              -0.000667841               0.000501732               0.999999985              -0.000659760               0.000498864               0.999999985              -0.000648457               0.000491370               0.999999985              -0.000633531               0.000478632               0.999999985              -0.000614866               0.000460040               0.999999985              -0.000592623               0.000435600               0.999999985              -0.000567293               0.000405630               0.999999985              -0.000539481               0.000370849               0.999999985              -0.000510062               0.000332374               0.999999985              -0.000707237               0.000752239               0.999999985              -0.000641910               0.000623659               0.999999985              -0.000610299               0.000583990               0.999999985              -0.000596397               0.000578387               0.999999985              -0.000590755               0.000586041               0.999999985              -0.000587482               0.000597094               0.999999985              -0.000583294               0.000606849               0.999999985              -0.000576150               0.000612735               0.999999985              -0.000565195               0.000614272               0.999999985              -0.000549956               0.000610927               0.999999985              -0.000530179               0.000602414               0.999999985              -0.000505818               0.000588166               0.999999985              -0.000477057               0.000568000               0.999999985              -0.000444461               0.000542524               0.999999985              -0.000408865               0.000512759               0.999999985              -0.000371199               0.000479733               0.999999985              -0.000332445               0.000444800               0.999999985              -0.000652450               0.000859957               0.999999985              -0.000561290               0.000725409               0.999999985              -0.000524913               0.000687519               0.999999985              -0.000511620               0.000684628               0.999999985              -0.000506469               0.000694758               0.999999985              -0.000502240               0.000707666               0.999999985              -0.000495023               0.000718400               0.999999985              -0.000482946               0.000724739               0.999999985              -0.000465324               0.000726124               0.999999985              -0.000441916               0.000721903               0.999999985              -0.000412760               0.000711991               0.999999985              -0.000378144               0.000696148               0.999999985              -0.000338711               0.000674670               0.999999985              -0.000295293               0.000649032               0.999999985              -0.000249057               0.000620466               0.999999985              -0.000201228               0.000590030               0.999999985              -0.000152626               0.000558731               0.999999985              -0.000592987               0.000958758               0.999999985              -0.000479257               0.000826249               0.999999985              -0.000443558               0.000790470               0.999999985              -0.000432992               0.000789740               0.999999985              -0.000429242               0.000801710               0.999999985              -0.000423860               0.000816006               0.999999985              -0.000412927               0.000827452               0.999999985              -0.000394979               0.000834055               0.999999985              -0.000369706               0.000834775               0.999999985              -0.000336952               0.000829330               0.999999985              -0.000297310               0.000817625               0.999999985              -0.000251373               0.000800238               0.999999985              -0.000200006               0.000778508               0.999999985              -0.000144843               0.000753929               0.999999985              -0.000087534               0.000727793               0.999999985              -0.000029198               0.000700954               0.999999985               0.000029327               0.000674038               0.999999985              -0.000531432               0.001052490               0.999999985              -0.000410518               0.000939327               0.999999985              -0.000372031               0.000899588               0.999999985              -0.000360990               0.000893684               0.999999985              -0.000357991               0.000902257               0.999999985              -0.000354576               0.000915914               0.999999985              -0.000346446               0.000929559               0.999999985              -0.000332189               0.000940303               0.999999985              -0.000311088               0.000946892               0.999999985              -0.000283018               0.000948526               0.999999985              -0.000248076               0.000945129               0.999999985              -0.000206576               0.000937085               0.999999985              -0.000158946               0.000924961               0.999999985              -0.000106339               0.000909698               0.999999985              -0.000050201               0.000892589               0.999999985               0.000008263               0.000874622               0.999999985               0.000067551               0.000856620               0.999999985              -0.000464414               0.001138056               0.999999985              -0.000344610               0.001048920               0.999999985              -0.000303571               0.001011687               0.999999985              -0.000291030               0.001003105               0.999999985              -0.000287872               0.001009444               0.999999985              -0.000285487               0.001022613               0.999999985              -0.000279714               0.001037848               0.999999985              -0.000268780               0.001052225               0.999999985              -0.000251771               0.001064002               0.999999985              -0.000228042               0.001072214               0.999999985              -0.000197852               0.001076465               0.999999985              -0.000161261               0.001076690               0.999999985              -0.000118018               0.001073289               0.999999985              -0.000068719               0.001066884               0.999999985              -0.000014466               0.001058309               0.999999985               0.000043549               0.001048593               0.999999985               0.000103655               0.001038686               0.999999985              -0.000393261               0.001213396               0.999999985              -0.000281604               0.001151720               0.999999985              -0.000239912               0.001121631               0.999999985              -0.000225574               0.001113744               0.999999985              -0.000221481               0.001119597               0.999999985              -0.000219398               0.001133041               0.999999985              -0.000215249               0.001149940               0.999999985              -0.000207074               0.001167670               0.999999985              -0.000193713               0.001184376               0.999999985              -0.000174387               0.001198760               0.999999985              -0.000148949               0.001210211               0.999999985              -0.000117277               0.001218450               0.999999985              -0.000079003               0.001223458               0.999999985              -0.000033963               0.001225644               0.999999985               0.000017313               0.001225485               0.999999985               0.000074219               0.001223668               0.999999985               0.000135674               0.001221356               0.999999985              -0.000318747               0.001276995               0.999999985              -0.000221561               0.001243372               0.999999985              -0.000181915               0.001223855               0.999999985              -0.000166643               0.001219591               0.999999985              -0.000161532               0.001226839               0.999999985              -0.000159259               0.001241670               0.999999985              -0.000155978               0.001260834               0.999999985              -0.000149821               0.001282027               0.999999985              -0.000139763               0.001303465               0.999999985              -0.000124727               0.001323838               0.999999985              -0.000104072               0.001342289               0.999999985              -0.000077679               0.001358351               0.999999985              -0.000044998               0.001371959               0.999999985              -0.000005473               0.001383008               0.999999985               0.000041307               0.001391810               0.999999985               0.000095702               0.001398600               0.999999985               0.000157580               0.001404141               0.999999985              -0.000241532               0.001327752               0.999999985              -0.000163970               0.001319776               0.999999985              -0.000129871               0.001312182               0.999999985              -0.000115436               0.001313351               0.999999985              -0.000109881               0.001323469               0.999999985              -0.000107387               0.001340576               0.999999985              -0.000104644               0.001362436               0.999999985              -0.000100170               0.001387130               0.999999985              -0.000092943               0.001413154               0.999999985              -0.000081898               0.001439285               0.999999985              -0.000066214               0.001464574               0.999999985              -0.000045606               0.001488412               0.999999985              -0.000019490               0.001510528               0.999999985               0.000012818               0.001530596               0.999999985               0.000052519               0.001548491               0.999999985               0.000100835               0.001564224               0.999999985               0.000158850               0.001578086               0.999999985              -0.000162237               0.001364780               0.999999985              -0.000108276               0.001377234               0.999999985              -0.000083249               0.001380611               0.999999985              -0.000071796               0.001387604               0.999999985              -0.000066945               0.001401082               0.999999985              -0.000064629               0.001420741               0.999999985              -0.000062545               0.001445137               0.999999985              -0.000059637               0.001472888               0.999999985              -0.000054870               0.001502861               0.999999985              -0.000047517               0.001533929               0.999999985              -0.000037057               0.001565119               0.999999985              -0.000023083               0.001595878               0.999999985              -0.000004903               0.001625729               0.999999985               0.000018201               0.001654227               0.999999985               0.000047576               0.001680830               0.999999985               0.000084789               0.001705230               0.999999985               0.000131679               0.001727215               0.999999985              -0.000081500               0.001387329               0.999999985              -0.000053844               0.001412939               0.999999985              -0.000040596               0.001424053               0.999999985              -0.000034210               0.001435567               0.999999985              -0.000031349               0.001451775               0.999999985              -0.000029914               0.001473393               0.999999985              -0.000028813               0.001499584               0.999999985              -0.000027309               0.001529402               0.999999985              -0.000024865               0.001561993               0.999999985              -0.000021290               0.001596362               0.999999985              -0.000016130               0.001631723               0.999999985              -0.000009138               0.001667484               0.999999985               0.000000171               0.001703067               0.999999985               0.000012386               0.001737910               0.999999985               0.000028092               0.001771401               0.999999985               0.000048537               0.001802845               0.999999985               0.000075432               0.001831261               0.999999985              -0.000000000               0.001394884               0.999999985               0.000000000               0.001425061               0.999999985               0.000000000               0.001438965               0.999999985               0.000000000               0.001452180               0.999999985               0.000000000               0.001469564               0.999999985              -0.000000000               0.001491923               0.999999985               0.000000000               0.001518660               0.999999985              -0.000000000               0.001549184               0.999999985               0.000000000               0.001582563               0.999999985              -0.000000000               0.001618059               0.999999985               0.000000000               0.001654980               0.999999985               0.000000000               0.001692540               0.999999985               0.000000000               0.001730288               0.999999985               0.000000000               0.001767705               0.999999985              -0.000000000               0.001803995               0.999999985              -0.000000000               0.001838305               0.999999985               0.000000000               0.001869366               0.999999985              -0.000872891              -0.000000000               0.999999985              -0.000923410               0.000000000               0.999999985              -0.000944632              -0.000000000               0.999999985              -0.000956503               0.000000000               0.999999985              -0.000966376              -0.000000000               0.999999985              -0.000976803              -0.000000000               0.999999985              -0.000988712               0.000000000               0.999999985              -0.001001796               0.000000000               0.999999985              -0.001015761              -0.000000000               0.999999985              -0.001030210              -0.000000000               0.999999985              -0.001044609              -0.000000000               0.999999985              -0.001058623              -0.000000000               0.999999985              -0.001071796               0.000000000               0.999999985              -0.001083740              -0.000000000               0.999999985              -0.001094047               0.000000000               0.999999985              -0.001102072              -0.000000000               0.999999985              -0.001106937               0.000000000               0.999999985              -0.000867941              -0.000132267               0.999999985              -0.000914206              -0.000105365               0.999999985              -0.000932832              -0.000093172               0.999999985              -0.000943017              -0.000088487               0.999999985              -0.000951663              -0.000087474               0.999999985              -0.000961164              -0.000088222               0.999999985              -0.000971956              -0.000089436               0.999999985              -0.000983972              -0.000090396               0.999999985              -0.000996828              -0.000090672               0.999999985              -0.001009891              -0.000089820               0.999999985              -0.001022742              -0.000087642               0.999999985              -0.001035024              -0.000083935               0.999999985              -0.001046284              -0.000078287               0.999999985              -0.001056078              -0.000070326               0.999999985              -0.001064017              -0.000059499               0.999999985              -0.001069593              -0.000044824               0.999999985              -0.001072215              -0.000024778               0.999999985              -0.000853304              -0.000263297               0.999999985              -0.000887317              -0.000210290               0.999999985              -0.000898442              -0.000187294               0.999999985              -0.000903979              -0.000178890               0.999999985              -0.000909479              -0.000177680               0.999999985              -0.000916395              -0.000179632               0.999999985              -0.000924715              -0.000182342               0.999999985              -0.000934072              -0.000184505               0.999999985              -0.000943663              -0.000184985               0.999999985              -0.000952939              -0.000183420               0.999999985              -0.000961548              -0.000179354               0.999999985              -0.000969052              -0.000172486               0.999999985              -0.000975158              -0.000161988               0.999999985              -0.000979508              -0.000147180               0.999999985              -0.000981615              -0.000127583               0.999999985              -0.000981184              -0.000101688               0.999999985              -0.000978046              -0.000067935               0.999999985              -0.000829370              -0.000391924               0.999999985              -0.000844169              -0.000314550               0.999999985              -0.000844405              -0.000283039               0.999999985              -0.000843682              -0.000272838               0.999999985              -0.000845185              -0.000272604               0.999999985              -0.000848842              -0.000276478               0.999999985              -0.000853961              -0.000281015               0.999999985              -0.000859473              -0.000284321               0.999999985              -0.000864574              -0.000285139               0.999999985              -0.000868748              -0.000282955               0.999999985              -0.000871576              -0.000277413               0.999999985              -0.000872686              -0.000268031               0.999999985              -0.000871686              -0.000253858               0.999999985              -0.000868317              -0.000234314               0.999999985              -0.000862325              -0.000208878               0.999999985              -0.000853749              -0.000176459               0.999999985              -0.000842770              -0.000136405               0.999999985              -0.000796689              -0.000516982               0.999999985              -0.000786871              -0.000418140               0.999999985              -0.000775035              -0.000381044               0.999999985              -0.000768160              -0.000370972               0.999999985              -0.000765851              -0.000372903               0.999999985              -0.000766475              -0.000379134               0.999999985              -0.000768145              -0.000385734               0.999999985              -0.000769565              -0.000390071               0.999999985              -0.000769758              -0.000391195               0.999999985              -0.000768098              -0.000388612               0.999999985              -0.000764250              -0.000381979               0.999999985              -0.000757851              -0.000370746               0.999999985              -0.000748562              -0.000354033               0.999999985              -0.000736293              -0.000331390               0.999999985              -0.000721085              -0.000302684               0.999999985              -0.000703173              -0.000267707               0.999999985              -0.000683135              -0.000226840               0.999999985              -0.000755705              -0.000637466               0.999999985              -0.000718326              -0.000521145               0.999999985              -0.000695283              -0.000481507               0.999999985              -0.000683629              -0.000473214               0.999999985              -0.000678874              -0.000477958               0.999999985              -0.000677158              -0.000486729               0.999999985              -0.000675794              -0.000495004               0.999999985              -0.000673017              -0.000500374               0.999999985              -0.000667841              -0.000501732               0.999999985              -0.000659760              -0.000498864               0.999999985              -0.000648457              -0.000491370               0.999999985              -0.000633531              -0.000478632               0.999999985              -0.000614866              -0.000460040               0.999999985              -0.000592623              -0.000435600               0.999999985              -0.000567293              -0.000405630               0.999999985              -0.000539481              -0.000370849               0.999999985              -0.000510062              -0.000332374               0.999999985              -0.000707237              -0.000752239               0.999999985              -0.000641910              -0.000623659               0.999999985              -0.000610299              -0.000583990               0.999999985              -0.000596397              -0.000578387               0.999999985              -0.000590755              -0.000586041               0.999999985              -0.000587482              -0.000597094               0.999999985              -0.000583294              -0.000606849               0.999999985              -0.000576150              -0.000612735               0.999999985              -0.000565195              -0.000614272               0.999999985              -0.000549956              -0.000610927               0.999999985              -0.000530179              -0.000602414               0.999999985              -0.000505818              -0.000588166               0.999999985              -0.000477057              -0.000568000               0.999999985              -0.000444461              -0.000542524               0.999999985              -0.000408865              -0.000512759               0.999999985              -0.000371199              -0.000479733               0.999999985              -0.000332445              -0.000444800               0.999999985              -0.000652450              -0.000859957               0.999999985              -0.000561290              -0.000725409               0.999999985              -0.000524913              -0.000687519               0.999999985              -0.000511620              -0.000684628               0.999999985              -0.000506469              -0.000694758               0.999999985              -0.000502240              -0.000707666               0.999999985              -0.000495023              -0.000718400               0.999999985              -0.000482946              -0.000724739               0.999999985              -0.000465324              -0.000726124               0.999999985              -0.000441916              -0.000721903               0.999999985              -0.000412760              -0.000711991               0.999999985              -0.000378144              -0.000696148               0.999999985              -0.000338711              -0.000674670               0.999999985              -0.000295293              -0.000649032               0.999999985              -0.000249057              -0.000620466               0.999999985              -0.000201228              -0.000590030               0.999999985              -0.000152626              -0.000558731               0.999999985              -0.000592987              -0.000958758               0.999999985              -0.000479257              -0.000826249               0.999999985              -0.000443558              -0.000790470               0.999999985              -0.000432992              -0.000789740               0.999999985              -0.000429242              -0.000801710               0.999999985              -0.000423860              -0.000816006               0.999999985              -0.000412927              -0.000827452               0.999999985              -0.000394979              -0.000834055               0.999999985              -0.000369706              -0.000834775               0.999999985              -0.000336952              -0.000829330               0.999999985              -0.000297310              -0.000817625               0.999999985              -0.000251373              -0.000800238               0.999999985              -0.000200006              -0.000778508               0.999999985              -0.000144843              -0.000753929               0.999999985              -0.000087534              -0.000727793               0.999999985              -0.000029198              -0.000700954               0.999999985               0.000029327              -0.000674038               0.999999985              -0.000531432              -0.001052490               0.999999985              -0.000410518              -0.000939327               0.999999985              -0.000372031              -0.000899588               0.999999985              -0.000360990              -0.000893684               0.999999985              -0.000357991              -0.000902257               0.999999985              -0.000354576              -0.000915914               0.999999985              -0.000346446              -0.000929559               0.999999985              -0.000332189              -0.000940303               0.999999985              -0.000311088              -0.000946892               0.999999985              -0.000283018              -0.000948526               0.999999985              -0.000248076              -0.000945129               0.999999985              -0.000206576              -0.000937085               0.999999985              -0.000158946              -0.000924961               0.999999985              -0.000106339              -0.000909698               0.999999985              -0.000050201              -0.000892589               0.999999985               0.000008263              -0.000874622               0.999999985               0.000067551              -0.000856620               0.999999985              -0.000464414              -0.001138056               0.999999985              -0.000344610              -0.001048920               0.999999985              -0.000303571              -0.001011687               0.999999985              -0.000291030              -0.001003105               0.999999985              -0.000287872              -0.001009444               0.999999985              -0.000285487              -0.001022613               0.999999985              -0.000279714              -0.001037848               0.999999985              -0.000268780              -0.001052225               0.999999985              -0.000251771              -0.001064002               0.999999985              -0.000228042              -0.001072214               0.999999985              -0.000197852              -0.001076465               0.999999985              -0.000161261              -0.001076690               0.999999985              -0.000118018              -0.001073289               0.999999985              -0.000068719              -0.001066884               0.999999985              -0.000014466              -0.001058309               0.999999985               0.000043549              -0.001048593               0.999999985               0.000103655              -0.001038686               0.999999985              -0.000393261              -0.001213396               0.999999985              -0.000281604              -0.001151720               0.999999985              -0.000239912              -0.001121631               0.999999985              -0.000225574              -0.001113744               0.999999985              -0.000221481              -0.001119597               0.999999985              -0.000219398              -0.001133041               0.999999985              -0.000215249              -0.001149940               0.999999985              -0.000207074              -0.001167670               0.999999985              -0.000193713              -0.001184376               0.999999985              -0.000174387              -0.001198760               0.999999985              -0.000148949              -0.001210211               0.999999985              -0.000117277              -0.001218450               0.999999985              -0.000079003              -0.001223458               0.999999985              -0.000033963              -0.001225644               0.999999985               0.000017313              -0.001225485               0.999999985               0.000074219              -0.001223668               0.999999985               0.000135674              -0.001221356               0.999999985              -0.000318747              -0.001276995               0.999999985              -0.000221561              -0.001243372               0.999999985              -0.000181915              -0.001223855               0.999999985              -0.000166643              -0.001219591               0.999999985              -0.000161532              -0.001226839               0.999999985              -0.000159259              -0.001241670               0.999999985              -0.000155978              -0.001260834               0.999999985              -0.000149821              -0.001282027               0.999999985              -0.000139763              -0.001303465               0.999999985              -0.000124727              -0.001323838               0.999999985              -0.000104072              -0.001342289               0.999999985              -0.000077679              -0.001358351               0.999999985              -0.000044998              -0.001371959               0.999999985              -0.000005473              -0.001383008               0.999999985               0.000041307              -0.001391810               0.999999985               0.000095702              -0.001398600               0.999999985               0.000157580              -0.001404141               0.999999985              -0.000241532              -0.001327752               0.999999985              -0.000163970              -0.001319776               0.999999985              -0.000129871              -0.001312182               0.999999985              -0.000115436              -0.001313351               0.999999985              -0.000109881              -0.001323469               0.999999985              -0.000107387              -0.001340576               0.999999985              -0.000104644              -0.001362436               0.999999985              -0.000100170              -0.001387130               0.999999985              -0.000092943              -0.001413154               0.999999985              -0.000081898              -0.001439285               0.999999985              -0.000066214              -0.001464574               0.999999985              -0.000045606              -0.001488412               0.999999985              -0.000019490              -0.001510528               0.999999985               0.000012818              -0.001530596               0.999999985               0.000052519              -0.001548491               0.999999985               0.000100835              -0.001564224               0.999999985               0.000158850              -0.001578086               0.999999985              -0.000162237              -0.001364780               0.999999985              -0.000108276              -0.001377234               0.999999985              -0.000083249              -0.001380611               0.999999985              -0.000071796              -0.001387604               0.999999985              -0.000066945              -0.001401082               0.999999985              -0.000064629              -0.001420741               0.999999985              -0.000062545              -0.001445137               0.999999985              -0.000059637              -0.001472888               0.999999985              -0.000054870              -0.001502861               0.999999985              -0.000047517              -0.001533929               0.999999985              -0.000037057              -0.001565119               0.999999985              -0.000023083              -0.001595878               0.999999985              -0.000004903              -0.001625729               0.999999985               0.000018201              -0.001654227               0.999999985               0.000047576              -0.001680830               0.999999985               0.000084789              -0.001705230               0.999999985               0.000131679              -0.001727215               0.999999985              -0.000081500              -0.001387329               0.999999985              -0.000053844              -0.001412939               0.999999985              -0.000040596              -0.001424053               0.999999985              -0.000034210              -0.001435567               0.999999985              -0.000031349              -0.001451775               0.999999985              -0.000029914              -0.001473393               0.999999985              -0.000028813              -0.001499584               0.999999985              -0.000027309              -0.001529402               0.999999985              -0.000024865              -0.001561993               0.999999985              -0.000021290              -0.001596362               0.999999985              -0.000016130              -0.001631723               0.999999985              -0.000009138              -0.001667484               0.999999985               0.000000171              -0.001703067               0.999999985               0.000012386              -0.001737910               0.999999985               0.000028092              -0.001771401               0.999999985               0.000048537              -0.001802845               0.999999985               0.000075432              -0.001831261               0.999999985               0.000000000              -0.001394884               0.999999985               0.000000000              -0.001425061               0.999999985              -0.000000000              -0.001438965               0.999999985               0.000000000              -0.001452180               0.999999985              -0.000000000              -0.001469564               0.999999985               0.000000000              -0.001491923               0.999999985              -0.000000000              -0.001518660               0.999999985              -0.000000000              -0.001549184               0.999999985              -0.000000000              -0.001582563               0.999999985              -0.000000000              -0.001618059               0.999999985              -0.000000000              -0.001654980               0.999999985              -0.000000000              -0.001692540               0.999999985               0.000000000              -0.001730288               0.999999985              -0.000000000              -0.001767705               0.999999985               0.000000000              -0.001803995               0.999999985               0.000000000              -0.001838305               0.999999985               0.000000000              -0.001869366               0.999999985               0.000872891              -0.000000000               0.999999985               0.000923410              -0.000000000               0.999999985               0.000944632              -0.000000000               0.999999985               0.000956503              -0.000000000               0.999999985               0.000966376              -0.000000000               0.999999985               0.000976803               0.000000000               0.999999985               0.000988712              -0.000000000               0.999999985               0.001001796              -0.000000000               0.999999985               0.001015761              -0.000000000               0.999999985               0.001030210               0.000000000               0.999999985               0.001044609               0.000000000               0.999999985               0.001058623               0.000000000               0.999999985               0.001071796               0.000000000               0.999999985               0.001083740               0.000000000               0.999999985               0.001094047              -0.000000000               0.999999985               0.001102072               0.000000000               0.999999985               0.001106937               0.000000000               0.999999985               0.000867941              -0.000132267               0.999999985               0.000914206              -0.000105365               0.999999985               0.000932832              -0.000093172               0.999999985               0.000943017              -0.000088487               0.999999985               0.000951663              -0.000087474               0.999999985               0.000961164              -0.000088222               0.999999985               0.000971956              -0.000089436               0.999999985               0.000983972              -0.000090396               0.999999985               0.000996828              -0.000090672               0.999999985               0.001009891              -0.000089820               0.999999985               0.001022742              -0.000087642               0.999999985               0.001035024              -0.000083935               0.999999985               0.001046284              -0.000078287               0.999999985               0.001056078              -0.000070326               0.999999985               0.001064017              -0.000059499               0.999999985               0.001069593              -0.000044824               0.999999985               0.001072215              -0.000024778               0.999999985               0.000853304              -0.000263297               0.999999985               0.000887317              -0.000210290               0.999999985               0.000898442              -0.000187294               0.999999985               0.000903979              -0.000178890               0.999999985               0.000909479              -0.000177680               0.999999985               0.000916395              -0.000179632               0.999999985               0.000924715              -0.000182342               0.999999985               0.000934072              -0.000184505               0.999999985               0.000943663              -0.000184985               0.999999985               0.000952939              -0.000183420               0.999999985               0.000961548              -0.000179354               0.999999985               0.000969052              -0.000172486               0.999999985               0.000975158              -0.000161988               0.999999985               0.000979508              -0.000147180               0.999999985               0.000981615              -0.000127583               0.999999985               0.000981184              -0.000101688               0.999999985               0.000978046              -0.000067935               0.999999985               0.000829370              -0.000391924               0.999999985               0.000844169              -0.000314550               0.999999985               0.000844405              -0.000283039               0.999999985               0.000843682              -0.000272838               0.999999985               0.000845185              -0.000272604               0.999999985               0.000848842              -0.000276478               0.999999985               0.000853961              -0.000281015               0.999999985               0.000859473              -0.000284321               0.999999985               0.000864574              -0.000285139               0.999999985               0.000868748              -0.000282955               0.999999985               0.000871576              -0.000277413               0.999999985               0.000872686              -0.000268031               0.999999985               0.000871686              -0.000253858               0.999999985               0.000868317              -0.000234314               0.999999985               0.000862325              -0.000208878               0.999999985               0.000853749              -0.000176459               0.999999985               0.000842770              -0.000136405               0.999999985               0.000796689              -0.000516982               0.999999985               0.000786871              -0.000418140               0.999999985               0.000775035              -0.000381044               0.999999985               0.000768160              -0.000370972               0.999999985               0.000765851              -0.000372903               0.999999985               0.000766475              -0.000379134               0.999999985               0.000768145              -0.000385734               0.999999985               0.000769565              -0.000390071               0.999999985               0.000769758              -0.000391195               0.999999985               0.000768098              -0.000388612               0.999999985               0.000764250              -0.000381979               0.999999985               0.000757851              -0.000370746               0.999999985               0.000748562              -0.000354033               0.999999985               0.000736293              -0.000331390               0.999999985               0.000721085              -0.000302684               0.999999985               0.000703173              -0.000267707               0.999999985               0.000683135              -0.000226840               0.999999985               0.000755705              -0.000637466               0.999999985               0.000718326              -0.000521145               0.999999985               0.000695283              -0.000481507               0.999999985               0.000683629              -0.000473214               0.999999985               0.000678874              -0.000477958               0.999999985               0.000677158              -0.000486729               0.999999985               0.000675794              -0.000495004               0.999999985               0.000673017              -0.000500374               0.999999985               0.000667841              -0.000501732               0.999999985               0.000659760              -0.000498864               0.999999985               0.000648457              -0.000491370               0.999999985               0.000633531              -0.000478632               0.999999985               0.000614866              -0.000460040               0.999999985               0.000592623              -0.000435600               0.999999985               0.000567293              -0.000405630               0.999999985               0.000539481              -0.000370849               0.999999985               0.000510062              -0.000332374               0.999999985               0.000707237              -0.000752239               0.999999985               0.000641910              -0.000623659               0.999999985               0.000610299              -0.000583990               0.999999985               0.000596397              -0.000578387               0.999999985               0.000590755              -0.000586041               0.999999985               0.000587482              -0.000597094               0.999999985               0.000583294              -0.000606849               0.999999985               0.000576150              -0.000612735               0.999999985               0.000565195              -0.000614272               0.999999985               0.000549956              -0.000610927               0.999999985               0.000530179              -0.000602414               0.999999985               0.000505818              -0.000588166               0.999999985               0.000477057              -0.000568000               0.999999985               0.000444461              -0.000542524               0.999999985               0.000408865              -0.000512759               0.999999985               0.000371199              -0.000479733               0.999999985               0.000332445              -0.000444800               0.999999985               0.000652450              -0.000859957               0.999999985               0.000561290              -0.000725409               0.999999985               0.000524913              -0.000687519               0.999999985               0.000511620              -0.000684628               0.999999985               0.000506469              -0.000694758               0.999999985               0.000502240              -0.000707666               0.999999985               0.000495023              -0.000718400               0.999999985               0.000482946              -0.000724739               0.999999985               0.000465324              -0.000726124               0.999999985               0.000441916              -0.000721903               0.999999985               0.000412760              -0.000711991               0.999999985               0.000378144              -0.000696148               0.999999985               0.000338711              -0.000674670               0.999999985               0.000295293              -0.000649032               0.999999985               0.000249057              -0.000620466               0.999999985               0.000201228              -0.000590030               0.999999985               0.000152626              -0.000558731               0.999999985               0.000592987              -0.000958758               0.999999985               0.000479257              -0.000826249               0.999999985               0.000443558              -0.000790470               0.999999985               0.000432992              -0.000789740               0.999999985               0.000429242              -0.000801710               0.999999985               0.000423860              -0.000816006               0.999999985               0.000412927              -0.000827452               0.999999985               0.000394979              -0.000834055               0.999999985               0.000369706              -0.000834775               0.999999985               0.000336952              -0.000829330               0.999999985               0.000297310              -0.000817625               0.999999985               0.000251373              -0.000800238               0.999999985               0.000200006              -0.000778508               0.999999985               0.000144843              -0.000753929               0.999999985               0.000087534              -0.000727793               0.999999985               0.000029198              -0.000700954               0.999999985              -0.000029327              -0.000674038               0.999999985               0.000531432              -0.001052490               0.999999985               0.000410518              -0.000939327               0.999999985               0.000372031              -0.000899588               0.999999985               0.000360990              -0.000893684               0.999999985               0.000357991              -0.000902257               0.999999985               0.000354576              -0.000915914               0.999999985               0.000346446              -0.000929559               0.999999985               0.000332189              -0.000940303               0.999999985               0.000311088              -0.000946892               0.999999985               0.000283018              -0.000948526               0.999999985               0.000248076              -0.000945129               0.999999985               0.000206576              -0.000937085               0.999999985               0.000158946              -0.000924961               0.999999985               0.000106339              -0.000909698               0.999999985               0.000050201              -0.000892589               0.999999985              -0.000008263              -0.000874622               0.999999985              -0.000067551              -0.000856620               0.999999985               0.000464414              -0.001138056               0.999999985               0.000344610              -0.001048920               0.999999985               0.000303571              -0.001011687               0.999999985               0.000291030              -0.001003105               0.999999985               0.000287872              -0.001009444               0.999999985               0.000285487              -0.001022613               0.999999985               0.000279714              -0.001037848               0.999999985               0.000268780              -0.001052225               0.999999985               0.000251771              -0.001064002               0.999999985               0.000228042              -0.001072214               0.999999985               0.000197852              -0.001076465               0.999999985               0.000161261              -0.001076690               0.999999985               0.000118018              -0.001073289               0.999999985               0.000068719              -0.001066884               0.999999985               0.000014466              -0.001058309               0.999999985              -0.000043549              -0.001048593               0.999999985              -0.000103655              -0.001038686               0.999999985               0.000393261              -0.001213396               0.999999985               0.000281604              -0.001151720               0.999999985               0.000239912              -0.001121631               0.999999985               0.000225574              -0.001113744               0.999999985               0.000221481              -0.001119597               0.999999985               0.000219398              -0.001133041               0.999999985               0.000215249              -0.001149940               0.999999985               0.000207074              -0.001167670               0.999999985               0.000193713              -0.001184376               0.999999985               0.000174387              -0.001198760               0.999999985               0.000148949              -0.001210211               0.999999985               0.000117277              -0.001218450               0.999999985               0.000079003              -0.001223458               0.999999985               0.000033963              -0.001225644               0.999999985              -0.000017313              -0.001225485               0.999999985              -0.000074219              -0.001223668               0.999999985              -0.000135674              -0.001221356               0.999999985               0.000318747              -0.001276995               0.999999985               0.000221561              -0.001243372               0.999999985               0.000181915              -0.001223855               0.999999985               0.000166643              -0.001219591               0.999999985               0.000161532              -0.001226839               0.999999985               0.000159259              -0.001241670               0.999999985               0.000155978              -0.001260834               0.999999985               0.000149821              -0.001282027               0.999999985               0.000139763              -0.001303465               0.999999985               0.000124727              -0.001323838               0.999999985               0.000104072              -0.001342289               0.999999985               0.000077679              -0.001358351               0.999999985               0.000044998              -0.001371959               0.999999985               0.000005473              -0.001383008               0.999999985              -0.000041307              -0.001391810               0.999999985              -0.000095702              -0.001398600               0.999999985              -0.000157580              -0.001404141               0.999999985               0.000241532              -0.001327752               0.999999985               0.000163970              -0.001319776               0.999999985               0.000129871              -0.001312182               0.999999985               0.000115436              -0.001313351               0.999999985               0.000109881              -0.001323469               0.999999985               0.000107387              -0.001340576               0.999999985               0.000104644              -0.001362436               0.999999985               0.000100170              -0.001387130               0.999999985               0.000092943              -0.001413154               0.999999985               0.000081898              -0.001439285               0.999999985               0.000066214              -0.001464574               0.999999985               0.000045606              -0.001488412               0.999999985               0.000019490              -0.001510528               0.999999985              -0.000012818              -0.001530596               0.999999985              -0.000052519              -0.001548491               0.999999985              -0.000100835              -0.001564224               0.999999985              -0.000158850              -0.001578086               0.999999985               0.000162237              -0.001364780               0.999999985               0.000108276              -0.001377234               0.999999985               0.000083249              -0.001380611               0.999999985               0.000071796              -0.001387604               0.999999985               0.000066945              -0.001401082               0.999999985               0.000064629              -0.001420741               0.999999985               0.000062545              -0.001445137               0.999999985               0.000059637              -0.001472888               0.999999985               0.000054870              -0.001502861               0.999999985               0.000047517              -0.001533929               0.999999985               0.000037057              -0.001565119               0.999999985               0.000023083              -0.001595878               0.999999985               0.000004903              -0.001625729               0.999999985              -0.000018201              -0.001654227               0.999999985              -0.000047576              -0.001680830               0.999999985              -0.000084789              -0.001705230               0.999999985              -0.000131679              -0.001727215               0.999999985               0.000081500              -0.001387329               0.999999985               0.000053844              -0.001412939               0.999999985               0.000040596              -0.001424053               0.999999985               0.000034210              -0.001435567               0.999999985               0.000031349              -0.001451775               0.999999985               0.000029914              -0.001473393               0.999999985               0.000028813              -0.001499584               0.999999985               0.000027309              -0.001529402               0.999999985               0.000024865              -0.001561993               0.999999985               0.000021290              -0.001596362               0.999999985               0.000016130              -0.001631723               0.999999985               0.000009138              -0.001667484               0.999999985              -0.000000171              -0.001703067               0.999999985              -0.000012386              -0.001737910               0.999999985              -0.000028092              -0.001771401               0.999999985              -0.000048537              -0.001802845               0.999999985              -0.000075432              -0.001831261               0.999999985               0.000000000              -0.001394884               0.999999985               0.000000000              -0.001425061               0.999999985              -0.000000000              -0.001438965               0.999999985               0.000000000              -0.001452180               0.999999985              -0.000000000              -0.001469564               0.999999985               0.000000000              -0.001491923               0.999999985              -0.000000000              -0.001518660               0.999999985              -0.000000000              -0.001549184               0.999999985              -0.000000000              -0.001582563               0.999999985              -0.000000000              -0.001618059               0.999999985              -0.000000000              -0.001654980               0.999999985              -0.000000000              -0.001692540               0.999999985               0.000000000              -0.001730288               0.999999985              -0.000000000              -0.001767705               0.999999985               0.000000000              -0.001803995               0.999999985               0.000000000              -0.001838305               0.999999985               0.000000000              -0.001869366               0.999999985               0.000872891              -0.000000000               0.999999985               0.000923410              -0.000000000               0.999999985               0.000944632              -0.000000000               0.999999985               0.000956503              -0.000000000               0.999999985               0.000966376              -0.000000000               0.999999985               0.000976803               0.000000000               0.999999985               0.000988712              -0.000000000               0.999999985               0.001001796              -0.000000000               0.999999985               0.001015761              -0.000000000               0.999999985               0.001030210               0.000000000               0.999999985               0.001044609               0.000000000               0.999999985               0.001058623               0.000000000               0.999999985               0.001071796               0.000000000               0.999999985               0.001083740               0.000000000               0.999999985               0.001094047              -0.000000000               0.999999985               0.001102072               0.000000000               0.999999985               0.001106937               0.000000000               0.999999985               0.000867941               0.000132267               0.999999985               0.000914206               0.000105365               0.999999985               0.000932832               0.000093172               0.999999985               0.000943017               0.000088487               0.999999985               0.000951663               0.000087474               0.999999985               0.000961164               0.000088222               0.999999985               0.000971956               0.000089436               0.999999985               0.000983972               0.000090396               0.999999985               0.000996828               0.000090672               0.999999985               0.001009891               0.000089820               0.999999985               0.001022742               0.000087642               0.999999985               0.001035024               0.000083935               0.999999985               0.001046284               0.000078287               0.999999985               0.001056078               0.000070326               0.999999985               0.001064017               0.000059499               0.999999985               0.001069593               0.000044824               0.999999985               0.001072215               0.000024778               0.999999985               0.000853304               0.000263297               0.999999985               0.000887317               0.000210290               0.999999985               0.000898442               0.000187294               0.999999985               0.000903979               0.000178890               0.999999985               0.000909479               0.000177680               0.999999985               0.000916395               0.000179632               0.999999985               0.000924715               0.000182342               0.999999985               0.000934072               0.000184505               0.999999985               0.000943663               0.000184985               0.999999985               0.000952939               0.000183420               0.999999985               0.000961548               0.000179354               0.999999985               0.000969052               0.000172486               0.999999985               0.000975158               0.000161988               0.999999985               0.000979508               0.000147180               0.999999985               0.000981615               0.000127583               0.999999985               0.000981184               0.000101688               0.999999985               0.000978046               0.000067935               0.999999985               0.000829370               0.000391924               0.999999985               0.000844169               0.000314550               0.999999985               0.000844405               0.000283039               0.999999985               0.000843682               0.000272838               0.999999985               0.000845185               0.000272604               0.999999985               0.000848842               0.000276478               0.999999985               0.000853961               0.000281015               0.999999985               0.000859473               0.000284321               0.999999985               0.000864574               0.000285139               0.999999985               0.000868748               0.000282955               0.999999985               0.000871576               0.000277413               0.999999985               0.000872686               0.000268031               0.999999985               0.000871686               0.000253858               0.999999985               0.000868317               0.000234314               0.999999985               0.000862325               0.000208878               0.999999985               0.000853749               0.000176459               0.999999985               0.000842770               0.000136405               0.999999985               0.000796689               0.000516982               0.999999985               0.000786871               0.000418140               0.999999985               0.000775035               0.000381044               0.999999985               0.000768160               0.000370972               0.999999985               0.000765851               0.000372903               0.999999985               0.000766475               0.000379134               0.999999985               0.000768145               0.000385734               0.999999985               0.000769565               0.000390071               0.999999985               0.000769758               0.000391195               0.999999985               0.000768098               0.000388612               0.999999985               0.000764250               0.000381979               0.999999985               0.000757851               0.000370746               0.999999985               0.000748562               0.000354033               0.999999985               0.000736293               0.000331390               0.999999985               0.000721085               0.000302684               0.999999985               0.000703173               0.000267707               0.999999985               0.000683135               0.000226840               0.999999985               0.000755705               0.000637466               0.999999985               0.000718326               0.000521145               0.999999985               0.000695283               0.000481507               0.999999985               0.000683629               0.000473214               0.999999985               0.000678874               0.000477958               0.999999985               0.000677158               0.000486729               0.999999985               0.000675794               0.000495004               0.999999985               0.000673017               0.000500374               0.999999985               0.000667841               0.000501732               0.999999985               0.000659760               0.000498864               0.999999985               0.000648457               0.000491370               0.999999985               0.000633531               0.000478632               0.999999985               0.000614866               0.000460040               0.999999985               0.000592623               0.000435600               0.999999985               0.000567293               0.000405630               0.999999985               0.000539481               0.000370849               0.999999985               0.000510062               0.000332374               0.999999985               0.000707237               0.000752239               0.999999985               0.000641910               0.000623659               0.999999985               0.000610299               0.000583990               0.999999985               0.000596397               0.000578387               0.999999985               0.000590755               0.000586041               0.999999985               0.000587482               0.000597094               0.999999985               0.000583294               0.000606849               0.999999985               0.000576150               0.000612735               0.999999985               0.000565195               0.000614272               0.999999985               0.000549956               0.000610927               0.999999985               0.000530179               0.000602414               0.999999985               0.000505818               0.000588166               0.999999985               0.000477057               0.000568000               0.999999985               0.000444461               0.000542524               0.999999985               0.000408865               0.000512759               0.999999985               0.000371199               0.000479733               0.999999985               0.000332445               0.000444800               0.999999985               0.000652450               0.000859957               0.999999985               0.000561290               0.000725409               0.999999985               0.000524913               0.000687519               0.999999985               0.000511620               0.000684628               0.999999985               0.000506469               0.000694758               0.999999985               0.000502240               0.000707666               0.999999985               0.000495023               0.000718400               0.999999985               0.000482946               0.000724739               0.999999985               0.000465324               0.000726124               0.999999985               0.000441916               0.000721903               0.999999985               0.000412760               0.000711991               0.999999985               0.000378144               0.000696148               0.999999985               0.000338711               0.000674670               0.999999985               0.000295293               0.000649032               0.999999985               0.000249057               0.000620466               0.999999985               0.000201228               0.000590030               0.999999985               0.000152626               0.000558731               0.999999985               0.000592987               0.000958758               0.999999985               0.000479257               0.000826249               0.999999985               0.000443558               0.000790470               0.999999985               0.000432992               0.000789740               0.999999985               0.000429242               0.000801710               0.999999985               0.000423860               0.000816006               0.999999985               0.000412927               0.000827452               0.999999985               0.000394979               0.000834055               0.999999985               0.000369706               0.000834775               0.999999985               0.000336952               0.000829330               0.999999985               0.000297310               0.000817625               0.999999985               0.000251373               0.000800238               0.999999985               0.000200006               0.000778508               0.999999985               0.000144843               0.000753929               0.999999985               0.000087534               0.000727793               0.999999985               0.000029198               0.000700954               0.999999985              -0.000029327               0.000674038               0.999999985               0.000531432               0.001052490               0.999999985               0.000410518               0.000939327               0.999999985               0.000372031               0.000899588               0.999999985               0.000360990               0.000893684               0.999999985               0.000357991               0.000902257               0.999999985               0.000354576               0.000915914               0.999999985               0.000346446               0.000929559               0.999999985               0.000332189               0.000940303               0.999999985               0.000311088               0.000946892               0.999999985               0.000283018               0.000948526               0.999999985               0.000248076               0.000945129               0.999999985               0.000206576               0.000937085               0.999999985               0.000158946               0.000924961               0.999999985               0.000106339               0.000909698               0.999999985               0.000050201               0.000892589               0.999999985              -0.000008263               0.000874622               0.999999985              -0.000067551               0.000856620               0.999999985               0.000464414               0.001138056               0.999999985               0.000344610               0.001048920               0.999999985               0.000303571               0.001011687               0.999999985               0.000291030               0.001003105               0.999999985               0.000287872               0.001009444               0.999999985               0.000285487               0.001022613               0.999999985               0.000279714               0.001037848               0.999999985               0.000268780               0.001052225               0.999999985               0.000251771               0.001064002               0.999999985               0.000228042               0.001072214               0.999999985               0.000197852               0.001076465               0.999999985               0.000161261               0.001076690               0.999999985               0.000118018               0.001073289               0.999999985               0.000068719               0.001066884               0.999999985               0.000014466               0.001058309               0.999999985              -0.000043549               0.001048593               0.999999985              -0.000103655               0.001038686               0.999999985               0.000393261               0.001213396               0.999999985               0.000281604               0.001151720               0.999999985               0.000239912               0.001121631               0.999999985               0.000225574               0.001113744               0.999999985               0.000221481               0.001119597               0.999999985               0.000219398               0.001133041               0.999999985               0.000215249               0.001149940               0.999999985               0.000207074               0.001167670               0.999999985               0.000193713               0.001184376               0.999999985               0.000174387               0.001198760               0.999999985               0.000148949               0.001210211               0.999999985               0.000117277               0.001218450               0.999999985               0.000079003               0.001223458               0.999999985               0.000033963               0.001225644               0.999999985              -0.000017313               0.001225485               0.999999985              -0.000074219               0.001223668               0.999999985              -0.000135674               0.001221356               0.999999985               0.000318747               0.001276995               0.999999985               0.000221561               0.001243372               0.999999985               0.000181915               0.001223855               0.999999985               0.000166643               0.001219591               0.999999985               0.000161532               0.001226839               0.999999985               0.000159259               0.001241670               0.999999985               0.000155978               0.001260834               0.999999985               0.000149821               0.001282027               0.999999985               0.000139763               0.001303465               0.999999985               0.000124727               0.001323838               0.999999985               0.000104072               0.001342289               0.999999985               0.000077679               0.001358351               0.999999985               0.000044998               0.001371959               0.999999985               0.000005473               0.001383008               0.999999985              -0.000041307               0.001391810               0.999999985              -0.000095702               0.001398600               0.999999985              -0.000157580               0.001404141               0.999999985               0.000241532               0.001327752               0.999999985               0.000163970               0.001319776               0.999999985               0.000129871               0.001312182               0.999999985               0.000115436               0.001313351               0.999999985               0.000109881               0.001323469               0.999999985               0.000107387               0.001340576               0.999999985               0.000104644               0.001362436               0.999999985               0.000100170               0.001387130               0.999999985               0.000092943               0.001413154               0.999999985               0.000081898               0.001439285               0.999999985               0.000066214               0.001464574               0.999999985               0.000045606               0.001488412               0.999999985               0.000019490               0.001510528               0.999999985              -0.000012818               0.001530596               0.999999985              -0.000052519               0.001548491               0.999999985              -0.000100835               0.001564224               0.999999985              -0.000158850               0.001578086               0.999999985               0.000162237               0.001364780               0.999999985               0.000108276               0.001377234               0.999999985               0.000083249               0.001380611               0.999999985               0.000071796               0.001387604               0.999999985               0.000066945               0.001401082               0.999999985               0.000064629               0.001420741               0.999999985               0.000062545               0.001445137               0.999999985               0.000059637               0.001472888               0.999999985               0.000054870               0.001502861               0.999999985               0.000047517               0.001533929               0.999999985               0.000037057               0.001565119               0.999999985               0.000023083               0.001595878               0.999999985               0.000004903               0.001625729               0.999999985              -0.000018201               0.001654227               0.999999985              -0.000047576               0.001680830               0.999999985              -0.000084789               0.001705230               0.999999985              -0.000131679               0.001727215               0.999999985               0.000081500               0.001387329               0.999999985               0.000053844               0.001412939               0.999999985               0.000040596               0.001424053               0.999999985               0.000034210               0.001435567               0.999999985               0.000031349               0.001451775               0.999999985               0.000029914               0.001473393               0.999999985               0.000028813               0.001499584               0.999999985               0.000027309               0.001529402               0.999999985               0.000024865               0.001561993               0.999999985               0.000021290               0.001596362               0.999999985               0.000016130               0.001631723               0.999999985               0.000009138               0.001667484               0.999999985              -0.000000171               0.001703067               0.999999985              -0.000012386               0.001737910               0.999999985              -0.000028092               0.001771401               0.999999985              -0.000048537               0.001802845               0.999999985              -0.000075432               0.001831261               0.999999985              -0.000000000               0.001394884               0.999999985               0.000000000               0.001425061               0.999999985               0.000000000               0.001438965               0.999999985               0.000000000               0.001452180               0.999999985               0.000000000               0.001469564               0.999999985              -0.000000000               0.001491923               0.999999985               0.000000000               0.001518660               0.999999985              -0.000000000               0.001549184               0.999999985               0.000000000               0.001582563               0.999999985              -0.000000000               0.001618059               0.999999985               0.000000000               0.001654980               0.999999985               0.000000000               0.001692540               0.999999985               0.000000000               0.001730288               0.999999985               0.000000000               0.001767705               0.999999985              -0.000000000               0.001803995               0.999999985              -0.000000000               0.001838305               0.999999985               0.000000000               0.001869366               0.999999985 </DataArray>
<DataArray type="Float64"                                    Name="defo"                                                      NumberOfComponents=" 3" format="ascii">
             -0.000872891              -0.000000000               0.999999985              -0.000923410               0.000000000               0.999999985              -0.000944632              -0.000000000               0.999999985              -0.000956503               0.000000000               0.999999985              -0.000966376              -0.000000000               0.999999985              -0.000976803              -0.000000000               0.999999985              -0.000988712               0.000000000               0.999999985              -0.001001796               0.000000000               0.999999985              -0.001015761              -0.000000000               0.999999985              -0.001030210              -0.000000000               0.999999985              -0.001044609              -0.000000000               0.999999985              -0.001058623              -0.000000000               0.999999985              -0.001071796               0.000000000               0.999999985              -0.001083740              -0.000000000               0.999999985              -0.001094047               0.000000000               0.999999985              -0.001102072              -0.000000000               0.999999985              -0.001106937               0.000000000               0.999999985              -0.000867941               0.000132267               0.999999985              -0.000914206               0.000105365               0.999999985              -0.000932832               0.000093172               0.999999985              -0.000943017               0.000088487               0.999999985              -0.000951663               0.000087474               0.999999985              -0.000961164               0.000088222               0.999999985              -0.000971956               0.000089436               0.999999985              -0.000983972               0.000090396               0.999999985              -0.000996828               0.000090672               0.999999985              -0.001009891               0.000089820               0.999999985              -0.001022742               0.000087642               0.999999985              -0.001035024               0.000083935               0.999999985              -0.001046284               0.000078287               0.999999985              -0.001056078               0.000070326               0.999999985              -0.001064017               0.000059499               0.999999985              -0.001069593               0.000044824               0.999999985              -0.001072215               0.000024778               0.999999985              -0.000853304               0.000263297               0.999999985              -0.000887317               0.000210290               0.999999985              -0.000898442               0.000187294               0.999999985              -0.000903979               0.000178890               0.999999985              -0.000909479               0.000177680               0.999999985              -0.000916395               0.000179632               0.999999985              -0.000924715               0.000182342               0.999999985              -0.000934072               0.000184505               0.999999985              -0.000943663               0.000184985               0.999999985              -0.000952939               0.000183420               0.999999985              -0.000961548               0.000179354               0.999999985              -0.000969052               0.000172486               0.999999985              -0.000975158               0.000161988               0.999999985              -0.000979508               0.000147180               0.999999985              -0.000981615               0.000127583               0.999999985              -0.000981184               0.000101688               0.999999985              -0.000978046               0.000067935               0.999999985              -0.000829370               0.000391924               0.999999985              -0.000844169               0.000314550               0.999999985              -0.000844405               0.000283039               0.999999985              -0.000843682               0.000272838               0.999999985              -0.000845185               0.000272604               0.999999985              -0.000848842               0.000276478               0.999999985              -0.000853961               0.000281015               0.999999985              -0.000859473               0.000284321               0.999999985              -0.000864574               0.000285139               0.999999985              -0.000868748               0.000282955               0.999999985              -0.000871576               0.000277413               0.999999985              -0.000872686               0.000268031               0.999999985              -0.000871686               0.000253858               0.999999985              -0.000868317               0.000234314               0.999999985              -0.000862325               0.000208878               0.999999985              -0.000853749               0.000176459               0.999999985              -0.000842770               0.000136405               0.999999985              -0.000796689               0.000516982               0.999999985              -0.000786871               0.000418140               0.999999985              -0.000775035               0.000381044               0.999999985              -0.000768160               0.000370972               0.999999985              -0.000765851               0.000372903               0.999999985              -0.000766475               0.000379134               0.999999985              -0.000768145               0.000385734               0.999999985              -0.000769565               0.000390071               0.999999985              -0.000769758               0.000391195               0.999999985              -0.000768098               0.000388612               0.999999985              -0.000764250               0.000381979               0.999999985              -0.000757851               0.000370746               0.999999985              -0.000748562               0.000354033               0.999999985              -0.000736293               0.000331390               0.999999985              -0.000721085               0.000302684               0.999999985              -0.000703173               0.000267707               0.999999985              -0.000683135               0.000226840               0.999999985              -0.000755705               0.000637466               0.999999985              -0.000718326               0.000521145               0.999999985              -0.000695283               0.000481507               0.999999985              -0.000683629               0.000473214               0.999999985              -0.000678874               0.000477958               0.999999985              -0.000677158               0.000486729               0.999999985              -0.000675794               0.000495004               0.999999985              -0.000673017               0.000500374               0.999999985              -0.000667841               0.000501732               0.999999985              -0.000659760               0.000498864               0.999999985              -0.000648457               0.000491370               0.999999985              -0.000633531               0.000478632               0.999999985              -0.000614866               0.000460040               0.999999985              -0.000592623               0.000435600               0.999999985              -0.000567293               0.000405630               0.999999985              -0.000539481               0.000370849               0.999999985              -0.000510062               0.000332374               0.999999985              -0.000707237               0.000752239               0.999999985              -0.000641910               0.000623659               0.999999985              -0.000610299               0.000583990               0.999999985              -0.000596397               0.000578387               0.999999985              -0.000590755               0.000586041               0.999999985              -0.000587482               0.000597094               0.999999985              -0.000583294               0.000606849               0.999999985              -0.000576150               0.000612735               0.999999985              -0.000565195               0.000614272               0.999999985              -0.000549956               0.000610927               0.999999985              -0.000530179               0.000602414               0.999999985              -0.000505818               0.000588166               0.999999985              -0.000477057               0.000568000               0.999999985              -0.000444461               0.000542524               0.999999985              -0.000408865               0.000512759               0.999999985              -0.000371199               0.000479733               0.999999985              -0.000332445               0.000444800               0.999999985              -0.000652450               0.000859957               0.999999985              -0.000561290               0.000725409               0.999999985              -0.000524913               0.000687519               0.999999985              -0.000511620               0.000684628               0.999999985              -0.000506469               0.000694758               0.999999985              -0.000502240               0.000707666               0.999999985              -0.000495023               0.000718400               0.999999985              -0.000482946               0.000724739               0.999999985              -0.000465324               0.000726124               0.999999985              -0.000441916               0.000721903               0.999999985              -0.000412760               0.000711991               0.999999985              -0.000378144               0.000696148               0.999999985              -0.000338711               0.000674670               0.999999985              -0.000295293               0.000649032               0.999999985              -0.000249057               0.000620466               0.999999985              -0.000201228               0.000590030               0.999999985              -0.000152626               0.000558731               0.999999985              -0.000592987               0.000958758               0.999999985              -0.000479257               0.000826249               0.999999985              -0.000443558               0.000790470               0.999999985              -0.000432992               0.000789740               0.999999985              -0.000429242               0.000801710               0.999999985              -0.000423860               0.000816006               0.999999985              -0.000412927               0.000827452               0.999999985              -0.000394979               0.000834055               0.999999985              -0.000369706               0.000834775               0.999999985              -0.000336952               0.000829330               0.999999985              -0.000297310               0.000817625               0.999999985              -0.000251373               0.000800238               0.999999985              -0.000200006               0.000778508               0.999999985              -0.000144843               0.000753929               0.999999985              -0.000087534               0.000727793               0.999999985              -0.000029198               0.000700954               0.999999985               0.000029327               0.000674038               0.999999985              -0.000531432               0.001052490               0.999999985              -0.000410518               0.000939327               0.999999985              -0.000372031               0.000899588               0.999999985              -0.000360990               0.000893684               0.999999985              -0.000357991               0.000902257               0.999999985              -0.000354576               0.000915914               0.999999985              -0.000346446               0.000929559               0.999999985              -0.000332189               0.000940303               0.999999985              -0.000311088               0.000946892               0.999999985              -0.000283018               0.000948526               0.999999985              -0.000248076               0.000945129               0.999999985              -0.000206576               0.000937085               0.999999985              -0.000158946               0.000924961               0.999999985              -0.000106339               0.000909698               0.999999985              -0.000050201               0.000892589               0.999999985               0.000008263               0.000874622               0.999999985               0.000067551               0.000856620               0.999999985              -0.000464414               0.001138056               0.999999985              -0.000344610               0.001048920               0.999999985              -0.000303571               0.001011687               0.999999985              -0.000291030               0.001003105               0.999999985              -0.000287872               0.001009444               0.999999985              -0.000285487               0.001022613               0.999999985              -0.000279714               0.001037848               0.999999985              -0.000268780               0.001052225               0.999999985              -0.000251771               0.001064002               0.999999985              -0.000228042               0.001072214               0.999999985              -0.000197852               0.001076465               0.999999985              -0.000161261               0.001076690               0.999999985              -0.000118018               0.001073289               0.999999985              -0.000068719               0.001066884               0.999999985              -0.000014466               0.001058309               0.999999985               0.000043549               0.001048593               0.999999985               0.000103655               0.001038686               0.999999985              -0.000393261               0.001213396               0.999999985              -0.000281604               0.001151720               0.999999985              -0.000239912               0.001121631               0.999999985              -0.000225574               0.001113744               0.999999985              -0.000221481               0.001119597               0.999999985              -0.000219398               0.001133041               0.999999985              -0.000215249               0.001149940               0.999999985              -0.000207074               0.001167670               0.999999985              -0.000193713               0.001184376               0.999999985              -0.000174387               0.001198760               0.999999985              -0.000148949               0.001210211               0.999999985              -0.000117277               0.001218450               0.999999985              -0.000079003               0.001223458               0.999999985              -0.000033963               0.001225644               0.999999985               0.000017313               0.001225485               0.999999985               0.000074219               0.001223668               0.999999985               0.000135674               0.001221356               0.999999985              -0.000318747               0.001276995               0.999999985              -0.000221561               0.001243372               0.999999985              -0.000181915               0.001223855               0.999999985              -0.000166643               0.001219591               0.999999985              -0.000161532               0.001226839               0.999999985              -0.000159259               0.001241670               0.999999985              -0.000155978               0.001260834               0.999999985              -0.000149821               0.001282027               0.999999985              -0.000139763               0.001303465               0.999999985              -0.000124727               0.001323838               0.999999985              -0.000104072               0.001342289               0.999999985              -0.000077679               0.001358351               0.999999985              -0.000044998               0.001371959               0.999999985              -0.000005473               0.001383008               0.999999985               0.000041307               0.001391810               0.999999985               0.000095702               0.001398600               0.999999985               0.000157580               0.001404141               0.999999985              -0.000241532               0.001327752               0.999999985              -0.000163970               0.001319776               0.999999985              -0.000129871               0.001312182               0.999999985              -0.000115436               0.001313351               0.999999985              -0.000109881               0.001323469               0.999999985              -0.000107387               0.001340576               0.999999985              -0.000104644               0.001362436               0.999999985              -0.000100170               0.001387130               0.999999985              -0.000092943               0.001413154               0.999999985              -0.000081898               0.001439285               0.999999985              -0.000066214               0.001464574               0.999999985              -0.000045606               0.001488412               0.999999985              -0.000019490               0.001510528               0.999999985               0.000012818               0.001530596               0.999999985               0.000052519               0.001548491               0.999999985               0.000100835               0.001564224               0.999999985               0.000158850               0.001578086               0.999999985              -0.000162237               0.001364780               0.999999985              -0.000108276               0.001377234               0.999999985              -0.000083249               0.001380611               0.999999985              -0.000071796               0.001387604               0.999999985              -0.000066945               0.001401082               0.999999985              -0.000064629               0.001420741               0.999999985              -0.000062545               0.001445137               0.999999985              -0.000059637               0.001472888               0.999999985              -0.000054870               0.001502861               0.999999985              -0.000047517               0.001533929               0.999999985              -0.000037057               0.001565119               0.999999985              -0.000023083               0.001595878               0.999999985              -0.000004903               0.001625729               0.999999985               0.000018201               0.001654227               0.999999985               0.000047576               0.001680830               0.999999985               0.000084789               0.001705230               0.999999985               0.000131679               0.001727215               0.999999985              -0.000081500               0.001387329               0.999999985              -0.000053844               0.001412939               0.999999985              -0.000040596               0.001424053               0.999999985              -0.000034210               0.001435567               0.999999985              -0.000031349               0.001451775               0.999999985              -0.000029914               0.001473393               0.999999985              -0.000028813               0.001499584               0.999999985              -0.000027309               0.001529402               0.999999985              -0.000024865               0.001561993               0.999999985              -0.000021290               0.001596362               0.999999985              -0.000016130               0.001631723               0.999999985              -0.000009138               0.001667484               0.999999985               0.000000171               0.001703067               0.999999985               0.000012386               0.001737910               0.999999985               0.000028092               0.001771401               0.999999985               0.000048537               0.001802845               0.999999985               0.000075432               0.001831261               0.999999985              -0.000000000               0.001394884               0.999999985               0.000000000               0.001425061               0.999999985               0.000000000               0.001438965               0.999999985               0.000000000               0.001452180               0.999999985               0.000000000               0.001469564               0.999999985              -0.000000000               0.001491923               0.999999985               0.000000000               0.001518660               0.999999985              -0.000000000               0.001549184               0.999999985               0.000000000               0.001582563               0.999999985              -0.000000000               0.001618059               0.999999985               0.000000000               0.001654980               0.999999985               0.000000000               0.001692540               0.999999985               0.000000000               0.001730288               0.999999985               0.000000000               0.001767705               0.999999985              -0.000000000               0.001803995               0.999999985              -0.000000000               0.001838305               0.999999985               0.000000000               0.001869366               0.999999985              -0.000872891              -0.000000000               0.999999985              -0.000923410               0.000000000               0.999999985              -0.000944632              -0.000000000               0.999999985              -0.000956503               0.000000000               0.999999985              -0.000966376              -0.000000000               0.999999985              -0.000976803              -0.000000000               0.999999985              -0.000988712               0.000000000               0.999999985              -0.001001796               0.000000000               0.999999985              -0.001015761              -0.000000000               0.999999985              -0.001030210              -0.000000000               0.999999985              -0.001044609              -0.000000000               0.999999985              -0.001058623              -0.000000000               0.999999985              -0.001071796               0.000000000               0.999999985              -0.001083740              -0.000000000               0.999999985              -0.001094047               0.000000000               0.999999985              -0.001102072              -0.000000000               0.999999985              -0.001106937               0.000000000               0.999999985              -0.000867941              -0.000132267               0.999999985              -0.000914206              -0.000105365               0.999999985              -0.000932832              -0.000093172               0.999999985              -0.000943017              -0.000088487               0.999999985              -0.000951663              -0.000087474               0.999999985              -0.000961164              -0.000088222               0.999999985              -0.000971956              -0.000089436               0.999999985              -0.000983972              -0.000090396               0.999999985              -0.000996828              -0.000090672               0.999999985              -0.001009891              -0.000089820               0.999999985              -0.001022742              -0.000087642               0.999999985              -0.001035024              -0.000083935               0.999999985              -0.001046284              -0.000078287               0.999999985              -0.001056078              -0.000070326               0.999999985              -0.001064017              -0.000059499               0.999999985              -0.001069593              -0.000044824               0.999999985              -0.001072215              -0.000024778               0.999999985              -0.000853304              -0.000263297               0.999999985              -0.000887317              -0.000210290               0.999999985              -0.000898442              -0.000187294               0.999999985              -0.000903979              -0.000178890               0.999999985              -0.000909479              -0.000177680               0.999999985              -0.000916395              -0.000179632               0.999999985              -0.000924715              -0.000182342               0.999999985              -0.000934072              -0.000184505               0.999999985              -0.000943663              -0.000184985               0.999999985              -0.000952939              -0.000183420               0.999999985              -0.000961548              -0.000179354               0.999999985              -0.000969052              -0.000172486               0.999999985              -0.000975158              -0.000161988               0.999999985              -0.000979508              -0.000147180               0.999999985              -0.000981615              -0.000127583               0.999999985              -0.000981184              -0.000101688               0.999999985              -0.000978046              -0.000067935               0.999999985              -0.000829370              -0.000391924               0.999999985              -0.000844169              -0.000314550               0.999999985              -0.000844405              -0.000283039               0.999999985              -0.000843682              -0.000272838               0.999999985              -0.000845185              -0.000272604               0.999999985              -0.000848842              -0.000276478               0.999999985              -0.000853961              -0.000281015               0.999999985              -0.000859473              -0.000284321               0.999999985              -0.000864574              -0.000285139               0.999999985              -0.000868748              -0.000282955               0.999999985              -0.000871576              -0.000277413               0.999999985              -0.000872686              -0.000268031               0.999999985              -0.000871686              -0.000253858               0.999999985              -0.000868317              -0.000234314               0.999999985              -0.000862325              -0.000208878               0.999999985              -0.000853749              -0.000176459               0.999999985              -0.000842770              -0.000136405               0.999999985              -0.000796689              -0.000516982               0.999999985              -0.000786871              -0.000418140               0.999999985              -0.000775035              -0.000381044               0.999999985              -0.000768160              -0.000370972               0.999999985              -0.000765851              -0.000372903               0.999999985              -0.000766475              -0.000379134               0.999999985              -0.000768145              -0.000385734               0.999999985              -0.000769565              -0.000390071               0.999999985              -0.000769758              -0.000391195               0.999999985              -0.000768098              -0.000388612               0.999999985              -0.000764250              -0.000381979               0.999999985              -0.000757851              -0.000370746               0.999999985              -0.000748562              -0.000354033               0.999999985              -0.000736293              -0.000331390               0.999999985              -0.000721085              -0.000302684               0.999999985              -0.000703173              -0.000267707               0.999999985              -0.000683135              -0.000226840               0.999999985              -0.000755705              -0.000637466               0.999999985              -0.000718326              -0.000521145               0.999999985              -0.000695283              -0.000481507               0.999999985              -0.000683629              -0.000473214               0.999999985              -0.000678874              -0.000477958               0.999999985              -0.000677158              -0.000486729               0.999999985              -0.000675794              -0.000495004               0.999999985              -0.000673017              -0.000500374               0.999999985              -0.000667841              -0.000501732               0.999999985              -0.000659760              -0.000498864               0.999999985              -0.000648457              -0.000491370               0.999999985              -0.000633531              -0.000478632               0.999999985              -0.000614866              -0.000460040               0.999999985              -0.000592623              -0.000435600               0.999999985              -0.000567293              -0.000405630               0.999999985              -0.000539481              -0.000370849               0.999999985              -0.000510062              -0.000332374               0.999999985              -0.000707237              -0.000752239               0.999999985              -0.000641910              -0.000623659               0.999999985              -0.000610299              -0.000583990               0.999999985              -0.000596397              -0.000578387               0.999999985              -0.000590755              -0.000586041               0.999999985              -0.000587482              -0.000597094               0.999999985              -0.000583294              -0.000606849               0.999999985              -0.000576150              -0.000612735               0.999999985              -0.000565195              -0.000614272               0.999999985              -0.000549956              -0.000610927               0.999999985              -0.000530179              -0.000602414               0.999999985              -0.000505818              -0.000588166               0.999999985              -0.000477057              -0.000568000               0.999999985              -0.000444461              -0.000542524               0.999999985              -0.000408865              -0.000512759               0.999999985              -0.000371199              -0.000479733               0.999999985              -0.000332445              -0.000444800               0.999999985              -0.000652450              -0.000859957               0.999999985              -0.000561290              -0.000725409               0.999999985              -0.000524913              -0.000687519               0.999999985              -0.000511620              -0.000684628               0.999999985              -0.000506469              -0.000694758               0.999999985              -0.000502240              -0.000707666               0.999999985              -0.000495023              -0.000718400               0.999999985              -0.000482946              -0.000724739               0.999999985              -0.000465324              -0.000726124               0.999999985              -0.000441916              -0.000721903               0.999999985              -0.000412760              -0.000711991               0.999999985              -0.000378144              -0.000696148               0.999999985              -0.000338711              -0.000674670               0.999999985              -0.000295293              -0.000649032               0.999999985              -0.000249057              -0.000620466               0.999999985              -0.000201228              -0.000590030               0.999999985              -0.000152626              -0.000558731               0.999999985              -0.000592987              -0.000958758               0.999999985              -0.000479257              -0.000826249               0.999999985              -0.000443558              -0.000790470               0.999999985              -0.000432992              -0.000789740               0.999999985              -0.000429242              -0.000801710               0.999999985              -0.000423860              -0.000816006               0.999999985              -0.000412927              -0.000827452               0.999999985              -0.000394979              -0.000834055               0.999999985              -0.000369706              -0.000834775               0.999999985              -0.000336952              -0.000829330               0.999999985              -0.000297310              -0.000817625               0.999999985              -0.000251373              -0.000800238               0.999999985              -0.000200006              -0.000778508               0.999999985              -0.000144843              -0.000753929               0.999999985              -0.000087534              -0.000727793               0.999999985              -0.000029198              -0.000700954               0.999999985               0.000029327              -0.000674038               0.999999985              -0.000531432              -0.001052490               0.999999985              -0.000410518              -0.000939327               0.999999985              -0.000372031              -0.000899588               0.999999985              -0.000360990              -0.000893684               0.999999985              -0.000357991              -0.000902257               0.999999985              -0.000354576              -0.000915914               0.999999985              -0.000346446              -0.000929559               0.999999985              -0.000332189              -0.000940303               0.999999985              -0.000311088              -0.000946892               0.999999985              -0.000283018              -0.000948526               0.999999985              -0.000248076              -0.000945129               0.999999985              -0.000206576              -0.000937085               0.999999985              -0.000158946              -0.000924961               0.999999985              -0.000106339              -0.000909698               0.999999985              -0.000050201              -0.000892589               0.999999985               0.000008263              -0.000874622               0.999999985               0.000067551              -0.000856620               0.999999985              -0.000464414              -0.001138056               0.999999985              -0.000344610              -0.001048920               0.999999985              -0.000303571              -0.001011687               0.999999985              -0.000291030              -0.001003105               0.999999985              -0.000287872              -0.001009444               0.999999985              -0.000285487              -0.001022613               0.999999985              -0.000279714              -0.001037848               0.999999985              -0.000268780              -0.001052225               0.999999985              -0.000251771              -0.001064002               0.999999985              -0.000228042              -0.001072214               0.999999985              -0.000197852              -0.001076465               0.999999985              -0.000161261              -0.001076690               0.999999985              -0.000118018              -0.001073289               0.999999985              -0.000068719              -0.001066884               0.999999985              -0.000014466              -0.001058309               0.999999985               0.000043549              -0.001048593               0.999999985               0.000103655              -0.001038686               0.999999985              -0.000393261              -0.001213396               0.999999985              -0.000281604              -0.001151720               0.999999985              -0.000239912              -0.001121631               0.999999985              -0.000225574              -0.001113744               0.999999985              -0.000221481              -0.001119597               0.999999985              -0.000219398              -0.001133041               0.999999985              -0.000215249              -0.001149940               0.999999985              -0.000207074              -0.001167670               0.999999985              -0.000193713              -0.001184376               0.999999985              -0.000174387              -0.001198760               0.999999985              -0.000148949              -0.001210211               0.999999985              -0.000117277              -0.001218450               0.999999985              -0.000079003              -0.001223458               0.999999985              -0.000033963              -0.001225644               0.999999985               0.000017313              -0.001225485               0.999999985               0.000074219              -0.001223668               0.999999985               0.000135674              -0.001221356               0.999999985              -0.000318747              -0.001276995               0.999999985              -0.000221561              -0.001243372               0.999999985              -0.000181915              -0.001223855               0.999999985              -0.000166643              -0.001219591               0.999999985              -0.000161532              -0.001226839               0.999999985              -0.000159259              -0.001241670               0.999999985              -0.000155978              -0.001260834               0.999999985              -0.000149821              -0.001282027               0.999999985              -0.000139763              -0.001303465               0.999999985              -0.000124727              -0.001323838               0.999999985              -0.000104072              -0.001342289               0.999999985              -0.000077679              -0.001358351               0.999999985              -0.000044998              -0.001371959               0.999999985              -0.000005473              -0.001383008               0.999999985               0.000041307              -0.001391810               0.999999985               0.000095702              -0.001398600               0.999999985               0.000157580              -0.001404141               0.999999985              -0.000241532              -0.001327752               0.999999985              -0.000163970              -0.001319776               0.999999985              -0.000129871              -0.001312182               0.999999985              -0.000115436              -0.001313351               0.999999985              -0.000109881              -0.001323469               0.999999985              -0.000107387              -0.001340576               0.999999985              -0.000104644              -0.001362436               0.999999985              -0.000100170              -0.001387130               0.999999985              -0.000092943              -0.001413154               0.999999985              -0.000081898              -0.001439285               0.999999985              -0.000066214              -0.001464574               0.999999985              -0.000045606              -0.001488412               0.999999985              -0.000019490              -0.001510528               0.999999985               0.000012818              -0.001530596               0.999999985               0.000052519              -0.001548491               0.999999985               0.000100835              -0.001564224               0.999999985               0.000158850              -0.001578086               0.999999985              -0.000162237              -0.001364780               0.999999985              -0.000108276              -0.001377234               0.999999985              -0.000083249              -0.001380611               0.999999985              -0.000071796              -0.001387604               0.999999985              -0.000066945              -0.001401082               0.999999985              -0.000064629              -0.001420741               0.999999985              -0.000062545              -0.001445137               0.999999985              -0.000059637              -0.001472888               0.999999985              -0.000054870              -0.001502861               0.999999985              -0.000047517              -0.001533929               0.999999985              -0.000037057              -0.001565119               0.999999985              -0.000023083              -0.001595878               0.999999985              -0.000004903              -0.001625729               0.999999985               0.000018201              -0.001654227               0.999999985               0.000047576              -0.001680830               0.999999985               0.000084789              -0.001705230               0.999999985               0.000131679              -0.001727215               0.999999985              -0.000081500              -0.001387329               0.999999985              -0.000053844              -0.001412939               0.999999985              -0.000040596              -0.001424053               0.999999985              -0.000034210              -0.001435567               0.999999985              -0.000031349              -0.001451775               0.999999985              -0.000029914              -0.001473393               0.999999985              -0.000028813              -0.001499584               0.999999985              -0.000027309              -0.001529402               0.999999985              -0.000024865              -0.001561993               0.999999985              -0.000021290              -0.001596362               0.999999985              -0.000016130              -0.001631723               0.999999985              -0.000009138              -0.001667484               0.999999985               0.000000171              -0.001703067               0.999999985               0.000012386              -0.001737910               0.999999985               0.000028092              -0.001771401               0.999999985               0.000048537              -0.001802845               0.999999985               0.000075432              -0.001831261               0.999999985               0.000000000              -0.001394884               0.999999985               0.000000000              -0.001425061               0.999999985              -0.000000000              -0.001438965               0.999999985               0.000000000              -0.001452180               0.999999985              -0.000000000              -0.001469564               0.999999985               0.000000000              -0.001491923               0.999999985              -0.000000000              -0.001518660               0.999999985              -0.000000000              -0.001549184               0.999999985              -0.000000000              -0.001582563               0.999999985              -0.000000000              -0.001618059               0.999999985              -0.000000000              -0.001654980               0.999999985              -0.000000000              -0.001692540               0.999999985               0.000000000              -0.001730288               0.999999985              -0.000000000              -0.001767705               0.999999985               0.000000000              -0.001803995               0.999999985               0.000000000              -0.001838305               0.999999985               0.000000000              -0.001869366               0.999999985               0.000872891              -0.000000000               0.999999985               0.000923410              -0.000000000               0.999999985               0.000944632              -0.000000000               0.999999985               0.000956503              -0.000000000               0.999999985               0.000966376              -0.000000000               0.999999985               0.000976803               0.000000000               0.999999985               0.000988712              -0.000000000               0.999999985               0.001001796              -0.000000000               0.999999985               0.001015761              -0.000000000               0.999999985               0.001030210               0.000000000               0.999999985               0.001044609               0.000000000               0.999999985               0.001058623               0.000000000               0.999999985               0.001071796               0.000000000               0.999999985               0.001083740               0.000000000               0.999999985               0.001094047              -0.000000000               0.999999985               0.001102072               0.000000000               0.999999985               0.001106937               0.000000000               0.999999985               0.000867941              -0.000132267               0.999999985               0.000914206              -0.000105365               0.999999985               0.000932832              -0.000093172               0.999999985               0.000943017              -0.000088487               0.999999985               0.000951663              -0.000087474               0.999999985               0.000961164              -0.000088222               0.999999985               0.000971956              -0.000089436               0.999999985               0.000983972              -0.000090396               0.999999985               0.000996828              -0.000090672               0.999999985               0.001009891              -0.000089820               0.999999985               0.001022742              -0.000087642               0.999999985               0.001035024              -0.000083935               0.999999985               0.001046284              -0.000078287               0.999999985               0.001056078              -0.000070326               0.999999985               0.001064017              -0.000059499               0.999999985               0.001069593              -0.000044824               0.999999985               0.001072215              -0.000024778               0.999999985               0.000853304              -0.000263297               0.999999985               0.000887317              -0.000210290               0.999999985               0.000898442              -0.000187294               0.999999985               0.000903979              -0.000178890               0.999999985               0.000909479              -0.000177680               0.999999985               0.000916395              -0.000179632               0.999999985               0.000924715              -0.000182342               0.999999985               0.000934072              -0.000184505               0.999999985               0.000943663              -0.000184985               0.999999985               0.000952939              -0.000183420               0.999999985               0.000961548              -0.000179354               0.999999985               0.000969052              -0.000172486               0.999999985               0.000975158              -0.000161988               0.999999985               0.000979508              -0.000147180               0.999999985               0.000981615              -0.000127583               0.999999985               0.000981184              -0.000101688               0.999999985               0.000978046              -0.000067935               0.999999985               0.000829370              -0.000391924               0.999999985               0.000844169              -0.000314550               0.999999985               0.000844405              -0.000283039               0.999999985               0.000843682              -0.000272838               0.999999985               0.000845185              -0.000272604               0.999999985               0.000848842              -0.000276478               0.999999985               0.000853961              -0.000281015               0.999999985               0.000859473              -0.000284321               0.999999985               0.000864574              -0.000285139               0.999999985               0.000868748              -0.000282955               0.999999985               0.000871576              -0.000277413               0.999999985               0.000872686              -0.000268031               0.999999985               0.000871686              -0.000253858               0.999999985               0.000868317              -0.000234314               0.999999985               0.000862325              -0.000208878               0.999999985               0.000853749              -0.000176459               0.999999985               0.000842770              -0.000136405               0.999999985               0.000796689              -0.000516982               0.999999985               0.000786871              -0.000418140               0.999999985               0.000775035              -0.000381044               0.999999985               0.000768160              -0.000370972               0.999999985               0.000765851              -0.000372903               0.999999985               0.000766475              -0.000379134               0.999999985               0.000768145              -0.000385734               0.999999985               0.000769565              -0.000390071               0.999999985               0.000769758              -0.000391195               0.999999985               0.000768098              -0.000388612               0.999999985               0.000764250              -0.000381979               0.999999985               0.000757851              -0.000370746               0.999999985               0.000748562              -0.000354033               0.999999985               0.000736293              -0.000331390               0.999999985               0.000721085              -0.000302684               0.999999985               0.000703173              -0.000267707               0.999999985               0.000683135              -0.000226840               0.999999985               0.000755705              -0.000637466               0.999999985               0.000718326              -0.000521145               0.999999985               0.000695283              -0.000481507               0.999999985               0.000683629              -0.000473214               0.999999985               0.000678874              -0.000477958               0.999999985               0.000677158              -0.000486729               0.999999985               0.000675794              -0.000495004               0.999999985               0.000673017              -0.000500374               0.999999985               0.000667841              -0.000501732               0.999999985               0.000659760              -0.000498864               0.999999985               0.000648457              -0.000491370               0.999999985               0.000633531              -0.000478632               0.999999985               0.000614866              -0.000460040               0.999999985               0.000592623              -0.000435600               0.999999985               0.000567293              -0.000405630               0.999999985               0.000539481              -0.000370849               0.999999985               0.000510062              -0.000332374               0.999999985               0.000707237              -0.000752239               0.999999985               0.000641910              -0.000623659               0.999999985               0.000610299              -0.000583990               0.999999985               0.000596397              -0.000578387               0.999999985               0.000590755              -0.000586041               0.999999985               0.000587482              -0.000597094               0.999999985               0.000583294              -0.000606849               0.999999985               0.000576150              -0.000612735               0.999999985               0.000565195              -0.000614272               0.999999985               0.000549956              -0.000610927               0.999999985               0.000530179              -0.000602414               0.999999985               0.000505818              -0.000588166               0.999999985               0.000477057              -0.000568000               0.999999985               0.000444461              -0.000542524               0.999999985               0.000408865              -0.000512759               0.999999985               0.000371199              -0.000479733               0.999999985               0.000332445              -0.000444800               0.999999985               0.000652450              -0.000859957               0.999999985               0.000561290              -0.000725409               0.999999985               0.000524913              -0.000687519               0.999999985               0.000511620              -0.000684628               0.999999985               0.000506469              -0.000694758               0.999999985               0.000502240              -0.000707666               0.999999985               0.000495023              -0.000718400               0.999999985               0.000482946              -0.000724739               0.999999985               0.000465324              -0.000726124               0.999999985               0.000441916              -0.000721903               0.999999985               0.000412760              -0.000711991               0.999999985               0.000378144              -0.000696148               0.999999985               0.000338711              -0.000674670               0.999999985               0.000295293              -0.000649032               0.999999985               0.000249057              -0.000620466               0.999999985               0.000201228              -0.000590030               0.999999985               0.000152626              -0.000558731               0.999999985               0.000592987              -0.000958758               0.999999985               0.000479257              -0.000826249               0.999999985               0.000443558              -0.000790470               0.999999985               0.000432992              -0.000789740               0.999999985               0.000429242              -0.000801710               0.999999985               0.000423860              -0.000816006               0.999999985               0.000412927              -0.000827452               0.999999985               0.000394979              -0.000834055               0.999999985               0.000369706              -0.000834775               0.999999985               0.000336952              -0.000829330               0.999999985               0.000297310              -0.000817625               0.999999985               0.000251373              -0.000800238               0.999999985               0.000200006              -0.000778508               0.999999985               0.000144843              -0.000753929               0.999999985               0.000087534              -0.000727793               0.999999985               0.000029198              -0.000700954               0.999999985              -0.000029327              -0.000674038               0.999999985               0.000531432              -0.001052490               0.999999985               0.000410518              -0.000939327               0.999999985               0.000372031              -0.000899588               0.999999985               0.000360990              -0.000893684               0.999999985               0.000357991              -0.000902257               0.999999985               0.000354576              -0.000915914               0.999999985               0.000346446              -0.000929559               0.999999985               0.000332189              -0.000940303               0.999999985               0.000311088              -0.000946892               0.999999985               0.000283018              -0.000948526               0.999999985               0.000248076              -0.000945129               0.999999985               0.000206576              -0.000937085               0.999999985               0.000158946              -0.000924961               0.999999985               0.000106339              -0.000909698               0.999999985               0.000050201              -0.000892589               0.999999985              -0.000008263              -0.000874622               0.999999985              -0.000067551              -0.000856620               0.999999985               0.000464414              -0.001138056               0.999999985               0.000344610              -0.001048920               0.999999985               0.000303571              -0.001011687               0.999999985               0.000291030              -0.001003105               0.999999985               0.000287872              -0.001009444               0.999999985               0.000285487              -0.001022613               0.999999985               0.000279714              -0.001037848               0.999999985               0.000268780              -0.001052225               0.999999985               0.000251771              -0.001064002               0.999999985               0.000228042              -0.001072214               0.999999985               0.000197852              -0.001076465               0.999999985               0.000161261              -0.001076690               0.999999985               0.000118018              -0.001073289               0.999999985               0.000068719              -0.001066884               0.999999985               0.000014466              -0.001058309               0.999999985              -0.000043549              -0.001048593               0.999999985              -0.000103655              -0.001038686               0.999999985               0.000393261              -0.001213396               0.999999985               0.000281604              -0.001151720               0.999999985               0.000239912              -0.001121631               0.999999985               0.000225574              -0.001113744               0.999999985               0.000221481              -0.001119597               0.999999985               0.000219398              -0.001133041               0.999999985               0.000215249              -0.001149940               0.999999985               0.000207074              -0.001167670               0.999999985               0.000193713              -0.001184376               0.999999985               0.000174387              -0.001198760               0.999999985               0.000148949              -0.001210211               0.999999985               0.000117277              -0.001218450               0.999999985               0.000079003              -0.001223458               0.999999985               0.000033963              -0.001225644               0.999999985              -0.000017313              -0.001225485               0.999999985              -0.000074219              -0.001223668               0.999999985              -0.000135674              -0.001221356               0.999999985               0.000318747              -0.001276995               0.999999985               0.000221561              -0.001243372               0.999999985               0.000181915              -0.001223855               0.999999985               0.000166643              -0.001219591               0.999999985               0.000161532              -0.001226839               0.999999985               0.000159259              -0.001241670               0.999999985               0.000155978              -0.001260834               0.999999985               0.000149821              -0.001282027               0.999999985               0.000139763              -0.001303465               0.999999985               0.000124727              -0.001323838               0.999999985               0.000104072              -0.001342289               0.999999985               0.000077679              -0.001358351               0.999999985               0.000044998              -0.001371959               0.999999985               0.000005473              -0.001383008               0.999999985              -0.000041307              -0.001391810               0.999999985              -0.000095702              -0.001398600               0.999999985              -0.000157580              -0.001404141               0.999999985               0.000241532              -0.001327752               0.999999985               0.000163970              -0.001319776               0.999999985               0.000129871              -0.001312182               0.999999985               0.000115436              -0.001313351               0.999999985               0.000109881              -0.001323469               0.999999985               0.000107387              -0.001340576               0.999999985               0.000104644              -0.001362436               0.999999985               0.000100170              -0.001387130               0.999999985               0.000092943              -0.001413154               0.999999985               0.000081898              -0.001439285               0.999999985               0.000066214              -0.001464574               0.999999985               0.000045606              -0.001488412               0.999999985               0.000019490              -0.001510528               0.999999985              -0.000012818              -0.001530596               0.999999985              -0.000052519              -0.001548491               0.999999985              -0.000100835              -0.001564224               0.999999985              -0.000158850              -0.001578086               0.999999985               0.000162237              -0.001364780               0.999999985               0.000108276              -0.001377234               0.999999985               0.000083249              -0.001380611               0.999999985               0.000071796              -0.001387604               0.999999985               0.000066945              -0.001401082               0.999999985               0.000064629              -0.001420741               0.999999985               0.000062545              -0.001445137               0.999999985               0.000059637              -0.001472888               0.999999985               0.000054870              -0.001502861               0.999999985               0.000047517              -0.001533929               0.999999985               0.000037057              -0.001565119               0.999999985               0.000023083              -0.001595878               0.999999985               0.000004903              -0.001625729               0.999999985              -0.000018201              -0.001654227               0.999999985              -0.000047576              -0.001680830               0.999999985              -0.000084789              -0.001705230               0.999999985              -0.000131679              -0.001727215               0.999999985               0.000081500              -0.001387329               0.999999985               0.000053844              -0.001412939               0.999999985               0.000040596              -0.001424053               0.999999985               0.000034210              -0.001435567               0.999999985               0.000031349              -0.001451775               0.999999985               0.000029914              -0.001473393               0.999999985               0.000028813              -0.001499584               0.999999985               0.000027309              -0.001529402               0.999999985               0.000024865              -0.001561993               0.999999985               0.000021290              -0.001596362               0.999999985               0.000016130              -0.001631723               0.999999985               0.000009138              -0.001667484               0.999999985              -0.000000171              -0.001703067               0.999999985              -0.000012386              -0.001737910               0.999999985              -0.000028092              -0.001771401               0.999999985              -0.000048537              -0.001802845               0.999999985              -0.000075432              -0.001831261               0.999999985               0.000000000              -0.001394884               0.999999985               0.000000000              -0.001425061               0.999999985              -0.000000000              -0.001438965               0.999999985               0.000000000              -0.001452180               0.999999985              -0.000000000              -0.001469564               0.999999985               0.000000000              -0.001491923               0.999999985              -0.000000000              -0.001518660               0.999999985              -0.000000000              -0.001549184               0.999999985              -0.000000000              -0.001582563               0.999999985              -0.000000000              -0.001618059               0.999999985              -0.000000000              -0.001654980               0.999999985              -0.000000000              -0.001692540               0.999999985               0.000000000              -0.001730288               0.999999985              -0.000000000              -0.001767705               0.999999985               0.000000000              -0.001803995               0.999999985               0.000000000              -0.001838305               0.999999985               0.000000000              -0.001869366               0.999999985               0.000872891              -0.000000000               0.999999985               0.000923410              -0.000000000               0.999999985               0.000944632              -0.000000000               0.999999985               0.000956503              -0.000000000               0.999999985               0.000966376              -0.000000000               0.999999985               0.000976803               0.000000000               0.999999985               0.000988712              -0.000000000               0.999999985               0.001001796              -0.000000000               0.999999985               0.001015761              -0.000000000               0.999999985               0.001030210               0.000000000               0.999999985               0.001044609               0.000000000               0.999999985               0.001058623               0.000000000               0.999999985               0.001071796               0.000000000               0.999999985               0.001083740               0.000000000               0.999999985               0.001094047              -0.000000000               0.999999985               0.001102072               0.000000000               0.999999985               0.001106937               0.000000000               0.999999985               0.000867941               0.000132267               0.999999985               0.000914206               0.000105365               0.999999985               0.000932832               0.000093172               0.999999985               0.000943017               0.000088487               0.999999985               0.000951663               0.000087474               0.999999985               0.000961164               0.000088222               0.999999985               0.000971956               0.000089436               0.999999985               0.000983972               0.000090396               0.999999985               0.000996828               0.000090672               0.999999985               0.001009891               0.000089820               0.999999985               0.001022742               0.000087642               0.999999985               0.001035024               0.000083935               0.999999985               0.001046284               0.000078287               0.999999985               0.001056078               0.000070326               0.999999985               0.001064017               0.000059499               0.999999985               0.001069593               0.000044824               0.999999985               0.001072215               0.000024778               0.999999985               0.000853304               0.000263297               0.999999985               0.000887317               0.000210290               0.999999985               0.000898442               0.000187294               0.999999985               0.000903979               0.000178890               0.999999985               0.000909479               0.000177680               0.999999985               0.000916395               0.000179632               0.999999985               0.000924715               0.000182342               0.999999985               0.000934072               0.000184505               0.999999985               0.000943663               0.000184985               0.999999985               0.000952939               0.000183420               0.999999985               0.000961548               0.000179354               0.999999985               0.000969052               0.000172486               0.999999985               0.000975158               0.000161988               0.999999985               0.000979508               0.000147180               0.999999985               0.000981615               0.000127583               0.999999985               0.000981184               0.000101688               0.999999985               0.000978046               0.000067935               0.999999985               0.000829370               0.000391924               0.999999985               0.000844169               0.000314550               0.999999985               0.000844405               0.000283039               0.999999985               0.000843682               0.000272838               0.999999985               0.000845185               0.000272604               0.999999985               0.000848842               0.000276478               0.999999985               0.000853961               0.000281015               0.999999985               0.000859473               0.000284321               0.999999985               0.000864574               0.000285139               0.999999985               0.000868748               0.000282955               0.999999985               0.000871576               0.000277413               0.999999985               0.000872686               0.000268031               0.999999985               0.000871686               0.000253858               0.999999985               0.000868317               0.000234314               0.999999985               0.000862325               0.000208878               0.999999985               0.000853749               0.000176459               0.999999985               0.000842770               0.000136405               0.999999985               0.000796689               0.000516982               0.999999985               0.000786871               0.000418140               0.999999985               0.000775035               0.000381044               0.999999985               0.000768160               0.000370972               0.999999985               0.000765851               0.000372903               0.999999985               0.000766475               0.000379134               0.999999985               0.000768145               0.000385734               0.999999985               0.000769565               0.000390071               0.999999985               0.000769758               0.000391195               0.999999985               0.000768098               0.000388612               0.999999985               0.000764250               0.000381979               0.999999985               0.000757851               0.000370746               0.999999985               0.000748562               0.000354033               0.999999985               0.000736293               0.000331390               0.999999985               0.000721085               0.000302684               0.999999985               0.000703173               0.000267707               0.999999985               0.000683135               0.000226840               0.999999985               0.000755705               0.000637466               0.999999985               0.000718326               0.000521145               0.999999985               0.000695283               0.000481507               0.999999985               0.000683629               0.000473214               0.999999985               0.000678874               0.000477958               0.999999985               0.000677158               0.000486729               0.999999985               0.000675794               0.000495004               0.999999985               0.000673017               0.000500374               0.999999985               0.000667841               0.000501732               0.999999985               0.000659760               0.000498864               0.999999985               0.000648457               0.000491370               0.999999985               0.000633531               0.000478632               0.999999985               0.000614866               0.000460040               0.999999985               0.000592623               0.000435600               0.999999985               0.000567293               0.000405630               0.999999985               0.000539481               0.000370849               0.999999985               0.000510062               0.000332374               0.999999985               0.000707237               0.000752239               0.999999985               0.000641910               0.000623659               0.999999985               0.000610299               0.000583990               0.999999985               0.000596397               0.000578387               0.999999985               0.000590755               0.000586041               0.999999985               0.000587482               0.000597094               0.999999985               0.000583294               0.000606849               0.999999985               0.000576150               0.000612735               0.999999985               0.000565195               0.000614272               0.999999985               0.000549956               0.000610927               0.999999985               0.000530179               0.000602414               0.999999985               0.000505818               0.000588166               0.999999985               0.000477057               0.000568000               0.999999985               0.000444461               0.000542524               0.999999985               0.000408865               0.000512759               0.999999985               0.000371199               0.000479733               0.999999985               0.000332445               0.000444800               0.999999985               0.000652450               0.000859957               0.999999985               0.000561290               0.000725409               0.999999985               0.000524913               0.000687519               0.999999985               0.000511620               0.000684628               0.999999985               0.000506469               0.000694758               0.999999985               0.000502240               0.000707666               0.999999985               0.000495023               0.000718400               0.999999985               0.000482946               0.000724739               0.999999985               0.000465324               0.000726124               0.999999985               0.000441916               0.000721903               0.999999985               0.000412760               0.000711991               0.999999985               0.000378144               0.000696148               0.999999985               0.000338711               0.000674670               0.999999985               0.000295293               0.000649032               0.999999985               0.000249057               0.000620466               0.999999985               0.000201228               0.000590030               0.999999985               0.000152626               0.000558731               0.999999985               0.000592987               0.000958758               0.999999985               0.000479257               0.000826249               0.999999985               0.000443558               0.000790470               0.999999985               0.000432992               0.000789740               0.999999985               0.000429242               0.000801710               0.999999985               0.000423860               0.000816006               0.999999985               0.000412927               0.000827452               0.999999985               0.000394979               0.000834055               0.999999985               0.000369706               0.000834775               0.999999985               0.000336952               0.000829330               0.999999985               0.000297310               0.000817625               0.999999985               0.000251373               0.000800238               0.999999985               0.000200006               0.000778508               0.999999985               0.000144843               0.000753929               0.999999985               0.000087534               0.000727793               0.999999985               0.000029198               0.000700954               0.999999985              -0.000029327               0.000674038               0.999999985               0.000531432               0.001052490               0.999999985               0.000410518               0.000939327               0.999999985               0.000372031               0.000899588               0.999999985               0.000360990               0.000893684               0.999999985               0.000357991               0.000902257               0.999999985               0.000354576               0.000915914               0.999999985               0.000346446               0.000929559               0.999999985               0.000332189               0.000940303               0.999999985               0.000311088               0.000946892               0.999999985               0.000283018               0.000948526               0.999999985               0.000248076               0.000945129               0.999999985               0.000206576               0.000937085               0.999999985               0.000158946               0.000924961               0.999999985               0.000106339               0.000909698               0.999999985               0.000050201               0.000892589               0.999999985              -0.000008263               0.000874622               0.999999985              -0.000067551               0.000856620               0.999999985               0.000464414               0.001138056               0.999999985               0.000344610               0.001048920               0.999999985               0.000303571               0.001011687               0.999999985               0.000291030               0.001003105               0.999999985               0.000287872               0.001009444               0.999999985               0.000285487               0.001022613               0.999999985               0.000279714               0.001037848               0.999999985               0.000268780               0.001052225               0.999999985               0.000251771               0.001064002               0.999999985               0.000228042               0.001072214               0.999999985               0.000197852               0.001076465               0.999999985               0.000161261               0.001076690               0.999999985               0.000118018               0.001073289               0.999999985               0.000068719               0.001066884               0.999999985               0.000014466               0.001058309               0.999999985              -0.000043549               0.001048593               0.999999985              -0.000103655               0.001038686               0.999999985               0.000393261               0.001213396               0.999999985               0.000281604               0.001151720               0.999999985               0.000239912               0.001121631               0.999999985               0.000225574               0.001113744               0.999999985               0.000221481               0.001119597               0.999999985               0.000219398               0.001133041               0.999999985               0.000215249               0.001149940               0.999999985               0.000207074               0.001167670               0.999999985               0.000193713               0.001184376               0.999999985               0.000174387               0.001198760               0.999999985               0.000148949               0.001210211               0.999999985               0.000117277               0.001218450               0.999999985               0.000079003               0.001223458               0.999999985               0.000033963               0.001225644               0.999999985              -0.000017313               0.001225485               0.999999985              -0.000074219               0.001223668               0.999999985              -0.000135674               0.001221356               0.999999985               0.000318747               0.001276995               0.999999985               0.000221561               0.001243372               0.999999985               0.000181915               0.001223855               0.999999985               0.000166643               0.001219591               0.999999985               0.000161532               0.001226839               0.999999985               0.000159259               0.001241670               0.999999985               0.000155978               0.001260834               0.999999985               0.000149821               0.001282027               0.999999985               0.000139763               0.001303465               0.999999985               0.000124727               0.001323838               0.999999985               0.000104072               0.001342289               0.999999985               0.000077679               0.001358351               0.999999985               0.000044998               0.001371959               0.999999985               0.000005473               0.001383008               0.999999985              -0.000041307               0.001391810               0.999999985              -0.000095702               0.001398600               0.999999985              -0.000157580               0.001404141               0.999999985               0.000241532               0.001327752               0.999999985               0.000163970               0.001319776               0.999999985               0.000129871               0.001312182               0.999999985               0.000115436               0.001313351               0.999999985               0.000109881               0.001323469               0.999999985               0.000107387               0.001340576               0.999999985               0.000104644               0.001362436               0.999999985               0.000100170               0.001387130               0.999999985               0.000092943               0.001413154               0.999999985               0.000081898               0.001439285               0.999999985               0.000066214               0.001464574               0.999999985               0.000045606               0.001488412               0.999999985               0.000019490               0.001510528               0.999999985              -0.000012818               0.001530596               0.999999985              -0.000052519               0.001548491               0.999999985              -0.000100835               0.001564224               0.999999985              -0.000158850               0.001578086               0.999999985               0.000162237               0.001364780               0.999999985               0.000108276               0.001377234               0.999999985               0.000083249               0.001380611               0.999999985               0.000071796               0.001387604               0.999999985               0.000066945               0.001401082               0.999999985               0.000064629               0.001420741               0.999999985               0.000062545               0.001445137               0.999999985               0.000059637               0.001472888               0.999999985               0.000054870               0.001502861               0.999999985               0.000047517               0.001533929               0.999999985               0.000037057               0.001565119               0.999999985               0.000023083               0.001595878               0.999999985               0.000004903               0.001625729               0.999999985              -0.000018201               0.001654227               0.999999985              -0.000047576               0.001680830               0.999999985              -0.000084789               0.001705230               0.999999985              -0.000131679               0.001727215               0.999999985               0.000081500               0.001387329               0.999999985               0.000053844               0.001412939               0.999999985               0.000040596               0.001424053               0.999999985               0.000034210               0.001435567               0.999999985               0.000031349               0.001451775               0.999999985               0.000029914               0.001473393               0.999999985               0.000028813               0.001499584               0.999999985               0.000027309               0.001529402               0.999999985               0.000024865               0.001561993               0.999999985               0.000021290               0.001596362               0.999999985               0.000016130               0.001631723               0.999999985               0.000009138               0.001667484               0.999999985              -0.000000171               0.001703067               0.999999985              -0.000012386               0.001737910               0.999999985              -0.000028092               0.001771401               0.999999985              -0.000048537               0.001802845               0.999999985              -0.000075432               0.001831261               0.999999985              -0.000000000               0.001394884               0.999999985               0.000000000               0.001425061               0.999999985               0.000000000               0.001438965               0.999999985               0.000000000               0.001452180               0.999999985               0.000000000               0.001469564               0.999999985              -0.000000000               0.001491923               0.999999985               0.000000000               0.001518660               0.999999985              -0.000000000               0.001549184               0.999999985               0.000000000               0.001582563               0.999999985              -0.000000000               0.001618059               0.999999985               0.000000000               0.001654980               0.999999985               0.000000000               0.001692540               0.999999985               0.000000000               0.001730288               0.999999985               0.000000000               0.001767705               0.999999985              -0.000000000               0.001803995               0.999999985              -0.000000000               0.001838305               0.999999985               0.000000000               0.001869366               0.999999985 </DataArray>
<DataArray type="Float64"                                    Name="stress"                                                      NumberOfComponents="10" format="ascii">
              0.002264232               0.024036148              -0.000000000              -0.002155426               0.008730444               0.006575018               0.000000000               0.000000000               0.000000000               0.000000000               0.002176824               0.018494764              -0.000000000              -0.001495533               0.006663371               0.005167838               0.000000000               0.000000000               0.000000000               0.000000000               0.002786274               0.014003394               0.000000000              -0.000705570               0.004902941               0.004197371               0.000000000               0.000000000               0.000000000               0.000000000               0.002556906               0.011488128               0.000000000              -0.000477175               0.003988396               0.003511221               0.000000000               0.000000000               0.000000000               0.000000000               0.002093980               0.009903766              -0.000000000              -0.000452727               0.003452131               0.002999404               0.000000000               0.000000000               0.000000000               0.000000000               0.001605290               0.008793791               0.000000000              -0.000497239               0.003096981               0.002599742               0.000000000               0.000000000               0.000000000               0.000000000               0.001169935               0.007933577               0.000000000              -0.000552970               0.002828822               0.002275852               0.000000000               0.000000000               0.000000000               0.000000000               0.000811919               0.007210476              -0.000000000              -0.000596839               0.002602414               0.002005576               0.000000000               0.000000000               0.000000000               0.000000000               0.000524488               0.006561122              -0.000000000              -0.000623456               0.002394837               0.001771382               0.000000000               0.000000000               0.000000000               0.000000000               0.000304203               0.005946857              -0.000000000              -0.000629280               0.002192026               0.001562746               0.000000000               0.000000000               0.000000000               0.000000000               0.000136085               0.005345574              -0.000000000              -0.000617163               0.001987561               0.001370398               0.000000000               0.000000000               0.000000000               0.000000000               0.000013260               0.004742412               0.000000000              -0.000587828               0.001776731               0.001188903               0.000000000               0.000000000               0.000000000               0.000000000              -0.000066381               0.004120122               0.000000000              -0.000539907               0.001553329               0.001013422               0.000000000               0.000000000               0.000000000               0.000000000              -0.000111759               0.003461100               0.000000000              -0.000474546               0.001311871               0.000837325               0.000000000               0.000000000               0.000000000               0.000000000              -0.000117420               0.002746998               0.000000000              -0.000387406               0.001044792               0.000657386               0.000000000               0.000000000               0.000000000               0.000000000              -0.000071012               0.001947692               0.000000000              -0.000270090               0.000739254               0.000469164               0.000000000               0.000000000               0.000000000               0.000000000              -0.000100932               0.001330993               0.000000000              -0.000204223               0.000511734               0.000307511               0.000000000               0.000000000               0.000000000               0.000000000               0.002329784               0.023519233              -0.001591516              -0.002066230               0.008528409               0.006462179               0.000000000               0.000000000               0.000000000               0.000000000               0.002108119               0.018166224              -0.000721513              -0.001480230               0.006548757               0.005068527               0.000000000               0.000000000               0.000000000               0.000000000               0.002577857               0.013875015               0.000138370              -0.000767679               0.004880852               0.004113173               0.000000000               0.000000000               0.000000000               0.000000000               0.002300454               0.011458919               0.000492335              -0.000569693               0.004009499               0.003439806               0.000000000               0.000000000               0.000000000               0.000000000               0.001831324               0.009926613               0.000627450              -0.000554079               0.003493531               0.002939452               0.000000000               0.000000000               0.000000000               0.000000000               0.001362458               0.008842540               0.000664573              -0.000594395               0.003145615               0.002551221               0.000000000               0.000000000               0.000000000               0.000000000               0.000953090               0.007994459               0.000658658              -0.000641897               0.002878759               0.002236862               0.000000000               0.000000000               0.000000000               0.000000000               0.000616619               0.007275321               0.000633871              -0.000678182               0.002651143               0.001972962               0.000000000               0.000000000               0.000000000               0.000000000               0.000356141               0.006624993               0.000602776              -0.000694570               0.002439832               0.001745262               0.000000000               0.000000000               0.000000000               0.000000000               0.000161814               0.006014470               0.000570967              -0.000691127               0.002235179               0.001544052               0.000000000               0.000000000               0.000000000               0.000000000               0.000015763               0.005421799               0.000539193              -0.000671812               0.002031186               0.001359373               0.000000000               0.000000000               0.000000000               0.000000000              -0.000085738               0.004833688               0.000501767              -0.000636361               0.001823334               0.001186972               0.000000000               0.000000000               0.000000000               0.000000000              -0.000144367               0.004232569               0.000453534              -0.000583207               0.001605245               0.001022037               0.000000000               0.000000000               0.000000000               0.000000000              -0.000165097               0.003604960               0.000393000              -0.000512530               0.001372485               0.000859955               0.000000000               0.000000000               0.000000000               0.000000000              -0.000146260               0.002941793               0.000307718              -0.000422571               0.001121445               0.000698874               0.000000000               0.000000000               0.000000000               0.000000000              -0.000084392               0.002221902               0.000177355              -0.000309384               0.000843755               0.000534371               0.000000000               0.000000000               0.000000000               0.000000000              -0.000099994               0.001683538               0.000108727              -0.000247939               0.000643820               0.000395881               0.000000000               0.000000000               0.000000000               0.000000000               0.002478605               0.022045928              -0.002951175              -0.001826261               0.007957323               0.006131062               0.000000000               0.000000000               0.000000000               0.000000000               0.001898764               0.017240165              -0.001336105              -0.001442981               0.006227658               0.004784677               0.000000000               0.000000000               0.000000000               0.000000000               0.001987513               0.013511682               0.000246390              -0.000943641               0.004818396               0.003874755               0.000000000               0.000000000               0.000000000               0.000000000               0.001582949               0.011376118               0.000873999              -0.000828407               0.004068137               0.003239730               0.000000000               0.000000000               0.000000000               0.000000000               0.001110787               0.009983341               0.001101494              -0.000831371               0.003604870               0.002773500               0.000000000               0.000000000               0.000000000               0.000000000               0.000693816               0.008964002               0.001154214              -0.000860318               0.003274743               0.002414426               0.000000000               0.000000000               0.000000000               0.000000000               0.000355653               0.008141775               0.001131631              -0.000884350               0.003008681               0.002124331               0.000000000               0.000000000               0.000000000               0.000000000               0.000100634               0.007430768               0.001079143              -0.000891106               0.002773933               0.001882827               0.000000000               0.000000000               0.000000000               0.000000000              -0.000078414               0.006785359               0.001018936              -0.000877573               0.002554288               0.001676715               0.000000000               0.000000000               0.000000000               0.000000000              -0.000204233               0.006184226               0.000959170              -0.000849614               0.002344593               0.001494979               0.000000000               0.000000000               0.000000000               0.000000000              -0.000285769               0.005614496               0.000897915              -0.000808974               0.002141138               0.001332164               0.000000000               0.000000000               0.000000000               0.000000000              -0.000327331               0.005063050               0.000824576              -0.000755629               0.001939543               0.001183914               0.000000000               0.000000000               0.000000000               0.000000000              -0.000334551               0.004515801               0.000731043              -0.000689930               0.001735229               0.001045298               0.000000000               0.000000000               0.000000000               0.000000000              -0.000299850               0.003971844               0.000620420              -0.000608923               0.001526909               0.000917986               0.000000000               0.000000000               0.000000000               0.000000000              -0.000225466               0.003431787               0.000473140              -0.000513522               0.001315091               0.000801569               0.000000000               0.000000000               0.000000000               0.000000000              -0.000121990               0.002896013               0.000264429              -0.000407747               0.001101244               0.000693496               0.000000000               0.000000000               0.000000000               0.000000000              -0.000101340               0.002529622               0.000157172              -0.000354204               0.000961267               0.000607063               0.000000000               0.000000000               0.000000000               0.000000000               0.002599133               0.019819965              -0.003892386              -0.001502819               0.007107528               0.005604709               0.000000000               0.000000000               0.000000000               0.000000000               0.001523592               0.015865257              -0.001762725              -0.001411807               0.005758968               0.004347161               0.000000000               0.000000000               0.000000000               0.000000000               0.001087853               0.012975049               0.000291932              -0.001213933               0.004729618               0.003515684               0.000000000               0.000000000               0.000000000               0.000000000               0.000541001               0.011235172               0.001060257              -0.001201518               0.004145526               0.002944008               0.000000000               0.000000000               0.000000000               0.000000000               0.000094916               0.010026922               0.001318549              -0.001217769               0.003748197               0.002530428               0.000000000               0.000000000               0.000000000               0.000000000              -0.000226912               0.009087427               0.001362528              -0.001221018               0.003436118               0.002215100               0.000000000               0.000000000               0.000000000               0.000000000              -0.000441608               0.008298944               0.001318357              -0.001202968               0.003167276               0.001964308               0.000000000               0.000000000               0.000000000               0.000000000              -0.000570225               0.007596674               0.001242632              -0.001163416               0.002920005               0.001756588               0.000000000               0.000000000               0.000000000               0.000000000              -0.000636342               0.006962452               0.001159570              -0.001108932               0.002690438               0.001581506               0.000000000               0.000000000               0.000000000               0.000000000              -0.000661478               0.006381068               0.001079645              -0.001045685               0.002475563               0.001429878               0.000000000               0.000000000               0.000000000               0.000000000              -0.000650591               0.005844031               0.000998085              -0.000974473               0.002272815               0.001298342               0.000000000               0.000000000               0.000000000               0.000000000              -0.000603539               0.005340758               0.000899755              -0.000893920               0.002078208               0.001184288               0.000000000               0.000000000               0.000000000               0.000000000              -0.000526085               0.004865367               0.000779646              -0.000805451               0.001890256               0.001084805               0.000000000               0.000000000               0.000000000               0.000000000              -0.000418714               0.004421251               0.000642301              -0.000709672               0.001710293               0.001000620               0.000000000               0.000000000               0.000000000               0.000000000              -0.000288496               0.004014711               0.000470867              -0.000610023               0.001541565               0.000931541               0.000000000               0.000000000               0.000000000               0.000000000              -0.000147888               0.003665904               0.000252900              -0.000513695               0.001393188               0.000879493               0.000000000               0.000000000               0.000000000               0.000000000              -0.000096470               0.003460662               0.000144112              -0.000468758               0.001309795               0.000841037               0.000000000               0.000000000               0.000000000               0.000000000               0.002545510               0.017117999              -0.004322941              -0.001185184               0.006101003               0.004915819               0.000000000               0.000000000               0.000000000               0.000000000               0.000955510               0.014227903              -0.001979505              -0.001420169               0.005215976               0.003795807               0.000000000               0.000000000               0.000000000               0.000000000              -0.000021163               0.012336485               0.000242030              -0.001549993               0.004628785               0.003078792               0.000000000               0.000000000               0.000000000               0.000000000              -0.000648792               0.011026600               0.001016576              -0.001621618               0.004216036               0.002594418               0.000000000               0.000000000               0.000000000               0.000000000              -0.001007558               0.010004434               0.001251460              -0.001628385               0.003877573               0.002249188               0.000000000               0.000000000               0.000000000               0.000000000              -0.001182552               0.009141147               0.001274774              -0.001586097               0.003575717               0.001989621               0.000000000               0.000000000               0.000000000               0.000000000              -0.001236810               0.008381938               0.001214798              -0.001511542               0.003297799               0.001786256               0.000000000               0.000000000               0.000000000               0.000000000              -0.001217084               0.007699339               0.001127239              -0.001418821               0.003039361               0.001620540               0.000000000               0.000000000               0.000000000               0.000000000              -0.001150073               0.007086945               0.001041637              -0.001317143               0.002801339               0.001484196               0.000000000               0.000000000               0.000000000               0.000000000              -0.001056518               0.006537030               0.000961280              -0.001213320               0.002583428               0.001370108               0.000000000               0.000000000               0.000000000               0.000000000              -0.000940922               0.006038006               0.000877931              -0.001107594               0.002381846               0.001274252               0.000000000               0.000000000               0.000000000               0.000000000              -0.000800373               0.005581586               0.000777504              -0.000997836               0.002193122               0.001195286               0.000000000               0.000000000               0.000000000               0.000000000              -0.000642172               0.005168846               0.000656497              -0.000886918               0.002018571               0.001131652               0.000000000               0.000000000               0.000000000               0.000000000              -0.000475621               0.004806998               0.000521322              -0.000779231               0.001862060               0.001082829               0.000000000               0.000000000               0.000000000               0.000000000              -0.000305384               0.004510103               0.000365907              -0.000678280               0.001729446               0.001051166               0.000000000               0.000000000               0.000000000               0.000000000              -0.000144626               0.004301268               0.000189673              -0.000591892               0.001631039               0.001039147               0.000000000               0.000000000               0.000000000               0.000000000              -0.000078806               0.004204356               0.000104165              -0.000555095               0.001586470               0.001031374               0.000000000               0.000000000               0.000000000               0.000000000               0.002176444               0.014215395              -0.004261407              -0.000960759               0.005058670               0.004097911               0.000000000               0.000000000               0.000000000               0.000000000               0.000195812               0.012504036              -0.002021231              -0.001489573               0.004664494               0.003174921               0.000000000               0.000000000               0.000000000               0.000000000              -0.001206042               0.011642072               0.000072436              -0.001907520               0.004516492               0.002608972               0.000000000               0.000000000               0.000000000               0.000000000              -0.001808338               0.010731993               0.000748998              -0.002019621               0.004250502               0.002230881               0.000000000               0.000000000               0.000000000               0.000000000              -0.002007845               0.009871528               0.000936562              -0.001986878               0.003952769               0.001965891               0.000000000               0.000000000               0.000000000               0.000000000              -0.001994540               0.009077014               0.000944874              -0.001882575               0.003653166               0.001770591               0.000000000               0.000000000               0.000000000               0.000000000              -0.001867294               0.008350841               0.000888718              -0.001744086               0.003364948               0.001620862               0.000000000               0.000000000               0.000000000               0.000000000              -0.001687323               0.007695914               0.000816747              -0.001594731               0.003096856               0.001502125               0.000000000               0.000000000               0.000000000               0.000000000              -0.001486981               0.007115534               0.000750822              -0.001447056               0.002854173               0.001407117               0.000000000               0.000000000               0.000000000               0.000000000              -0.001282747               0.006596138               0.000691584              -0.001305544               0.002633872               0.001328328               0.000000000               0.000000000               0.000000000               0.000000000              -0.001071795               0.006127998               0.000626465              -0.001167920               0.002431952               0.001264032               0.000000000               0.000000000               0.000000000               0.000000000              -0.000851933               0.005706837               0.000543677              -0.001032827               0.002246535               0.001213708               0.000000000               0.000000000               0.000000000               0.000000000              -0.000634389               0.005340560               0.000445037              -0.000905464               0.002081990               0.001176526               0.000000000               0.000000000               0.000000000               0.000000000              -0.000433172               0.005042364               0.000337839              -0.000792733               0.001945016               0.001152283               0.000000000               0.000000000               0.000000000               0.000000000              -0.000254891               0.004825705               0.000223716              -0.000698795               0.001841484               0.001142689               0.000000000               0.000000000               0.000000000               0.000000000              -0.000109892               0.004699421               0.000109644              -0.000628635               0.001776003               0.001147368               0.000000000               0.000000000               0.000000000               0.000000000              -0.000052101               0.004655484               0.000056650              -0.000601472               0.001752303               0.001150831               0.000000000               0.000000000               0.000000000               0.000000000               0.001439161               0.011346362              -0.003800114              -0.000878611               0.004074952               0.003196341               0.000000000               0.000000000               0.000000000               0.000000000              -0.000707474               0.010826421              -0.001949917              -0.001618602               0.004148305               0.002529702               0.000000000               0.000000000               0.000000000               0.000000000              -0.002336228               0.010909060              -0.000227684              -0.002239713               0.004382888               0.002143175               0.000000000               0.000000000               0.000000000               0.000000000              -0.002785687               0.010328185               0.000301379              -0.002335650               0.004221244               0.001885594               0.000000000               0.000000000               0.000000000               0.000000000              -0.002764997               0.009601075               0.000454421              -0.002237003               0.003945994               0.001708991               0.000000000               0.000000000               0.000000000               0.000000000              -0.002542560               0.008873680               0.000472894              -0.002062665               0.003645419               0.001582754               0.000000000               0.000000000               0.000000000               0.000000000              -0.002239121               0.008191332               0.000445640              -0.001863582               0.003351611               0.001488028               0.000000000               0.000000000               0.000000000               0.000000000              -0.001914611               0.007574937               0.000412996              -0.001664842               0.003079901               0.001415059               0.000000000               0.000000000               0.000000000               0.000000000              -0.001600268               0.007028181               0.000386741              -0.001478620               0.002835577               0.001356957               0.000000000               0.000000000               0.000000000               0.000000000              -0.001304702               0.006531892               0.000362910              -0.001305746               0.002612524               0.001306778               0.000000000               0.000000000               0.000000000               0.000000000              -0.001025394               0.006083296               0.000329907              -0.001144932               0.002409389               0.001264457               0.000000000               0.000000000               0.000000000               0.000000000              -0.000760722               0.005687441               0.000277328              -0.000996198               0.002227861               0.001231662               0.000000000               0.000000000               0.000000000               0.000000000              -0.000518711               0.005359007               0.000214899              -0.000864390               0.002074448               0.001210058               0.000000000               0.000000000               0.000000000               0.000000000              -0.000314697               0.005113522               0.000152610              -0.000757200               0.001956890               0.001199691               0.000000000               0.000000000               0.000000000               0.000000000              -0.000159468               0.004952405               0.000091232              -0.000678849               0.001877068               0.001198219               0.000000000               0.000000000               0.000000000               0.000000000              -0.000057831               0.004865181               0.000037914              -0.000629833               0.001831655               0.001201822               0.000000000               0.000000000               0.000000000               0.000000000              -0.000025516               0.004834781               0.000017412              -0.000613915               0.001816216               0.001202301               0.000000000               0.000000000               0.000000000               0.000000000               0.000375225               0.008701189              -0.003049675              -0.000946939               0.003216013               0.002269073               0.000000000               0.000000000               0.000000000               0.000000000              -0.001695872               0.009292224              -0.001820013              -0.001797476               0.003696535               0.001899059               0.000000000               0.000000000               0.000000000               0.000000000              -0.003296281               0.010139286              -0.000644666              -0.002503510               0.004214232               0.001710722               0.000000000               0.000000000               0.000000000               0.000000000              -0.003484324               0.009810457              -0.000252399              -0.002532922               0.004114427               0.001581505               0.000000000               0.000000000               0.000000000               0.000000000              -0.003215091               0.009200041              -0.000097663              -0.002355658               0.003851869               0.001496211               0.000000000               0.000000000               0.000000000               0.000000000              -0.002792843               0.008544512              -0.000037064              -0.002115375               0.003553267               0.001437892               0.000000000               0.000000000               0.000000000               0.000000000              -0.002337434               0.007917402              -0.000009303              -0.001866208               0.003261177               0.001394969               0.000000000               0.000000000               0.000000000               0.000000000              -0.001900477               0.007350552               0.000011172              -0.001631494               0.002993991               0.001362497               0.000000000               0.000000000               0.000000000               0.000000000              -0.001505580               0.006829743               0.000032469              -0.001418307               0.002749327               0.001331020               0.000000000               0.000000000               0.000000000               0.000000000              -0.001155885               0.006350005               0.000050208              -0.001227205               0.002525715               0.001298511               0.000000000               0.000000000               0.000000000               0.000000000              -0.000845067               0.005916491               0.000057191              -0.001056459               0.002324297               0.001267838               0.000000000               0.000000000               0.000000000               0.000000000              -0.000570802               0.005550425               0.000047109              -0.000907852               0.002152740               0.001244889               0.000000000               0.000000000               0.000000000               0.000000000              -0.000341103               0.005274005               0.000033756              -0.000787162               0.002020372               0.001233209               0.000000000               0.000000000               0.000000000               0.000000000              -0.000168495               0.005087326               0.000024060              -0.000699100               0.001928791               0.001229692               0.000000000               0.000000000               0.000000000               0.000000000              -0.000061365               0.004974367               0.000012303              -0.000644806               0.001873041               0.001228235               0.000000000               0.000000000               0.000000000               0.000000000              -0.000010875               0.004916997               0.000002886              -0.000618701               0.001845216               0.001226515               0.000000000               0.000000000               0.000000000               0.000000000              -0.000001679               0.004897406               0.000001887              -0.000612804               0.001836720               0.001223916               0.000000000               0.000000000               0.000000000               0.000000000              -0.000887859               0.006477106              -0.002139888              -0.001142584               0.002539874               0.001397291               0.000000000               0.000000000               0.000000000               0.000000000              -0.002660833               0.007919037              -0.001679303              -0.001987688               0.003302215               0.001314527               0.000000000               0.000000000               0.000000000               0.000000000              -0.004043619               0.009356452              -0.001144357              -0.002685907               0.004014088               0.001328181               0.000000000               0.000000000               0.000000000               0.000000000              -0.003952371               0.009293494              -0.000842711              -0.002643819               0.003979073               0.001335254               0.000000000               0.000000000               0.000000000               0.000000000              -0.003473394               0.008832007              -0.000653516              -0.002406517               0.003746145               0.001339628               0.000000000               0.000000000               0.000000000               0.000000000              -0.002895575               0.008270487              -0.000525561              -0.002119646               0.003463350               0.001343704               0.000000000               0.000000000               0.000000000               0.000000000              -0.002328422               0.007713539              -0.000432056              -0.001837346               0.003183603               0.001346257               0.000000000               0.000000000               0.000000000               0.000000000              -0.001811990               0.007189290              -0.000358294              -0.001578154               0.002922457               0.001344304               0.000000000               0.000000000               0.000000000               0.000000000              -0.001358548               0.006693106              -0.000292260              -0.001346090               0.002679710               0.001333619               0.000000000               0.000000000               0.000000000               0.000000000              -0.000970751               0.006226695              -0.000232810              -0.001142366               0.002456333               0.001313967               0.000000000               0.000000000               0.000000000               0.000000000              -0.000646594               0.005806604              -0.000180959              -0.000968296               0.002258281               0.001289985               0.000000000               0.000000000               0.000000000               0.000000000              -0.000374585               0.005470989              -0.000133312              -0.000824341               0.002098425               0.001274084               0.000000000               0.000000000               0.000000000               0.000000000              -0.000168830               0.005232790              -0.000088209              -0.000717408               0.001983382               0.001265974               0.000000000               0.000000000               0.000000000               0.000000000              -0.000041044               0.005077926              -0.000049987              -0.000650130               0.001909335               0.001259205               0.000000000               0.000000000               0.000000000               0.000000000               0.000019411               0.004991335              -0.000021968              -0.000616636               0.001869307               0.001252671               0.000000000               0.000000000               0.000000000               0.000000000               0.000030826               0.004957111              -0.000004176              -0.000608078               0.001855046               0.001246969               0.000000000               0.000000000               0.000000000               0.000000000               0.000025026               0.004952807               0.000002073              -0.000609714               0.001854157               0.001244443               0.000000000               0.000000000               0.000000000               0.000000000              -0.002347108               0.004416213              -0.001192027              -0.001432189               0.001949452               0.000517263               0.000000000               0.000000000               0.000000000               0.000000000              -0.003465905               0.006318999              -0.001528582              -0.002089585               0.002802840               0.000713255               0.000000000               0.000000000               0.000000000               0.000000000              -0.004482928               0.008181826              -0.001669199              -0.002703820               0.003628521               0.000924701               0.000000000               0.000000000               0.000000000               0.000000000              -0.004244296               0.008523217              -0.001463458              -0.002657007               0.003726713               0.001069706               0.000000000               0.000000000               0.000000000               0.000000000              -0.003685871               0.008348288              -0.001239732              -0.002425732               0.003591312               0.001165580               0.000000000               0.000000000               0.000000000               0.000000000              -0.003058885               0.007993677              -0.001042095              -0.002146286               0.003379961               0.001233675               0.000000000               0.000000000               0.000000000               0.000000000              -0.002452571               0.007577871              -0.000882609              -0.001866944               0.003148246               0.001281303               0.000000000               0.000000000               0.000000000               0.000000000              -0.001901110               0.007146377              -0.000755069              -0.001606209               0.002917505               0.001311295               0.000000000               0.000000000               0.000000000               0.000000000              -0.001418096               0.006715267              -0.000642364              -0.001371191               0.002695463               0.001324272               0.000000000               0.000000000               0.000000000               0.000000000              -0.001007501               0.006294206              -0.000538326              -0.001164586               0.002486243               0.001321657               0.000000000               0.000000000               0.000000000               0.000000000              -0.000658646               0.005913946              -0.000440562              -0.000986233               0.002300040               0.001313807               0.000000000               0.000000000               0.000000000               0.000000000              -0.000368499               0.005592390              -0.000340783              -0.000837234               0.002143189               0.001305955               0.000000000               0.000000000               0.000000000               0.000000000              -0.000148837               0.005335494              -0.000241141              -0.000722749               0.002019397               0.001296648               0.000000000               0.000000000               0.000000000               0.000000000              -0.000004697               0.005154386              -0.000152511              -0.000646058               0.001933464               0.001287406               0.000000000               0.000000000               0.000000000               0.000000000               0.000069536               0.005047010              -0.000076395              -0.000604799               0.001883919               0.001279121               0.000000000               0.000000000               0.000000000               0.000000000               0.000090341               0.005004997              -0.000022565              -0.000591745               0.001865564               0.001273819               0.000000000               0.000000000               0.000000000               0.000000000               0.000085104               0.004998099              -0.000002310              -0.000592847               0.001863632               0.001270785               0.000000000               0.000000000               0.000000000               0.000000000              -0.004192701               0.002555764              -0.000277042              -0.001891730               0.001482488              -0.000409242               0.000000000               0.000000000               0.000000000               0.000000000              -0.004366004               0.004704000              -0.001315511              -0.002225246               0.002309732               0.000084486               0.000000000               0.000000000               0.000000000               0.000000000              -0.004826249               0.006791708              -0.002090779              -0.002658801               0.003150146               0.000491346               0.000000000               0.000000000               0.000000000               0.000000000              -0.004465503               0.007516938              -0.002047379              -0.002614175               0.003377012               0.000762837               0.000000000               0.000000000               0.000000000               0.000000000              -0.003870507               0.007670482              -0.001828924              -0.002410245               0.003360216               0.000949972               0.000000000               0.000000000               0.000000000               0.000000000              -0.003229472               0.007563395              -0.001590159              -0.002156471               0.003239930               0.001083459               0.000000000               0.000000000               0.000000000               0.000000000              -0.002606128               0.007330379              -0.001379078              -0.001893591               0.003074632               0.001181041               0.000000000               0.000000000               0.000000000               0.000000000              -0.002031501               0.007036284              -0.001203042              -0.001641344               0.002892519               0.001251175               0.000000000               0.000000000               0.000000000               0.000000000              -0.001517932               0.006708502              -0.001045642              -0.001407784               0.002705406               0.001297622               0.000000000               0.000000000               0.000000000               0.000000000              -0.001072511               0.006368310              -0.000902208              -0.001198227               0.002522158               0.001323930               0.000000000               0.000000000               0.000000000               0.000000000              -0.000688951               0.006037144              -0.000769688              -0.001012997               0.002350027               0.001337030               0.000000000               0.000000000               0.000000000               0.000000000              -0.000361445               0.005732507              -0.000629471              -0.000852103               0.002194851               0.001342748               0.000000000               0.000000000               0.000000000               0.000000000              -0.000095701               0.005471838              -0.000480233              -0.000719866               0.002063883               0.001344017               0.000000000               0.000000000               0.000000000               0.000000000               0.000093860               0.005264933              -0.000335921              -0.000622917               0.001962599               0.001339682               0.000000000               0.000000000               0.000000000               0.000000000               0.000203267               0.005117427              -0.000200526              -0.000563452               0.001893609               0.001330157               0.000000000               0.000000000               0.000000000               0.000000000               0.000238049               0.005036241              -0.000084592              -0.000540260               0.001858817               0.001318557               0.000000000               0.000000000               0.000000000               0.000000000               0.000223313               0.005004104              -0.000029523              -0.000541769               0.001848608               0.001306838               0.000000000               0.000000000               0.000000000               0.000000000              -0.006302723               0.001037861               0.000520908              -0.002493251               0.001177029              -0.001316222               0.000000000               0.000000000               0.000000000               0.000000000              -0.005409682               0.003174913              -0.001023770              -0.002425490               0.001866788              -0.000558702               0.000000000               0.000000000               0.000000000               0.000000000              -0.005104755               0.005202303              -0.002293572              -0.002564565               0.002588938               0.000024372               0.000000000               0.000000000               0.000000000               0.000000000              -0.004532650               0.006195773              -0.002449747              -0.002474210               0.002889973               0.000415763               0.000000000               0.000000000               0.000000000               0.000000000              -0.003885666               0.006649022              -0.002291306              -0.002288247               0.002979067               0.000690819               0.000000000               0.000000000               0.000000000               0.000000000              -0.003237692               0.006802605              -0.002055825              -0.002064456               0.002955664               0.000891208               0.000000000               0.000000000               0.000000000               0.000000000              -0.002620139               0.006786850              -0.001824229              -0.001830905               0.002872562               0.001041657               0.000000000               0.000000000               0.000000000               0.000000000              -0.002044134               0.006670839              -0.001619161              -0.001600402               0.002757058               0.001156656               0.000000000               0.000000000               0.000000000               0.000000000              -0.001513364               0.006484605              -0.001434488              -0.001378084               0.002620874               0.001242790               0.000000000               0.000000000               0.000000000               0.000000000              -0.001034676               0.006256076              -0.001265056              -0.001170010               0.002475341               0.001305331               0.000000000               0.000000000               0.000000000               0.000000000              -0.000617168               0.006008484              -0.001105834              -0.000982496               0.002330307               0.001347810               0.000000000               0.000000000               0.000000000               0.000000000              -0.000252691               0.005762343              -0.000941690              -0.000815050               0.002192445               0.001377395               0.000000000               0.000000000               0.000000000               0.000000000               0.000063731               0.005539383              -0.000763448              -0.000668522               0.002069283               0.001400761               0.000000000               0.000000000               0.000000000               0.000000000               0.000315435               0.005346682              -0.000576551              -0.000550046               0.001965558               0.001415512               0.000000000               0.000000000               0.000000000               0.000000000               0.000479713               0.005184533              -0.000383499              -0.000468173               0.001884218               0.001416045               0.000000000               0.000000000               0.000000000               0.000000000               0.000543841               0.005071917              -0.000186942              -0.000430048               0.001833971               0.001403923               0.000000000               0.000000000               0.000000000               0.000000000               0.000530858               0.005021072              -0.000083991              -0.000428561               0.001816528               0.001387966               0.000000000               0.000000000               0.000000000               0.000000000              -0.008526381              -0.000054494               0.001084996              -0.003190578               0.001045354              -0.002145224               0.000000000               0.000000000               0.000000000               0.000000000              -0.006538435               0.001818630              -0.000698256              -0.002679238               0.001499279              -0.001179959               0.000000000               0.000000000               0.000000000               0.000000000              -0.005343310               0.003549081              -0.002245837              -0.002447372               0.001998803              -0.000448569               0.000000000               0.000000000               0.000000000               0.000000000              -0.004469326               0.004665151              -0.002576970              -0.002259137               0.002308079               0.000048943               0.000000000               0.000000000               0.000000000               0.000000000              -0.003733385               0.005353632              -0.002506739              -0.002069219               0.002474265               0.000405046               0.000000000               0.000000000               0.000000000               0.000000000              -0.003072469               0.005753239              -0.002308720              -0.001871327               0.002541502               0.000670175               0.000000000               0.000000000               0.000000000               0.000000000              -0.002467645               0.005959720              -0.002089770              -0.001670328               0.002543329               0.000873001               0.000000000               0.000000000               0.000000000               0.000000000              -0.001903624               0.006035136              -0.001888115              -0.001468248               0.002501107               0.001032859               0.000000000               0.000000000               0.000000000               0.000000000              -0.001372298               0.006014122              -0.001702679              -0.001266374               0.002426812               0.001160437               0.000000000               0.000000000               0.000000000               0.000000000              -0.000876707               0.005926101              -0.001525869              -0.001069526               0.002331855               0.001262330               0.000000000               0.000000000               0.000000000               0.000000000              -0.000425746               0.005795343              -0.001359000              -0.000884071               0.002226452               0.001342381               0.000000000               0.000000000               0.000000000               0.000000000              -0.000012075               0.005651356              -0.001192228              -0.000710947               0.002120749               0.001409802               0.000000000               0.000000000               0.000000000               0.000000000               0.000367384               0.005506805              -0.001010133              -0.000550581               0.002019110               0.001468529               0.000000000               0.000000000               0.000000000               0.000000000               0.000702202               0.005366901              -0.000804880              -0.000407536               0.001924794               0.001517258               0.000000000               0.000000000               0.000000000               0.000000000               0.000961992               0.005230710              -0.000567605              -0.000293091               0.001841250               0.001548159               0.000000000               0.000000000               0.000000000               0.000000000               0.001119284               0.005109095              -0.000296837              -0.000218905               0.001775983               0.001557078               0.000000000               0.000000000               0.000000000               0.000000000               0.001167042               0.005053358              -0.000153576              -0.000194029               0.001749112               0.001555083               0.000000000               0.000000000               0.000000000               0.000000000              -0.010652912              -0.000733125               0.001311274              -0.003903199               0.001056684              -0.002846515               0.000000000               0.000000000               0.000000000               0.000000000              -0.007651965               0.000716577              -0.000403420              -0.002959056               0.001225203              -0.001733854               0.000000000               0.000000000               0.000000000               0.000000000              -0.005550365               0.001996973              -0.001949412              -0.002331005               0.001442649              -0.000888356               0.000000000               0.000000000               0.000000000               0.000000000              -0.004323489               0.003105463              -0.002370544              -0.002009488               0.001704971              -0.000304517               0.000000000               0.000000000               0.000000000               0.000000000              -0.003465296               0.003946244              -0.002379994              -0.001792763               0.001912988               0.000120225               0.000000000               0.000000000               0.000000000               0.000000000              -0.002777347               0.004543026              -0.002238175              -0.001609380               0.002050786               0.000441406               0.000000000               0.000000000               0.000000000               0.000000000              -0.002177541               0.004945075              -0.002058934              -0.001434710               0.002126578               0.000691868               0.000000000               0.000000000               0.000000000               0.000000000              -0.001625998               0.005203914              -0.001886445              -0.001260236               0.002154699               0.000894463               0.000000000               0.000000000               0.000000000               0.000000000              -0.001109103               0.005352687              -0.001722364              -0.001084998               0.002145877               0.001060879               0.000000000               0.000000000               0.000000000               0.000000000              -0.000613561               0.005416100              -0.001563178              -0.000907096               0.002107714               0.001200617               0.000000000               0.000000000               0.000000000               0.000000000              -0.000131769               0.005422311              -0.001413881              -0.000727201               0.002049819               0.001322618               0.000000000               0.000000000               0.000000000               0.000000000               0.000338387               0.005400731              -0.001267676              -0.000548196               0.001982957               0.001434762               0.000000000               0.000000000               0.000000000               0.000000000               0.000794450               0.005356935              -0.001107843              -0.000371698               0.001909526               0.001537828               0.000000000               0.000000000               0.000000000               0.000000000               0.001229462               0.005290064              -0.000915752              -0.000200210               0.001830074               0.001629864               0.000000000               0.000000000               0.000000000               0.000000000               0.001625395               0.005203090              -0.000670718              -0.000040864               0.001747967               0.001707103               0.000000000               0.000000000               0.000000000               0.000000000               0.001960126               0.005106152              -0.000365022               0.000096777               0.001669775               0.001766552               0.000000000               0.000000000               0.000000000               0.000000000               0.002150775               0.005072958              -0.000205027               0.000172419               0.001633496               0.001805915               0.000000000               0.000000000               0.000000000               0.000000000              -0.012435491              -0.001092863               0.001158576              -0.004526699               0.001144604              -0.003382095               0.000000000               0.000000000               0.000000000               0.000000000              -0.008607277              -0.000083098              -0.000189440              -0.003217339               0.001044740              -0.002172599               0.000000000               0.000000000               0.000000000               0.000000000              -0.005725791               0.000729176              -0.001436099              -0.002238316               0.000989157              -0.001249159               0.000000000               0.000000000               0.000000000               0.000000000              -0.004159151               0.001747690              -0.001825287              -0.001778140               0.001175268              -0.000602872               0.000000000               0.000000000               0.000000000               0.000000000              -0.003165060               0.002660011              -0.001876914              -0.001519396               0.001393125              -0.000126271               0.000000000               0.000000000               0.000000000               0.000000000              -0.002437469               0.003387723              -0.001792932              -0.001337514               0.001575067               0.000237553               0.000000000               0.000000000               0.000000000               0.000000000              -0.001836890               0.003936641              -0.001669003              -0.001180912               0.001705837               0.000524925               0.000000000               0.000000000               0.000000000               0.000000000              -0.001301828               0.004348079              -0.001540419              -0.001031694               0.001793243               0.000761549               0.000000000               0.000000000               0.000000000               0.000000000              -0.000800980               0.004645935              -0.001415093              -0.000881108               0.001842332               0.000961224               0.000000000               0.000000000               0.000000000               0.000000000              -0.000307774               0.004847006              -0.001297576              -0.000721290               0.001856082               0.001134792               0.000000000               0.000000000               0.000000000               0.000000000               0.000194332               0.004984250              -0.001189877              -0.000550156               0.001844785               0.001294629               0.000000000               0.000000000               0.000000000               0.000000000               0.000709992               0.005082058              -0.001083805              -0.000369010               0.001817006               0.001447996               0.000000000               0.000000000               0.000000000               0.000000000               0.001236880               0.005141985              -0.000965445              -0.000178918               0.001773617               0.001594699               0.000000000               0.000000000               0.000000000               0.000000000               0.001772943               0.005157878              -0.000817145               0.000020118               0.001712569               0.001732687               0.000000000               0.000000000               0.000000000               0.000000000               0.002325367               0.005135104              -0.000616845               0.000230122               0.001634977               0.001865099               0.000000000               0.000000000               0.000000000               0.000000000               0.002890235               0.005080389              -0.000345942               0.000448785               0.001543851               0.001992636               0.000000000               0.000000000               0.000000000               0.000000000               0.003282334               0.005084445              -0.000204777               0.000595314               0.001496360               0.002091674               0.000000000               0.000000000               0.000000000               0.000000000              -0.013632575              -0.001246897               0.000676040              -0.004956351               0.001236476              -0.003719874               0.000000000               0.000000000               0.000000000               0.000000000              -0.009261002              -0.000562222              -0.000065972              -0.003402596               0.000946785              -0.002455811               0.000000000               0.000000000               0.000000000               0.000000000              -0.005854100              -0.000100835              -0.000761374              -0.002182681               0.000693944              -0.001488738               0.000000000               0.000000000               0.000000000               0.000000000              -0.004034080               0.000819243              -0.000995841              -0.001615183               0.000811469              -0.000803714               0.000000000               0.000000000               0.000000000               0.000000000              -0.002929115               0.001747925              -0.001041508              -0.001316906               0.001021603              -0.000295303               0.000000000               0.000000000               0.000000000               0.000000000              -0.002164169               0.002541493              -0.001005202              -0.001129248               0.001223571               0.000094324               0.000000000               0.000000000               0.000000000               0.000000000              -0.001563338               0.003179700              -0.000940417              -0.000983712               0.001387793               0.000404081               0.000000000               0.000000000               0.000000000               0.000000000              -0.001040037               0.003692603              -0.000868806              -0.000851587               0.001514718               0.000663130               0.000000000               0.000000000               0.000000000               0.000000000              -0.000546857               0.004094655              -0.000800689              -0.000716902               0.001603838               0.000886937               0.000000000               0.000000000               0.000000000               0.000000000              -0.000056499               0.004401136              -0.000739422              -0.000571328               0.001657473               0.001086145               0.000000000               0.000000000               0.000000000               0.000000000               0.000449614               0.004638006              -0.000683930              -0.000411145               0.001683035               0.001271890               0.000000000               0.000000000               0.000000000               0.000000000               0.000982661               0.004822186              -0.000628504              -0.000234275               0.001685471               0.001451196               0.000000000               0.000000000               0.000000000               0.000000000               0.001553942               0.004960761              -0.000564636              -0.000037367               0.001666026               0.001628659               0.000000000               0.000000000               0.000000000               0.000000000               0.002173373               0.005050496              -0.000486367               0.000183701               0.001622248               0.001805949               0.000000000               0.000000000               0.000000000               0.000000000               0.002859705               0.005089262              -0.000378190               0.000436227               0.001550994               0.001987222               0.000000000               0.000000000               0.000000000               0.000000000               0.003630819               0.005065014              -0.000217337               0.000728423               0.001445513               0.002173936               0.000000000               0.000000000               0.000000000               0.000000000               0.004217280               0.005097272              -0.000132806               0.000944311               0.001384303               0.002328615               0.000000000               0.000000000               0.000000000               0.000000000              -0.014055874              -0.001285340               0.000000000              -0.005110282               0.001274972              -0.003835310               0.000000000               0.000000000               0.000000000               0.000000000              -0.009495089              -0.000721054              -0.000000000              -0.003470524               0.000916484              -0.002554040               0.000000000               0.000000000               0.000000000               0.000000000              -0.005902754              -0.000390374              -0.000000000              -0.002164734               0.000591449              -0.001573285               0.000000000               0.000000000               0.000000000               0.000000000              -0.003986789               0.000491425               0.000000000              -0.001556472               0.000682628              -0.000873845               0.000000000               0.000000000               0.000000000               0.000000000              -0.002838482               0.001419142              -0.000000000              -0.001241821               0.000886982              -0.000354839               0.000000000               0.000000000               0.000000000               0.000000000              -0.002060209               0.002225680               0.000000000              -0.001050786               0.001092148               0.000041362               0.000000000               0.000000000               0.000000000               0.000000000              -0.001460576               0.002893097               0.000000000              -0.000909351               0.001267473               0.000358122               0.000000000               0.000000000               0.000000000               0.000000000              -0.000938950               0.003442035              -0.000000000              -0.000782359               0.001408120               0.000625761               0.000000000               0.000000000               0.000000000               0.000000000              -0.000446513               0.003882459               0.000000000              -0.000652748               0.001511723               0.000858975               0.000000000               0.000000000               0.000000000               0.000000000               0.000040274               0.004232865              -0.000000000              -0.000514004               0.001582276               0.001068271               0.000000000               0.000000000               0.000000000               0.000000000               0.000543467               0.004506319              -0.000000000              -0.000359489               0.001621921               0.001262432               0.000000000               0.000000000               0.000000000               0.000000000               0.001079038               0.004721174               0.000000000              -0.000185507               0.001635545               0.001450038               0.000000000               0.000000000               0.000000000               0.000000000               0.001667806               0.004894903               0.000000000               0.000013564               0.001627097               0.001640661               0.000000000               0.000000000               0.000000000               0.000000000               0.002323472               0.005017835              -0.000000000               0.000244070               0.001591238               0.001835308               0.000000000               0.000000000               0.000000000               0.000000000               0.003061581               0.005079312              -0.000000000               0.000513174               0.001522029               0.002035203               0.000000000               0.000000000               0.000000000               0.000000000               0.003915579               0.005064344               0.000000000               0.000835291               0.001409668               0.002244958               0.000000000               0.000000000               0.000000000               0.000000000               0.004586301               0.005107846               0.000000000               0.001081371               0.001342141               0.002423513               0.000000000               0.000000000               0.000000000               0.000000000               0.000000000               0.000000000               0.000000000               0.000000000               0.000000000               0.000000000               0.000000000               0.000000000               0.000000000               0.000000000               0.000000000               0.000000000               0.000000000               0.000000000               0.000000000               0.000000000               0.000000000               0.000000000               0.000000000               0.000000000               0.000000000               0.000000000               0.000000000               0.000000000               0.000000000               0.000000000               0.000000000               0.000000000               0.000000000               0.000000000               0.000000000               0.000000000               0.000000000               0.000000000               0.000000000               0.000000000               0.000000000               0.000000000               0.000000000               0.000000000               0.000000000               0.000000000               0.000000000               0.000000000               0.000000000               0.000000000               0.000000000               0.000000000               0.000000000               0.000000000               0.000000000               0.000000000               0.000000000               0.000000000               0.000000000               0.000000000               0.000000000               0.000000000               0.000000000               0.000000000               0.000000000               0.000000000               0.000000000               0.000000000               0.000000000               0.000000000               0.000000000               0.000000000               0.000000000               0.000000000               0.000000000               0.000000000               0.000000000               0.000000000               0.000000000               0.000000000               0.000000000               0.000000000               0.000000000               0.000000000               0.000000000               0.000000000               0.000000000               0.000000000               0.000000000               0.000000000               0.000000000               0.000000000               0.000000000               0.000000000               0.000000000               0.000000000               0.000000000               0.000000000               0.000000000               0.000000000               0.000000000               0.000000000               0.000000000               0.000000000               0.000000000               0.000000000               0.000000000               0.000000000               0.000000000               0.000000000               0.000000000               0.000000000               0.000000000               0.000000000               0.000000000               0.000000000               0.000000000               0.000000000               0.000000000               0.000000000               0.000000000               0.000000000               0.000000000               0.000000000               0.000000000               0.000000000               0.000000000               0.000000000               0.000000000               0.000000000               0.000000000               0.000000000               0.000000000               0.000000000               0.000000000               0.000000000               0.000000000               0.000000000               0.000000000               0.000000000               0.000000000               0.000000000               0.000000000               0.000000000               0.000000000               0.000000000               0.000000000               0.000000000               0.000000000               0.000000000               0.000000000               0.000000000               0.000000000               0.000000000               0.000000000               0.000000000               0.000000000               0.000000000               0.000000000               0.000000000               0.000000000               0.000000000               0.000000000               0.000000000               0.000000000               0.000000000               0.000000000               0.000000000               0.000000000               0.000000000               0.000000000               0.000000000               0.000000000               0.000000000               0.002329784               0.023519233               0.001591516              -0.002066230               0.008528409               0.006462179               0.000000000               0.000000000               0.000000000               0.000000000               0.002108119               0.018166224               0.000721513              -0.001480230               0.006548757               0.005068527               0.000000000               0.000000000               0.000000000               0.000000000               0.002577857               0.013875015              -0.000138370              -0.000767679               0.004880852               0.004113173               0.000000000               0.000000000               0.000000000               0.000000000               0.002300454               0.011458919              -0.000492335              -0.000569693               0.004009499               0.003439806               0.000000000               0.000000000               0.000000000               0.000000000               0.001831324               0.009926613              -0.000627450              -0.000554079               0.003493531               0.002939452               0.000000000               0.000000000               0.000000000               0.000000000               0.001362458               0.008842540              -0.000664573              -0.000594395               0.003145615               0.002551221               0.000000000               0.000000000               0.000000000               0.000000000               0.000953090               0.007994459              -0.000658658              -0.000641897               0.002878759               0.002236862               0.000000000               0.000000000               0.000000000               0.000000000               0.000616619               0.007275321              -0.000633871              -0.000678182               0.002651143               0.001972962               0.000000000               0.000000000               0.000000000               0.000000000               0.000356141               0.006624993              -0.000602776              -0.000694570               0.002439832               0.001745262               0.000000000               0.000000000               0.000000000               0.000000000               0.000161814               0.006014470              -0.000570967              -0.000691127               0.002235179               0.001544052               0.000000000               0.000000000               0.000000000               0.000000000               0.000015763               0.005421799              -0.000539193              -0.000671812               0.002031186               0.001359373               0.000000000               0.000000000               0.000000000               0.000000000              -0.000085738               0.004833688              -0.000501767              -0.000636361               0.001823334               0.001186972               0.000000000               0.000000000               0.000000000               0.000000000              -0.000144367               0.004232569              -0.000453534              -0.000583207               0.001605245               0.001022037               0.000000000               0.000000000               0.000000000               0.000000000              -0.000165097               0.003604960              -0.000393000              -0.000512530               0.001372485               0.000859955               0.000000000               0.000000000               0.000000000               0.000000000              -0.000146260               0.002941793              -0.000307718              -0.000422571               0.001121445               0.000698874               0.000000000               0.000000000               0.000000000               0.000000000              -0.000084392               0.002221902              -0.000177355              -0.000309384               0.000843755               0.000534371               0.000000000               0.000000000               0.000000000               0.000000000              -0.000099994               0.001683538              -0.000108727              -0.000247939               0.000643820               0.000395881               0.000000000               0.000000000               0.000000000               0.000000000               0.002478605               0.022045928               0.002951175              -0.001826261               0.007957323               0.006131062               0.000000000               0.000000000               0.000000000               0.000000000               0.001898764               0.017240165               0.001336105              -0.001442981               0.006227658               0.004784677               0.000000000               0.000000000               0.000000000               0.000000000               0.001987513               0.013511682              -0.000246390              -0.000943641               0.004818396               0.003874755               0.000000000               0.000000000               0.000000000               0.000000000               0.001582949               0.011376118              -0.000873999              -0.000828407               0.004068137               0.003239730               0.000000000               0.000000000               0.000000000               0.000000000               0.001110787               0.009983341              -0.001101494              -0.000831371               0.003604870               0.002773500               0.000000000               0.000000000               0.000000000               0.000000000               0.000693816               0.008964002              -0.001154214              -0.000860318               0.003274743               0.002414426               0.000000000               0.000000000               0.000000000               0.000000000               0.000355653               0.008141775              -0.001131631              -0.000884350               0.003008681               0.002124331               0.000000000               0.000000000               0.000000000               0.000000000               0.000100634               0.007430768              -0.001079143              -0.000891106               0.002773933               0.001882827               0.000000000               0.000000000               0.000000000               0.000000000              -0.000078414               0.006785359              -0.001018936              -0.000877573               0.002554288               0.001676715               0.000000000               0.000000000               0.000000000               0.000000000              -0.000204233               0.006184226              -0.000959170              -0.000849614               0.002344593               0.001494979               0.000000000               0.000000000               0.000000000               0.000000000              -0.000285769               0.005614496              -0.000897915              -0.000808974               0.002141138               0.001332164               0.000000000               0.000000000               0.000000000               0.000000000              -0.000327331               0.005063050              -0.000824576              -0.000755629               0.001939543               0.001183914               0.000000000               0.000000000               0.000000000               0.000000000              -0.000334551               0.004515801              -0.000731043              -0.000689930               0.001735229               0.001045298               0.000000000               0.000000000               0.000000000               0.000000000              -0.000299850               0.003971844              -0.000620420              -0.000608923               0.001526909               0.000917986               0.000000000               0.000000000               0.000000000               0.000000000              -0.000225466               0.003431787              -0.000473140              -0.000513522               0.001315091               0.000801569               0.000000000               0.000000000               0.000000000               0.000000000              -0.000121990               0.002896013              -0.000264429              -0.000407747               0.001101244               0.000693496               0.000000000               0.000000000               0.000000000               0.000000000              -0.000101340               0.002529622              -0.000157172              -0.000354204               0.000961267               0.000607063               0.000000000               0.000000000               0.000000000               0.000000000               0.002599133               0.019819965               0.003892386              -0.001502819               0.007107528               0.005604709               0.000000000               0.000000000               0.000000000               0.000000000               0.001523592               0.015865257               0.001762725              -0.001411807               0.005758968               0.004347161               0.000000000               0.000000000               0.000000000               0.000000000               0.001087853               0.012975049              -0.000291932              -0.001213933               0.004729618               0.003515684               0.000000000               0.000000000               0.000000000               0.000000000               0.000541001               0.011235172              -0.001060257              -0.001201518               0.004145526               0.002944008               0.000000000               0.000000000               0.000000000               0.000000000               0.000094916               0.010026922              -0.001318549              -0.001217769               0.003748197               0.002530428               0.000000000               0.000000000               0.000000000               0.000000000              -0.000226912               0.009087427              -0.001362528              -0.001221018               0.003436118               0.002215100               0.000000000               0.000000000               0.000000000               0.000000000              -0.000441608               0.008298944              -0.001318357              -0.001202968               0.003167276               0.001964308               0.000000000               0.000000000               0.000000000               0.000000000              -0.000570225               0.007596674              -0.001242632              -0.001163416               0.002920005               0.001756588               0.000000000               0.000000000               0.000000000               0.000000000              -0.000636342               0.006962452              -0.001159570              -0.001108932               0.002690438               0.001581506               0.000000000               0.000000000               0.000000000               0.000000000              -0.000661478               0.006381068              -0.001079645              -0.001045685               0.002475563               0.001429878               0.000000000               0.000000000               0.000000000               0.000000000              -0.000650591               0.005844031              -0.000998085              -0.000974473               0.002272815               0.001298342               0.000000000               0.000000000               0.000000000               0.000000000              -0.000603539               0.005340758              -0.000899755              -0.000893920               0.002078208               0.001184288               0.000000000               0.000000000               0.000000000               0.000000000              -0.000526085               0.004865367              -0.000779646              -0.000805451               0.001890256               0.001084805               0.000000000               0.000000000               0.000000000               0.000000000              -0.000418714               0.004421251              -0.000642301              -0.000709672               0.001710293               0.001000620               0.000000000               0.000000000               0.000000000               0.000000000              -0.000288496               0.004014711              -0.000470867              -0.000610023               0.001541565               0.000931541               0.000000000               0.000000000               0.000000000               0.000000000              -0.000147888               0.003665904              -0.000252900              -0.000513695               0.001393188               0.000879493               0.000000000               0.000000000               0.000000000               0.000000000              -0.000096470               0.003460662              -0.000144112              -0.000468758               0.001309795               0.000841037               0.000000000               0.000000000               0.000000000               0.000000000               0.002545510               0.017117999               0.004322941              -0.001185184               0.006101003               0.004915819               0.000000000               0.000000000               0.000000000               0.000000000               0.000955510               0.014227903               0.001979505              -0.001420169               0.005215976               0.003795807               0.000000000               0.000000000               0.000000000               0.000000000              -0.000021163               0.012336485              -0.000242030              -0.001549993               0.004628785               0.003078792               0.000000000               0.000000000               0.000000000               0.000000000              -0.000648792               0.011026600              -0.001016576              -0.001621618               0.004216036               0.002594418               0.000000000               0.000000000               0.000000000               0.000000000              -0.001007558               0.010004434              -0.001251460              -0.001628385               0.003877573               0.002249188               0.000000000               0.000000000               0.000000000               0.000000000              -0.001182552               0.009141147              -0.001274774              -0.001586097               0.003575717               0.001989621               0.000000000               0.000000000               0.000000000               0.000000000              -0.001236810               0.008381938              -0.001214798              -0.001511542               0.003297799               0.001786256               0.000000000               0.000000000               0.000000000               0.000000000              -0.001217084               0.007699339              -0.001127239              -0.001418821               0.003039361               0.001620540               0.000000000               0.000000000               0.000000000               0.000000000              -0.001150073               0.007086945              -0.001041637              -0.001317143               0.002801339               0.001484196               0.000000000               0.000000000               0.000000000               0.000000000              -0.001056518               0.006537030              -0.000961280              -0.001213320               0.002583428               0.001370108               0.000000000               0.000000000               0.000000000               0.000000000              -0.000940922               0.006038006              -0.000877931              -0.001107594               0.002381846               0.001274252               0.000000000               0.000000000               0.000000000               0.000000000              -0.000800373               0.005581586              -0.000777504              -0.000997836               0.002193122               0.001195286               0.000000000               0.000000000               0.000000000               0.000000000              -0.000642172               0.005168846              -0.000656497              -0.000886918               0.002018571               0.001131652               0.000000000               0.000000000               0.000000000               0.000000000              -0.000475621               0.004806998              -0.000521322              -0.000779231               0.001862060               0.001082829               0.000000000               0.000000000               0.000000000               0.000000000              -0.000305384               0.004510103              -0.000365907              -0.000678280               0.001729446               0.001051166               0.000000000               0.000000000               0.000000000               0.000000000              -0.000144626               0.004301268              -0.000189673              -0.000591892               0.001631039               0.001039147               0.000000000               0.000000000               0.000000000               0.000000000              -0.000078806               0.004204356              -0.000104165              -0.000555095               0.001586470               0.001031374               0.000000000               0.000000000               0.000000000               0.000000000               0.002176444               0.014215395               0.004261407              -0.000960759               0.005058670               0.004097911               0.000000000               0.000000000               0.000000000               0.000000000               0.000195812               0.012504036               0.002021231              -0.001489573               0.004664494               0.003174921               0.000000000               0.000000000               0.000000000               0.000000000              -0.001206042               0.011642072              -0.000072436              -0.001907520               0.004516492               0.002608972               0.000000000               0.000000000               0.000000000               0.000000000              -0.001808338               0.010731993              -0.000748998              -0.002019621               0.004250502               0.002230881               0.000000000               0.000000000               0.000000000               0.000000000              -0.002007845               0.009871528              -0.000936562              -0.001986878               0.003952769               0.001965891               0.000000000               0.000000000               0.000000000               0.000000000              -0.001994540               0.009077014              -0.000944874              -0.001882575               0.003653166               0.001770591               0.000000000               0.000000000               0.000000000               0.000000000              -0.001867294               0.008350841              -0.000888718              -0.001744086               0.003364948               0.001620862               0.000000000               0.000000000               0.000000000               0.000000000              -0.001687323               0.007695914              -0.000816747              -0.001594731               0.003096856               0.001502125               0.000000000               0.000000000               0.000000000               0.000000000              -0.001486981               0.007115534              -0.000750822              -0.001447056               0.002854173               0.001407117               0.000000000               0.000000000               0.000000000               0.000000000              -0.001282747               0.006596138              -0.000691584              -0.001305544               0.002633872               0.001328328               0.000000000               0.000000000               0.000000000               0.000000000              -0.001071795               0.006127998              -0.000626465              -0.001167920               0.002431952               0.001264032               0.000000000               0.000000000               0.000000000               0.000000000              -0.000851933               0.005706837              -0.000543677              -0.001032827               0.002246535               0.001213708               0.000000000               0.000000000               0.000000000               0.000000000              -0.000634389               0.005340560              -0.000445037              -0.000905464               0.002081990               0.001176526               0.000000000               0.000000000               0.000000000               0.000000000              -0.000433172               0.005042364              -0.000337839              -0.000792733               0.001945016               0.001152283               0.000000000               0.000000000               0.000000000               0.000000000              -0.000254891               0.004825705              -0.000223716              -0.000698795               0.001841484               0.001142689               0.000000000               0.000000000               0.000000000               0.000000000              -0.000109892               0.004699421              -0.000109644              -0.000628635               0.001776003               0.001147368               0.000000000               0.000000000               0.000000000               0.000000000              -0.000052101               0.004655484              -0.000056650              -0.000601472               0.001752303               0.001150831               0.000000000               0.000000000               0.000000000               0.000000000               0.001439161               0.011346362               0.003800114              -0.000878611               0.004074952               0.003196341               0.000000000               0.000000000               0.000000000               0.000000000              -0.000707474               0.010826421               0.001949917              -0.001618602               0.004148305               0.002529702               0.000000000               0.000000000               0.000000000               0.000000000              -0.002336228               0.010909060               0.000227684              -0.002239713               0.004382888               0.002143175               0.000000000               0.000000000               0.000000000               0.000000000              -0.002785687               0.010328185              -0.000301379              -0.002335650               0.004221244               0.001885594               0.000000000               0.000000000               0.000000000               0.000000000              -0.002764997               0.009601075              -0.000454421              -0.002237003               0.003945994               0.001708991               0.000000000               0.000000000               0.000000000               0.000000000              -0.002542560               0.008873680              -0.000472894              -0.002062665               0.003645419               0.001582754               0.000000000               0.000000000               0.000000000               0.000000000              -0.002239121               0.008191332              -0.000445640              -0.001863582               0.003351611               0.001488028               0.000000000               0.000000000               0.000000000               0.000000000              -0.001914611               0.007574937              -0.000412996              -0.001664842               0.003079901               0.001415059               0.000000000               0.000000000               0.000000000               0.000000000              -0.001600268               0.007028181              -0.000386741              -0.001478620               0.002835577               0.001356957               0.000000000               0.000000000               0.000000000               0.000000000              -0.001304702               0.006531892              -0.000362910              -0.001305746               0.002612524               0.001306778               0.000000000               0.000000000               0.000000000               0.000000000              -0.001025394               0.006083296              -0.000329907              -0.001144932               0.002409389               0.001264457               0.000000000               0.000000000               0.000000000               0.000000000              -0.000760722               0.005687441              -0.000277328              -0.000996198               0.002227861               0.001231662               0.000000000               0.000000000               0.000000000               0.000000000              -0.000518711               0.005359007              -0.000214899              -0.000864390               0.002074448               0.001210058               0.000000000               0.000000000               0.000000000               0.000000000              -0.000314697               0.005113522              -0.000152610              -0.000757200               0.001956890               0.001199691               0.000000000               0.000000000               0.000000000               0.000000000              -0.000159468               0.004952405              -0.000091232              -0.000678849               0.001877068               0.001198219               0.000000000               0.000000000               0.000000000               0.000000000              -0.000057831               0.004865181              -0.000037914              -0.000629833               0.001831655               0.001201822               0.000000000               0.000000000               0.000000000               0.000000000              -0.000025516               0.004834781              -0.000017412              -0.000613915               0.001816216               0.001202301               0.000000000               0.000000000               0.000000000               0.000000000               0.000375225               0.008701189               0.003049675              -0.000946939               0.003216013               0.002269073               0.000000000               0.000000000               0.000000000               0.000000000              -0.001695872               0.009292224               0.001820013              -0.001797476               0.003696535               0.001899059               0.000000000               0.000000000               0.000000000               0.000000000              -0.003296281               0.010139286               0.000644666              -0.002503510               0.004214232               0.001710722               0.000000000               0.000000000               0.000000000               0.000000000              -0.003484324               0.009810457               0.000252399              -0.002532922               0.004114427               0.001581505               0.000000000               0.000000000               0.000000000               0.000000000              -0.003215091               0.009200041               0.000097663              -0.002355658               0.003851869               0.001496211               0.000000000               0.000000000               0.000000000               0.000000000              -0.002792843               0.008544512               0.000037064              -0.002115375               0.003553267               0.001437892               0.000000000               0.000000000               0.000000000               0.000000000              -0.002337434               0.007917402               0.000009303              -0.001866208               0.003261177               0.001394969               0.000000000               0.000000000               0.000000000               0.000000000              -0.001900477               0.007350552              -0.000011172              -0.001631494               0.002993991               0.001362497               0.000000000               0.000000000               0.000000000               0.000000000              -0.001505580               0.006829743              -0.000032469              -0.001418307               0.002749327               0.001331020               0.000000000               0.000000000               0.000000000               0.000000000              -0.001155885               0.006350005              -0.000050208              -0.001227205               0.002525715               0.001298511               0.000000000               0.000000000               0.000000000               0.000000000              -0.000845067               0.005916491              -0.000057191              -0.001056459               0.002324297               0.001267838               0.000000000               0.000000000               0.000000000               0.000000000              -0.000570802               0.005550425              -0.000047109              -0.000907852               0.002152740               0.001244889               0.000000000               0.000000000               0.000000000               0.000000000              -0.000341103               0.005274005              -0.000033756              -0.000787162               0.002020372               0.001233209               0.000000000               0.000000000               0.000000000               0.000000000              -0.000168495               0.005087326              -0.000024060              -0.000699100               0.001928791               0.001229692               0.000000000               0.000000000               0.000000000               0.000000000              -0.000061365               0.004974367              -0.000012303              -0.000644806               0.001873041               0.001228235               0.000000000               0.000000000               0.000000000               0.000000000              -0.000010875               0.004916997              -0.000002886              -0.000618701               0.001845216               0.001226515               0.000000000               0.000000000               0.000000000               0.000000000              -0.000001679               0.004897406              -0.000001887              -0.000612804               0.001836720               0.001223916               0.000000000               0.000000000               0.000000000               0.000000000              -0.000887859               0.006477106               0.002139888              -0.001142584               0.002539874               0.001397291               0.000000000               0.000000000               0.000000000               0.000000000              -0.002660833               0.007919037               0.001679303              -0.001987688               0.003302215               0.001314527               0.000000000               0.000000000               0.000000000               0.000000000              -0.004043619               0.009356452               0.001144357              -0.002685907               0.004014088               0.001328181               0.000000000               0.000000000               0.000000000               0.000000000              -0.003952371               0.009293494               0.000842711              -0.002643819               0.003979073               0.001335254               0.000000000               0.000000000               0.000000000               0.000000000              -0.003473394               0.008832007               0.000653516              -0.002406517               0.003746145               0.001339628               0.000000000               0.000000000               0.000000000               0.000000000              -0.002895575               0.008270487               0.000525561              -0.002119646               0.003463350               0.001343704               0.000000000               0.000000000               0.000000000               0.000000000              -0.002328422               0.007713539               0.000432056              -0.001837346               0.003183603               0.001346257               0.000000000               0.000000000               0.000000000               0.000000000              -0.001811990               0.007189290               0.000358294              -0.001578154               0.002922457               0.001344304               0.000000000               0.000000000               0.000000000               0.000000000              -0.001358548               0.006693106               0.000292260              -0.001346090               0.002679710               0.001333619               0.000000000               0.000000000               0.000000000               0.000000000              -0.000970751               0.006226695               0.000232810              -0.001142366               0.002456333               0.001313967               0.000000000               0.000000000               0.000000000               0.000000000              -0.000646594               0.005806604               0.000180959              -0.000968296               0.002258281               0.001289985               0.000000000               0.000000000               0.000000000               0.000000000              -0.000374585               0.005470989               0.000133312              -0.000824341               0.002098425               0.001274084               0.000000000               0.000000000               0.000000000               0.000000000              -0.000168830               0.005232790               0.000088209              -0.000717408               0.001983382               0.001265974               0.000000000               0.000000000               0.000000000               0.000000000              -0.000041044               0.005077926               0.000049987              -0.000650130               0.001909335               0.001259205               0.000000000               0.000000000               0.000000000               0.000000000               0.000019411               0.004991335               0.000021968              -0.000616636               0.001869307               0.001252671               0.000000000               0.000000000               0.000000000               0.000000000               0.000030826               0.004957111               0.000004176              -0.000608078               0.001855046               0.001246969               0.000000000               0.000000000               0.000000000               0.000000000               0.000025026               0.004952807              -0.000002073              -0.000609714               0.001854157               0.001244443               0.000000000               0.000000000               0.000000000               0.000000000              -0.002347108               0.004416213               0.001192027              -0.001432189               0.001949452               0.000517263               0.000000000               0.000000000               0.000000000               0.000000000              -0.003465905               0.006318999               0.001528582              -0.002089585               0.002802840               0.000713255               0.000000000               0.000000000               0.000000000               0.000000000              -0.004482928               0.008181826               0.001669199              -0.002703820               0.003628521               0.000924701               0.000000000               0.000000000               0.000000000               0.000000000              -0.004244296               0.008523217               0.001463458              -0.002657007               0.003726713               0.001069706               0.000000000               0.000000000               0.000000000               0.000000000              -0.003685871               0.008348288               0.001239732              -0.002425732               0.003591312               0.001165580               0.000000000               0.000000000               0.000000000               0.000000000              -0.003058885               0.007993677               0.001042095              -0.002146286               0.003379961               0.001233675               0.000000000               0.000000000               0.000000000               0.000000000              -0.002452571               0.007577871               0.000882609              -0.001866944               0.003148246               0.001281303               0.000000000               0.000000000               0.000000000               0.000000000              -0.001901110               0.007146377               0.000755069              -0.001606209               0.002917505               0.001311295               0.000000000               0.000000000               0.000000000               0.000000000              -0.001418096               0.006715267               0.000642364              -0.001371191               0.002695463               0.001324272               0.000000000               0.000000000               0.000000000               0.000000000              -0.001007501               0.006294206               0.000538326              -0.001164586               0.002486243               0.001321657               0.000000000               0.000000000               0.000000000               0.000000000              -0.000658646               0.005913946               0.000440562              -0.000986233               0.002300040               0.001313807               0.000000000               0.000000000               0.000000000               0.000000000              -0.000368499               0.005592390               0.000340783              -0.000837234               0.002143189               0.001305955               0.000000000               0.000000000               0.000000000               0.000000000              -0.000148837               0.005335494               0.000241141              -0.000722749               0.002019397               0.001296648               0.000000000               0.000000000               0.000000000               0.000000000              -0.000004697               0.005154386               0.000152511              -0.000646058               0.001933464               0.001287406               0.000000000               0.000000000               0.000000000               0.000000000               0.000069536               0.005047010               0.000076395              -0.000604799               0.001883919               0.001279121               0.000000000               0.000000000               0.000000000               0.000000000               0.000090341               0.005004997               0.000022565              -0.000591745               0.001865564               0.001273819               0.000000000               0.000000000               0.000000000               0.000000000               0.000085104               0.004998099               0.000002310              -0.000592847               0.001863632               0.001270785               0.000000000               0.000000000               0.000000000               0.000000000              -0.004192701               0.002555764               0.000277042              -0.001891730               0.001482488              -0.000409242               0.000000000               0.000000000               0.000000000               0.000000000              -0.004366004               0.004704000               0.001315511              -0.002225246               0.002309732               0.000084486               0.000000000               0.000000000               0.000000000               0.000000000              -0.004826249               0.006791708               0.002090779              -0.002658801               0.003150146               0.000491346               0.000000000               0.000000000               0.000000000               0.000000000              -0.004465503               0.007516938               0.002047379              -0.002614175               0.003377012               0.000762837               0.000000000               0.000000000               0.000000000               0.000000000              -0.003870507               0.007670482               0.001828924              -0.002410245               0.003360216               0.000949972               0.000000000               0.000000000               0.000000000               0.000000000              -0.003229472               0.007563395               0.001590159              -0.002156471               0.003239930               0.001083459               0.000000000               0.000000000               0.000000000               0.000000000              -0.002606128               0.007330379               0.001379078              -0.001893591               0.003074632               0.001181041               0.000000000               0.000000000               0.000000000               0.000000000              -0.002031501               0.007036284               0.001203042              -0.001641344               0.002892519               0.001251175               0.000000000               0.000000000               0.000000000               0.000000000              -0.001517932               0.006708502               0.001045642              -0.001407784               0.002705406               0.001297622               0.000000000               0.000000000               0.000000000               0.000000000              -0.001072511               0.006368310               0.000902208              -0.001198227               0.002522158               0.001323930               0.000000000               0.000000000               0.000000000               0.000000000              -0.000688951               0.006037144               0.000769688              -0.001012997               0.002350027               0.001337030               0.000000000               0.000000000               0.000000000               0.000000000              -0.000361445               0.005732507               0.000629471              -0.000852103               0.002194851               0.001342748               0.000000000               0.000000000               0.000000000               0.000000000              -0.000095701               0.005471838               0.000480233              -0.000719866               0.002063883               0.001344017               0.000000000               0.000000000               0.000000000               0.000000000               0.000093860               0.005264933               0.000335921              -0.000622917               0.001962599               0.001339682               0.000000000               0.000000000               0.000000000               0.000000000               0.000203267               0.005117427               0.000200526              -0.000563452               0.001893609               0.001330157               0.000000000               0.000000000               0.000000000               0.000000000               0.000238049               0.005036241               0.000084592              -0.000540260               0.001858817               0.001318557               0.000000000               0.000000000               0.000000000               0.000000000               0.000223313               0.005004104               0.000029523              -0.000541769               0.001848608               0.001306838               0.000000000               0.000000000               0.000000000               0.000000000              -0.006302723               0.001037861              -0.000520908              -0.002493251               0.001177029              -0.001316222               0.000000000               0.000000000               0.000000000               0.000000000              -0.005409682               0.003174913               0.001023770              -0.002425490               0.001866788              -0.000558702               0.000000000               0.000000000               0.000000000               0.000000000              -0.005104755               0.005202303               0.002293572              -0.002564565               0.002588938               0.000024372               0.000000000               0.000000000               0.000000000               0.000000000              -0.004532650               0.006195773               0.002449747              -0.002474210               0.002889973               0.000415763               0.000000000               0.000000000               0.000000000               0.000000000              -0.003885666               0.006649022               0.002291306              -0.002288247               0.002979067               0.000690819               0.000000000               0.000000000               0.000000000               0.000000000              -0.003237692               0.006802605               0.002055825              -0.002064456               0.002955664               0.000891208               0.000000000               0.000000000               0.000000000               0.000000000              -0.002620139               0.006786850               0.001824229              -0.001830905               0.002872562               0.001041657               0.000000000               0.000000000               0.000000000               0.000000000              -0.002044134               0.006670839               0.001619161              -0.001600402               0.002757058               0.001156656               0.000000000               0.000000000               0.000000000               0.000000000              -0.001513364               0.006484605               0.001434488              -0.001378084               0.002620874               0.001242790               0.000000000               0.000000000               0.000000000               0.000000000              -0.001034676               0.006256076               0.001265056              -0.001170010               0.002475341               0.001305331               0.000000000               0.000000000               0.000000000               0.000000000              -0.000617168               0.006008484               0.001105834              -0.000982496               0.002330307               0.001347810               0.000000000               0.000000000               0.000000000               0.000000000              -0.000252691               0.005762343               0.000941690              -0.000815050               0.002192445               0.001377395               0.000000000               0.000000000               0.000000000               0.000000000               0.000063731               0.005539383               0.000763448              -0.000668522               0.002069283               0.001400761               0.000000000               0.000000000               0.000000000               0.000000000               0.000315435               0.005346682               0.000576551              -0.000550046               0.001965558               0.001415512               0.000000000               0.000000000               0.000000000               0.000000000               0.000479713               0.005184533               0.000383499              -0.000468173               0.001884218               0.001416045               0.000000000               0.000000000               0.000000000               0.000000000               0.000543841               0.005071917               0.000186942              -0.000430048               0.001833971               0.001403923               0.000000000               0.000000000               0.000000000               0.000000000               0.000530858               0.005021072               0.000083991              -0.000428561               0.001816528               0.001387966               0.000000000               0.000000000               0.000000000               0.000000000              -0.008526381              -0.000054494              -0.001084996              -0.003190578               0.001045354              -0.002145224               0.000000000               0.000000000               0.000000000               0.000000000              -0.006538435               0.001818630               0.000698256              -0.002679238               0.001499279              -0.001179959               0.000000000               0.000000000               0.000000000               0.000000000              -0.005343310               0.003549081               0.002245837              -0.002447372               0.001998803              -0.000448569               0.000000000               0.000000000               0.000000000               0.000000000              -0.004469326               0.004665151               0.002576970              -0.002259137               0.002308079               0.000048943               0.000000000               0.000000000               0.000000000               0.000000000              -0.003733385               0.005353632               0.002506739              -0.002069219               0.002474265               0.000405046               0.000000000               0.000000000               0.000000000               0.000000000              -0.003072469               0.005753239               0.002308720              -0.001871327               0.002541502               0.000670175               0.000000000               0.000000000               0.000000000               0.000000000              -0.002467645               0.005959720               0.002089770              -0.001670328               0.002543329               0.000873001               0.000000000               0.000000000               0.000000000               0.000000000              -0.001903624               0.006035136               0.001888115              -0.001468248               0.002501107               0.001032859               0.000000000               0.000000000               0.000000000               0.000000000              -0.001372298               0.006014122               0.001702679              -0.001266374               0.002426812               0.001160437               0.000000000               0.000000000               0.000000000               0.000000000              -0.000876707               0.005926101               0.001525869              -0.001069526               0.002331855               0.001262330               0.000000000               0.000000000               0.000000000               0.000000000              -0.000425746               0.005795343               0.001359000              -0.000884071               0.002226452               0.001342381               0.000000000               0.000000000               0.000000000               0.000000000              -0.000012075               0.005651356               0.001192228              -0.000710947               0.002120749               0.001409802               0.000000000               0.000000000               0.000000000               0.000000000               0.000367384               0.005506805               0.001010133              -0.000550581               0.002019110               0.001468529               0.000000000               0.000000000               0.000000000               0.000000000               0.000702202               0.005366901               0.000804880              -0.000407536               0.001924794               0.001517258               0.000000000               0.000000000               0.000000000               0.000000000               0.000961992               0.005230710               0.000567605              -0.000293091               0.001841250               0.001548159               0.000000000               0.000000000               0.000000000               0.000000000               0.001119284               0.005109095               0.000296837              -0.000218905               0.001775983               0.001557078               0.000000000               0.000000000               0.000000000               0.000000000               0.001167042               0.005053358               0.000153576              -0.000194029               0.001749112               0.001555083               0.000000000               0.000000000               0.000000000               0.000000000              -0.010652912              -0.000733125              -0.001311274              -0.003903199               0.001056684              -0.002846515               0.000000000               0.000000000               0.000000000               0.000000000              -0.007651965               0.000716577               0.000403420              -0.002959056               0.001225203              -0.001733854               0.000000000               0.000000000               0.000000000               0.000000000              -0.005550365               0.001996973               0.001949412              -0.002331005               0.001442649              -0.000888356               0.000000000               0.000000000               0.000000000               0.000000000              -0.004323489               0.003105463               0.002370544              -0.002009488               0.001704971              -0.000304517               0.000000000               0.000000000               0.000000000               0.000000000              -0.003465296               0.003946244               0.002379994              -0.001792763               0.001912988               0.000120225               0.000000000               0.000000000               0.000000000               0.000000000              -0.002777347               0.004543026               0.002238175              -0.001609380               0.002050786               0.000441406               0.000000000               0.000000000               0.000000000               0.000000000              -0.002177541               0.004945075               0.002058934              -0.001434710               0.002126578               0.000691868               0.000000000               0.000000000               0.000000000               0.000000000              -0.001625998               0.005203914               0.001886445              -0.001260236               0.002154699               0.000894463               0.000000000               0.000000000               0.000000000               0.000000000              -0.001109103               0.005352687               0.001722364              -0.001084998               0.002145877               0.001060879               0.000000000               0.000000000               0.000000000               0.000000000              -0.000613561               0.005416100               0.001563178              -0.000907096               0.002107714               0.001200617               0.000000000               0.000000000               0.000000000               0.000000000              -0.000131769               0.005422311               0.001413881              -0.000727201               0.002049819               0.001322618               0.000000000               0.000000000               0.000000000               0.000000000               0.000338387               0.005400731               0.001267676              -0.000548196               0.001982957               0.001434762               0.000000000               0.000000000               0.000000000               0.000000000               0.000794450               0.005356935               0.001107843              -0.000371698               0.001909526               0.001537828               0.000000000               0.000000000               0.000000000               0.000000000               0.001229462               0.005290064               0.000915752              -0.000200210               0.001830074               0.001629864               0.000000000               0.000000000               0.000000000               0.000000000               0.001625395               0.005203090               0.000670718              -0.000040864               0.001747967               0.001707103               0.000000000               0.000000000               0.000000000               0.000000000               0.001960126               0.005106152               0.000365022               0.000096777               0.001669775               0.001766552               0.000000000               0.000000000               0.000000000               0.000000000               0.002150775               0.005072958               0.000205027               0.000172419               0.001633496               0.001805915               0.000000000               0.000000000               0.000000000               0.000000000              -0.012435491              -0.001092863              -0.001158576              -0.004526699               0.001144604              -0.003382095               0.000000000               0.000000000               0.000000000               0.000000000              -0.008607277              -0.000083098               0.000189440              -0.003217339               0.001044740              -0.002172599               0.000000000               0.000000000               0.000000000               0.000000000              -0.005725791               0.000729176               0.001436099              -0.002238316               0.000989157              -0.001249159               0.000000000               0.000000000               0.000000000               0.000000000              -0.004159151               0.001747690               0.001825287              -0.001778140               0.001175268              -0.000602872               0.000000000               0.000000000               0.000000000               0.000000000              -0.003165060               0.002660011               0.001876914              -0.001519396               0.001393125              -0.000126271               0.000000000               0.000000000               0.000000000               0.000000000              -0.002437469               0.003387723               0.001792932              -0.001337514               0.001575067               0.000237553               0.000000000               0.000000000               0.000000000               0.000000000              -0.001836890               0.003936641               0.001669003              -0.001180912               0.001705837               0.000524925               0.000000000               0.000000000               0.000000000               0.000000000              -0.001301828               0.004348079               0.001540419              -0.001031694               0.001793243               0.000761549               0.000000000               0.000000000               0.000000000               0.000000000              -0.000800980               0.004645935               0.001415093              -0.000881108               0.001842332               0.000961224               0.000000000               0.000000000               0.000000000               0.000000000              -0.000307774               0.004847006               0.001297576              -0.000721290               0.001856082               0.001134792               0.000000000               0.000000000               0.000000000               0.000000000               0.000194332               0.004984250               0.001189877              -0.000550156               0.001844785               0.001294629               0.000000000               0.000000000               0.000000000               0.000000000               0.000709992               0.005082058               0.001083805              -0.000369010               0.001817006               0.001447996               0.000000000               0.000000000               0.000000000               0.000000000               0.001236880               0.005141985               0.000965445              -0.000178918               0.001773617               0.001594699               0.000000000               0.000000000               0.000000000               0.000000000               0.001772943               0.005157878               0.000817145               0.000020118               0.001712569               0.001732687               0.000000000               0.000000000               0.000000000               0.000000000               0.002325367               0.005135104               0.000616845               0.000230122               0.001634977               0.001865099               0.000000000               0.000000000               0.000000000               0.000000000               0.002890235               0.005080389               0.000345942               0.000448785               0.001543851               0.001992636               0.000000000               0.000000000               0.000000000               0.000000000               0.003282334               0.005084445               0.000204777               0.000595314               0.001496360               0.002091674               0.000000000               0.000000000               0.000000000               0.000000000              -0.013632575              -0.001246897              -0.000676040              -0.004956351               0.001236476              -0.003719874               0.000000000               0.000000000               0.000000000               0.000000000              -0.009261002              -0.000562222               0.000065972              -0.003402596               0.000946785              -0.002455811               0.000000000               0.000000000               0.000000000               0.000000000              -0.005854100              -0.000100835               0.000761374              -0.002182681               0.000693944              -0.001488738               0.000000000               0.000000000               0.000000000               0.000000000              -0.004034080               0.000819243               0.000995841              -0.001615183               0.000811469              -0.000803714               0.000000000               0.000000000               0.000000000               0.000000000              -0.002929115               0.001747925               0.001041508              -0.001316906               0.001021603              -0.000295303               0.000000000               0.000000000               0.000000000               0.000000000              -0.002164169               0.002541493               0.001005202              -0.001129248               0.001223571               0.000094324               0.000000000               0.000000000               0.000000000               0.000000000              -0.001563338               0.003179700               0.000940417              -0.000983712               0.001387793               0.000404081               0.000000000               0.000000000               0.000000000               0.000000000              -0.001040037               0.003692603               0.000868806              -0.000851587               0.001514718               0.000663130               0.000000000               0.000000000               0.000000000               0.000000000              -0.000546857               0.004094655               0.000800689              -0.000716902               0.001603838               0.000886937               0.000000000               0.000000000               0.000000000               0.000000000              -0.000056499               0.004401136               0.000739422              -0.000571328               0.001657473               0.001086145               0.000000000               0.000000000               0.000000000               0.000000000               0.000449614               0.004638006               0.000683930              -0.000411145               0.001683035               0.001271890               0.000000000               0.000000000               0.000000000               0.000000000               0.000982661               0.004822186               0.000628504              -0.000234275               0.001685471               0.001451196               0.000000000               0.000000000               0.000000000               0.000000000               0.001553942               0.004960761               0.000564636              -0.000037367               0.001666026               0.001628659               0.000000000               0.000000000               0.000000000               0.000000000               0.002173373               0.005050496               0.000486367               0.000183701               0.001622248               0.001805949               0.000000000               0.000000000               0.000000000               0.000000000               0.002859705               0.005089262               0.000378190               0.000436227               0.001550994               0.001987222               0.000000000               0.000000000               0.000000000               0.000000000               0.003630819               0.005065014               0.000217337               0.000728423               0.001445513               0.002173936               0.000000000               0.000000000               0.000000000               0.000000000               0.004217280               0.005097272               0.000132806               0.000944311               0.001384303               0.002328615               0.000000000               0.000000000               0.000000000               0.000000000              -0.014055874              -0.001285340               0.000000000              -0.005110282               0.001274972              -0.003835310               0.000000000               0.000000000               0.000000000               0.000000000              -0.009495089              -0.000721054               0.000000000              -0.003470524               0.000916484              -0.002554040               0.000000000               0.000000000               0.000000000               0.000000000              -0.005902754              -0.000390374              -0.000000000              -0.002164734               0.000591449              -0.001573285               0.000000000               0.000000000               0.000000000               0.000000000              -0.003986789               0.000491425               0.000000000              -0.001556472               0.000682628              -0.000873845               0.000000000               0.000000000               0.000000000               0.000000000              -0.002838482               0.001419142               0.000000000              -0.001241821               0.000886982              -0.000354839               0.000000000               0.000000000               0.000000000               0.000000000              -0.002060209               0.002225680               0.000000000              -0.001050786               0.001092148               0.000041362               0.000000000               0.000000000               0.000000000               0.000000000              -0.001460576               0.002893097               0.000000000              -0.000909351               0.001267473               0.000358122               0.000000000               0.000000000               0.000000000               0.000000000              -0.000938950               0.003442035              -0.000000000              -0.000782359               0.001408120               0.000625761               0.000000000               0.000000000               0.000000000               0.000000000              -0.000446513               0.003882459              -0.000000000              -0.000652748               0.001511723               0.000858975               0.000000000               0.000000000               0.000000000               0.000000000               0.000040274               0.004232865               0.000000000              -0.000514004               0.001582276               0.001068271               0.000000000               0.000000000               0.000000000               0.000000000               0.000543467               0.004506319               0.000000000              -0.000359489               0.001621921               0.001262432               0.000000000               0.000000000               0.000000000               0.000000000               0.001079038               0.004721174              -0.000000000              -0.000185507               0.001635545               0.001450038               0.000000000               0.000000000               0.000000000               0.000000000               0.001667806               0.004894903              -0.000000000               0.000013564               0.001627097               0.001640661               0.000000000               0.000000000               0.000000000               0.000000000               0.002323472               0.005017835              -0.000000000               0.000244070               0.001591238               0.001835308               0.000000000               0.000000000               0.000000000               0.000000000               0.003061581               0.005079312              -0.000000000               0.000513174               0.001522029               0.002035203               0.000000000               0.000000000               0.000000000               0.000000000               0.003915579               0.005064344              -0.000000000               0.000835291               0.001409668               0.002244958               0.000000000               0.000000000               0.000000000               0.000000000               0.004586301               0.005107846              -0.000000000               0.001081371               0.001342141               0.002423513               0.000000000               0.000000000               0.000000000               0.000000000               0.002264232               0.024036148               0.000000000              -0.002155426               0.008730444               0.006575018               0.000000000               0.000000000               0.000000000               0.000000000               0.002176824               0.018494764               0.000000000              -0.001495533               0.006663371               0.005167838               0.000000000               0.000000000               0.000000000               0.000000000               0.002786274               0.014003394               0.000000000              -0.000705570               0.004902941               0.004197371               0.000000000               0.000000000               0.000000000               0.000000000               0.002556906               0.011488128              -0.000000000              -0.000477175               0.003988396               0.003511221               0.000000000               0.000000000               0.000000000               0.000000000               0.002093980               0.009903766              -0.000000000              -0.000452727               0.003452131               0.002999404               0.000000000               0.000000000               0.000000000               0.000000000               0.001605290               0.008793791               0.000000000              -0.000497239               0.003096981               0.002599742               0.000000000               0.000000000               0.000000000               0.000000000               0.001169935               0.007933577               0.000000000              -0.000552970               0.002828822               0.002275852               0.000000000               0.000000000               0.000000000               0.000000000               0.000811919               0.007210476              -0.000000000              -0.000596839               0.002602414               0.002005576               0.000000000               0.000000000               0.000000000               0.000000000               0.000524488               0.006561122              -0.000000000              -0.000623456               0.002394837               0.001771382               0.000000000               0.000000000               0.000000000               0.000000000               0.000304203               0.005946857              -0.000000000              -0.000629280               0.002192026               0.001562746               0.000000000               0.000000000               0.000000000               0.000000000               0.000136085               0.005345574               0.000000000              -0.000617163               0.001987561               0.001370398               0.000000000               0.000000000               0.000000000               0.000000000               0.000013260               0.004742412               0.000000000              -0.000587828               0.001776731               0.001188903               0.000000000               0.000000000               0.000000000               0.000000000              -0.000066381               0.004120122               0.000000000              -0.000539907               0.001553329               0.001013422               0.000000000               0.000000000               0.000000000               0.000000000              -0.000111759               0.003461100               0.000000000              -0.000474546               0.001311871               0.000837325               0.000000000               0.000000000               0.000000000               0.000000000              -0.000117420               0.002746998               0.000000000              -0.000387406               0.001044792               0.000657386               0.000000000               0.000000000               0.000000000               0.000000000              -0.000071012               0.001947692              -0.000000000              -0.000270090               0.000739254               0.000469164               0.000000000               0.000000000               0.000000000               0.000000000              -0.000100932               0.001330993              -0.000000000              -0.000204223               0.000511734               0.000307511               0.000000000               0.000000000               0.000000000               0.000000000               0.002329784               0.023519233              -0.001591516              -0.002066230               0.008528409               0.006462179               0.000000000               0.000000000               0.000000000               0.000000000               0.002108119               0.018166224              -0.000721513              -0.001480230               0.006548757               0.005068527               0.000000000               0.000000000               0.000000000               0.000000000               0.002577857               0.013875015               0.000138370              -0.000767679               0.004880852               0.004113173               0.000000000               0.000000000               0.000000000               0.000000000               0.002300454               0.011458919               0.000492335              -0.000569693               0.004009499               0.003439806               0.000000000               0.000000000               0.000000000               0.000000000               0.001831324               0.009926613               0.000627450              -0.000554079               0.003493531               0.002939452               0.000000000               0.000000000               0.000000000               0.000000000               0.001362458               0.008842540               0.000664573              -0.000594395               0.003145615               0.002551221               0.000000000               0.000000000               0.000000000               0.000000000               0.000953090               0.007994459               0.000658658              -0.000641897               0.002878759               0.002236862               0.000000000               0.000000000               0.000000000               0.000000000               0.000616619               0.007275321               0.000633871              -0.000678182               0.002651143               0.001972962               0.000000000               0.000000000               0.000000000               0.000000000               0.000356141               0.006624993               0.000602776              -0.000694570               0.002439832               0.001745262               0.000000000               0.000000000               0.000000000               0.000000000               0.000161814               0.006014470               0.000570967              -0.000691127               0.002235179               0.001544052               0.000000000               0.000000000               0.000000000               0.000000000               0.000015763               0.005421799               0.000539193              -0.000671812               0.002031186               0.001359373               0.000000000               0.000000000               0.000000000               0.000000000              -0.000085738               0.004833688               0.000501767              -0.000636361               0.001823334               0.001186972               0.000000000               0.000000000               0.000000000               0.000000000              -0.000144367               0.004232569               0.000453534              -0.000583207               0.001605245               0.001022037               0.000000000               0.000000000               0.000000000               0.000000000              -0.000165097               0.003604960               0.000393000              -0.000512530               0.001372485               0.000859955               0.000000000               0.000000000               0.000000000               0.000000000              -0.000146260               0.002941793               0.000307718              -0.000422571               0.001121445               0.000698874               0.000000000               0.000000000               0.000000000               0.000000000              -0.000084392               0.002221902               0.000177355              -0.000309384               0.000843755               0.000534371               0.000000000               0.000000000               0.000000000               0.000000000              -0.000099994               0.001683538               0.000108727              -0.000247939               0.000643820               0.000395881               0.000000000               0.000000000               0.000000000               0.000000000               0.002478605               0.022045928              -0.002951175              -0.001826261               0.007957323               0.006131062               0.000000000               0.000000000               0.000000000               0.000000000               0.001898764               0.017240165              -0.001336105              -0.001442981               0.006227658               0.004784677               0.000000000               0.000000000               0.000000000               0.000000000               0.001987513               0.013511682               0.000246390              -0.000943641               0.004818396               0.003874755               0.000000000               0.000000000               0.000000000               0.000000000               0.001582949               0.011376118               0.000873999              -0.000828407               0.004068137               0.003239730               0.000000000               0.000000000               0.000000000               0.000000000               0.001110787               0.009983341               0.001101494              -0.000831371               0.003604870               0.002773500               0.000000000               0.000000000               0.000000000               0.000000000               0.000693816               0.008964002               0.001154214              -0.000860318               0.003274743               0.002414426               0.000000000               0.000000000               0.000000000               0.000000000               0.000355653               0.008141775               0.001131631              -0.000884350               0.003008681               0.002124331               0.000000000               0.000000000               0.000000000               0.000000000               0.000100634               0.007430768               0.001079143              -0.000891106               0.002773933               0.001882827               0.000000000               0.000000000               0.000000000               0.000000000              -0.000078414               0.006785359               0.001018936              -0.000877573               0.002554288               0.001676715               0.000000000               0.000000000               0.000000000               0.000000000              -0.000204233               0.006184226               0.000959170              -0.000849614               0.002344593               0.001494979               0.000000000               0.000000000               0.000000000               0.000000000              -0.000285769               0.005614496               0.000897915              -0.000808974               0.002141138               0.001332164               0.000000000               0.000000000               0.000000000               0.000000000              -0.000327331               0.005063050               0.000824576              -0.000755629               0.001939543               0.001183914               0.000000000               0.000000000               0.000000000               0.000000000              -0.000334551               0.004515801               0.000731043              -0.000689930               0.001735229               0.001045298               0.000000000               0.000000000               0.000000000               0.000000000              -0.000299850               0.003971844               0.000620420              -0.000608923               0.001526909               0.000917986               0.000000000               0.000000000               0.000000000               0.000000000              -0.000225466               0.003431787               0.000473140              -0.000513522               0.001315091               0.000801569               0.000000000               0.000000000               0.000000000               0.000000000              -0.000121990               0.002896013               0.000264429              -0.000407747               0.001101244               0.000693496               0.000000000               0.000000000               0.000000000               0.000000000              -0.000101340               0.002529622               0.000157172              -0.000354204               0.000961267               0.000607063               0.000000000               0.000000000               0.000000000               0.000000000               0.002599133               0.019819965              -0.003892386              -0.001502819               0.007107528               0.005604709               0.000000000               0.000000000               0.000000000               0.000000000               0.001523592               0.015865257              -0.001762725              -0.001411807               0.005758968               0.004347161               0.000000000               0.000000000               0.000000000               0.000000000               0.001087853               0.012975049               0.000291932              -0.001213933               0.004729618               0.003515684               0.000000000               0.000000000               0.000000000               0.000000000               0.000541001               0.011235172               0.001060257              -0.001201518               0.004145526               0.002944008               0.000000000               0.000000000               0.000000000               0.000000000               0.000094916               0.010026922               0.001318549              -0.001217769               0.003748197               0.002530428               0.000000000               0.000000000               0.000000000               0.000000000              -0.000226912               0.009087427               0.001362528              -0.001221018               0.003436118               0.002215100               0.000000000               0.000000000               0.000000000               0.000000000              -0.000441608               0.008298944               0.001318357              -0.001202968               0.003167276               0.001964308               0.000000000               0.000000000               0.000000000               0.000000000              -0.000570225               0.007596674               0.001242632              -0.001163416               0.002920005               0.001756588               0.000000000               0.000000000               0.000000000               0.000000000              -0.000636342               0.006962452               0.001159570              -0.001108932               0.002690438               0.001581506               0.000000000               0.000000000               0.000000000               0.000000000              -0.000661478               0.006381068               0.001079645              -0.001045685               0.002475563               0.001429878               0.000000000               0.000000000               0.000000000               0.000000000              -0.000650591               0.005844031               0.000998085              -0.000974473               0.002272815               0.001298342               0.000000000               0.000000000               0.000000000               0.000000000              -0.000603539               0.005340758               0.000899755              -0.000893920               0.002078208               0.001184288               0.000000000               0.000000000               0.000000000               0.000000000              -0.000526085               0.004865367               0.000779646              -0.000805451               0.001890256               0.001084805               0.000000000               0.000000000               0.000000000               0.000000000              -0.000418714               0.004421251               0.000642301              -0.000709672               0.001710293               0.001000620               0.000000000               0.000000000               0.000000000               0.000000000              -0.000288496               0.004014711               0.000470867              -0.000610023               0.001541565               0.000931541               0.000000000               0.000000000               0.000000000               0.000000000              -0.000147888               0.003665904               0.000252900              -0.000513695               0.001393188               0.000879493               0.000000000               0.000000000               0.000000000               0.000000000              -0.000096470               0.003460662               0.000144112              -0.000468758               0.001309795               0.000841037               0.000000000               0.000000000               0.000000000               0.000000000               0.002545510               0.017117999              -0.004322941              -0.001185184               0.006101003               0.004915819               0.000000000               0.000000000               0.000000000               0.000000000               0.000955510               0.014227903              -0.001979505              -0.001420169               0.005215976               0.003795807               0.000000000               0.000000000               0.000000000               0.000000000              -0.000021163               0.012336485               0.000242030              -0.001549993               0.004628785               0.003078792               0.000000000               0.000000000               0.000000000               0.000000000              -0.000648792               0.011026600               0.001016576              -0.001621618               0.004216036               0.002594418               0.000000000               0.000000000               0.000000000               0.000000000              -0.001007558               0.010004434               0.001251460              -0.001628385               0.003877573               0.002249188               0.000000000               0.000000000               0.000000000               0.000000000              -0.001182552               0.009141147               0.001274774              -0.001586097               0.003575717               0.001989621               0.000000000               0.000000000               0.000000000               0.000000000              -0.001236810               0.008381938               0.001214798              -0.001511542               0.003297799               0.001786256               0.000000000               0.000000000               0.000000000               0.000000000              -0.001217084               0.007699339               0.001127239              -0.001418821               0.003039361               0.001620540               0.000000000               0.000000000               0.000000000               0.000000000              -0.001150073               0.007086945               0.001041637              -0.001317143               0.002801339               0.001484196               0.000000000               0.000000000               0.000000000               0.000000000              -0.001056518               0.006537030               0.000961280              -0.001213320               0.002583428               0.001370108               0.000000000               0.000000000               0.000000000               0.000000000              -0.000940922               0.006038006               0.000877931              -0.001107594               0.002381846               0.001274252               0.000000000               0.000000000               0.000000000               0.000000000              -0.000800373               0.005581586               0.000777504              -0.000997836               0.002193122               0.001195286               0.000000000               0.000000000               0.000000000               0.000000000              -0.000642172               0.005168846               0.000656497              -0.000886918               0.002018571               0.001131652               0.000000000               0.000000000               0.000000000               0.000000000              -0.000475621               0.004806998               0.000521322              -0.000779231               0.001862060               0.001082829               0.000000000               0.000000000               0.000000000               0.000000000              -0.000305384               0.004510103               0.000365907              -0.000678280               0.001729446               0.001051166               0.000000000               0.000000000               0.000000000               0.000000000              -0.000144626               0.004301268               0.000189673              -0.000591892               0.001631039               0.001039147               0.000000000               0.000000000               0.000000000               0.000000000              -0.000078806               0.004204356               0.000104165              -0.000555095               0.001586470               0.001031374               0.000000000               0.000000000               0.000000000               0.000000000               0.002176444               0.014215395              -0.004261407              -0.000960759               0.005058670               0.004097911               0.000000000               0.000000000               0.000000000               0.000000000               0.000195812               0.012504036              -0.002021231              -0.001489573               0.004664494               0.003174921               0.000000000               0.000000000               0.000000000               0.000000000              -0.001206042               0.011642072               0.000072436              -0.001907520               0.004516492               0.002608972               0.000000000               0.000000000               0.000000000               0.000000000              -0.001808338               0.010731993               0.000748998              -0.002019621               0.004250502               0.002230881               0.000000000               0.000000000               0.000000000               0.000000000              -0.002007845               0.009871528               0.000936562              -0.001986878               0.003952769               0.001965891               0.000000000               0.000000000               0.000000000               0.000000000              -0.001994540               0.009077014               0.000944874              -0.001882575               0.003653166               0.001770591               0.000000000               0.000000000               0.000000000               0.000000000              -0.001867294               0.008350841               0.000888718              -0.001744086               0.003364948               0.001620862               0.000000000               0.000000000               0.000000000               0.000000000              -0.001687323               0.007695914               0.000816747              -0.001594731               0.003096856               0.001502125               0.000000000               0.000000000               0.000000000               0.000000000              -0.001486981               0.007115534               0.000750822              -0.001447056               0.002854173               0.001407117               0.000000000               0.000000000               0.000000000               0.000000000              -0.001282747               0.006596138               0.000691584              -0.001305544               0.002633872               0.001328328               0.000000000               0.000000000               0.000000000               0.000000000              -0.001071795               0.006127998               0.000626465              -0.001167920               0.002431952               0.001264032               0.000000000               0.000000000               0.000000000               0.000000000              -0.000851933               0.005706837               0.000543677              -0.001032827               0.002246535               0.001213708               0.000000000               0.000000000               0.000000000               0.000000000              -0.000634389               0.005340560               0.000445037              -0.000905464               0.002081990               0.001176526               0.000000000               0.000000000               0.000000000               0.000000000              -0.000433172               0.005042364               0.000337839              -0.000792733               0.001945016               0.001152283               0.000000000               0.000000000               0.000000000               0.000000000              -0.000254891               0.004825705               0.000223716              -0.000698795               0.001841484               0.001142689               0.000000000               0.000000000               0.000000000               0.000000000              -0.000109892               0.004699421               0.000109644              -0.000628635               0.001776003               0.001147368               0.000000000               0.000000000               0.000000000               0.000000000              -0.000052101               0.004655484               0.000056650              -0.000601472               0.001752303               0.001150831               0.000000000               0.000000000               0.000000000               0.000000000               0.001439161               0.011346362              -0.003800114              -0.000878611               0.004074952               0.003196341               0.000000000               0.000000000               0.000000000               0.000000000              -0.000707474               0.010826421              -0.001949917              -0.001618602               0.004148305               0.002529702               0.000000000               0.000000000               0.000000000               0.000000000              -0.002336228               0.010909060              -0.000227684              -0.002239713               0.004382888               0.002143175               0.000000000               0.000000000               0.000000000               0.000000000              -0.002785687               0.010328185               0.000301379              -0.002335650               0.004221244               0.001885594               0.000000000               0.000000000               0.000000000               0.000000000              -0.002764997               0.009601075               0.000454421              -0.002237003               0.003945994               0.001708991               0.000000000               0.000000000               0.000000000               0.000000000              -0.002542560               0.008873680               0.000472894              -0.002062665               0.003645419               0.001582754               0.000000000               0.000000000               0.000000000               0.000000000              -0.002239121               0.008191332               0.000445640              -0.001863582               0.003351611               0.001488028               0.000000000               0.000000000               0.000000000               0.000000000              -0.001914611               0.007574937               0.000412996              -0.001664842               0.003079901               0.001415059               0.000000000               0.000000000               0.000000000               0.000000000              -0.001600268               0.007028181               0.000386741              -0.001478620               0.002835577               0.001356957               0.000000000               0.000000000               0.000000000               0.000000000              -0.001304702               0.006531892               0.000362910              -0.001305746               0.002612524               0.001306778               0.000000000               0.000000000               0.000000000               0.000000000              -0.001025394               0.006083296               0.000329907              -0.001144932               0.002409389               0.001264457               0.000000000               0.000000000               0.000000000               0.000000000              -0.000760722               0.005687441               0.000277328              -0.000996198               0.002227861               0.001231662               0.000000000               0.000000000               0.000000000               0.000000000              -0.000518711               0.005359007               0.000214899              -0.000864390               0.002074448               0.001210058               0.000000000               0.000000000               0.000000000               0.000000000              -0.000314697               0.005113522               0.000152610              -0.000757200               0.001956890               0.001199691               0.000000000               0.000000000               0.000000000               0.000000000              -0.000159468               0.004952405               0.000091232              -0.000678849               0.001877068               0.001198219               0.000000000               0.000000000               0.000000000               0.000000000              -0.000057831               0.004865181               0.000037914              -0.000629833               0.001831655               0.001201822               0.000000000               0.000000000               0.000000000               0.000000000              -0.000025516               0.004834781               0.000017412              -0.000613915               0.001816216               0.001202301               0.000000000               0.000000000               0.000000000               0.000000000               0.000375225               0.008701189              -0.003049675              -0.000946939               0.003216013               0.002269073               0.000000000               0.000000000               0.000000000               0.000000000              -0.001695872               0.009292224              -0.001820013              -0.001797476               0.003696535               0.001899059               0.000000000               0.000000000               0.000000000               0.000000000              -0.003296281               0.010139286              -0.000644666              -0.002503510               0.004214232               0.001710722               0.000000000               0.000000000               0.000000000               0.000000000              -0.003484324               0.009810457              -0.000252399              -0.002532922               0.004114427               0.001581505               0.000000000               0.000000000               0.000000000               0.000000000              -0.003215091               0.009200041              -0.000097663              -0.002355658               0.003851869               0.001496211               0.000000000               0.000000000               0.000000000               0.000000000              -0.002792843               0.008544512              -0.000037064              -0.002115375               0.003553267               0.001437892               0.000000000               0.000000000               0.000000000               0.000000000              -0.002337434               0.007917402              -0.000009303              -0.001866208               0.003261177               0.001394969               0.000000000               0.000000000               0.000000000               0.000000000              -0.001900477               0.007350552               0.000011172              -0.001631494               0.002993991               0.001362497               0.000000000               0.000000000               0.000000000               0.000000000              -0.001505580               0.006829743               0.000032469              -0.001418307               0.002749327               0.001331020               0.000000000               0.000000000               0.000000000               0.000000000              -0.001155885               0.006350005               0.000050208              -0.001227205               0.002525715               0.001298511               0.000000000               0.000000000               0.000000000               0.000000000              -0.000845067               0.005916491               0.000057191              -0.001056459               0.002324297               0.001267838               0.000000000               0.000000000               0.000000000               0.000000000              -0.000570802               0.005550425               0.000047109              -0.000907852               0.002152740               0.001244889               0.000000000               0.000000000               0.000000000               0.000000000              -0.000341103               0.005274005               0.000033756              -0.000787162               0.002020372               0.001233209               0.000000000               0.000000000               0.000000000               0.000000000              -0.000168495               0.005087326               0.000024060              -0.000699100               0.001928791               0.001229692               0.000000000               0.000000000               0.000000000               0.000000000              -0.000061365               0.004974367               0.000012303              -0.000644806               0.001873041               0.001228235               0.000000000               0.000000000               0.000000000               0.000000000              -0.000010875               0.004916997               0.000002886              -0.000618701               0.001845216               0.001226515               0.000000000               0.000000000               0.000000000               0.000000000              -0.000001679               0.004897406               0.000001887              -0.000612804               0.001836720               0.001223916               0.000000000               0.000000000               0.000000000               0.000000000              -0.000887859               0.006477106              -0.002139888              -0.001142584               0.002539874               0.001397291               0.000000000               0.000000000               0.000000000               0.000000000              -0.002660833               0.007919037              -0.001679303              -0.001987688               0.003302215               0.001314527               0.000000000               0.000000000               0.000000000               0.000000000              -0.004043619               0.009356452              -0.001144357              -0.002685907               0.004014088               0.001328181               0.000000000               0.000000000               0.000000000               0.000000000              -0.003952371               0.009293494              -0.000842711              -0.002643819               0.003979073               0.001335254               0.000000000               0.000000000               0.000000000               0.000000000              -0.003473394               0.008832007              -0.000653516              -0.002406517               0.003746145               0.001339628               0.000000000               0.000000000               0.000000000               0.000000000              -0.002895575               0.008270487              -0.000525561              -0.002119646               0.003463350               0.001343704               0.000000000               0.000000000               0.000000000               0.000000000              -0.002328422               0.007713539              -0.000432056              -0.001837346               0.003183603               0.001346257               0.000000000               0.000000000               0.000000000               0.000000000              -0.001811990               0.007189290              -0.000358294              -0.001578154               0.002922457               0.001344304               0.000000000               0.000000000               0.000000000               0.000000000              -0.001358548               0.006693106              -0.000292260              -0.001346090               0.002679710               0.001333619               0.000000000               0.000000000               0.000000000               0.000000000              -0.000970751               0.006226695              -0.000232810              -0.001142366               0.002456333               0.001313967               0.000000000               0.000000000               0.000000000               0.000000000              -0.000646594               0.005806604              -0.000180959              -0.000968296               0.002258281               0.001289985               0.000000000               0.000000000               0.000000000               0.000000000              -0.000374585               0.005470989              -0.000133312              -0.000824341               0.002098425               0.001274084               0.000000000               0.000000000               0.000000000               0.000000000              -0.000168830               0.005232790              -0.000088209              -0.000717408               0.001983382               0.001265974               0.000000000               0.000000000               0.000000000               0.000000000              -0.000041044               0.005077926              -0.000049987              -0.000650130               0.001909335               0.001259205               0.000000000               0.000000000               0.000000000               0.000000000               0.000019411               0.004991335              -0.000021968              -0.000616636               0.001869307               0.001252671               0.000000000               0.000000000               0.000000000               0.000000000               0.000030826               0.004957111              -0.000004176              -0.000608078               0.001855046               0.001246969               0.000000000               0.000000000               0.000000000               0.000000000               0.000025026               0.004952807               0.000002073              -0.000609714               0.001854157               0.001244443               0.000000000               0.000000000               0.000000000               0.000000000              -0.002347108               0.004416213              -0.001192027              -0.001432189               0.001949452               0.000517263               0.000000000               0.000000000               0.000000000               0.000000000              -0.003465905               0.006318999              -0.001528582              -0.002089585               0.002802840               0.000713255               0.000000000               0.000000000               0.000000000               0.000000000              -0.004482928               0.008181826              -0.001669199              -0.002703820               0.003628521               0.000924701               0.000000000               0.000000000               0.000000000               0.000000000              -0.004244296               0.008523217              -0.001463458              -0.002657007               0.003726713               0.001069706               0.000000000               0.000000000               0.000000000               0.000000000              -0.003685871               0.008348288              -0.001239732              -0.002425732               0.003591312               0.001165580               0.000000000               0.000000000               0.000000000               0.000000000              -0.003058885               0.007993677              -0.001042095              -0.002146286               0.003379961               0.001233675               0.000000000               0.000000000               0.000000000               0.000000000              -0.002452571               0.007577871              -0.000882609              -0.001866944               0.003148246               0.001281303               0.000000000               0.000000000               0.000000000               0.000000000              -0.001901110               0.007146377              -0.000755069              -0.001606209               0.002917505               0.001311295               0.000000000               0.000000000               0.000000000               0.000000000              -0.001418096               0.006715267              -0.000642364              -0.001371191               0.002695463               0.001324272               0.000000000               0.000000000               0.000000000               0.000000000              -0.001007501               0.006294206              -0.000538326              -0.001164586               0.002486243               0.001321657               0.000000000               0.000000000               0.000000000               0.000000000              -0.000658646               0.005913946              -0.000440562              -0.000986233               0.002300040               0.001313807               0.000000000               0.000000000               0.000000000               0.000000000              -0.000368499               0.005592390              -0.000340783              -0.000837234               0.002143189               0.001305955               0.000000000               0.000000000               0.000000000               0.000000000              -0.000148837               0.005335494              -0.000241141              -0.000722749               0.002019397               0.001296648               0.000000000               0.000000000               0.000000000               0.000000000              -0.000004697               0.005154386              -0.000152511              -0.000646058               0.001933464               0.001287406               0.000000000               0.000000000               0.000000000               0.000000000               0.000069536               0.005047010              -0.000076395              -0.000604799               0.001883919               0.001279121               0.000000000               0.000000000               0.000000000               0.000000000               0.000090341               0.005004997              -0.000022565              -0.000591745               0.001865564               0.001273819               0.000000000               0.000000000               0.000000000               0.000000000               0.000085104               0.004998099              -0.000002310              -0.000592847               0.001863632               0.001270785               0.000000000               0.000000000               0.000000000               0.000000000              -0.004192701               0.002555764              -0.000277042              -0.001891730               0.001482488              -0.000409242               0.000000000               0.000000000               0.000000000               0.000000000              -0.004366004               0.004704000              -0.001315511              -0.002225246               0.002309732               0.000084486               0.000000000               0.000000000               0.000000000               0.000000000              -0.004826249               0.006791708              -0.002090779              -0.002658801               0.003150146               0.000491346               0.000000000               0.000000000               0.000000000               0.000000000              -0.004465503               0.007516938              -0.002047379              -0.002614175               0.003377012               0.000762837               0.000000000               0.000000000               0.000000000               0.000000000              -0.003870507               0.007670482              -0.001828924              -0.002410245               0.003360216               0.000949972               0.000000000               0.000000000               0.000000000               0.000000000              -0.003229472               0.007563395              -0.001590159              -0.002156471               0.003239930               0.001083459               0.000000000               0.000000000               0.000000000               0.000000000              -0.002606128               0.007330379              -0.001379078              -0.001893591               0.003074632               0.001181041               0.000000000               0.000000000               0.000000000               0.000000000              -0.002031501               0.007036284              -0.001203042              -0.001641344               0.002892519               0.001251175               0.000000000               0.000000000               0.000000000               0.000000000              -0.001517932               0.006708502              -0.001045642              -0.001407784               0.002705406               0.001297622               0.000000000               0.000000000               0.000000000               0.000000000              -0.001072511               0.006368310              -0.000902208              -0.001198227               0.002522158               0.001323930               0.000000000               0.000000000               0.000000000               0.000000000              -0.000688951               0.006037144              -0.000769688              -0.001012997               0.002350027               0.001337030               0.000000000               0.000000000               0.000000000               0.000000000              -0.000361445               0.005732507              -0.000629471              -0.000852103               0.002194851               0.001342748               0.000000000               0.000000000               0.000000000               0.000000000              -0.000095701               0.005471838              -0.000480233              -0.000719866               0.002063883               0.001344017               0.000000000               0.000000000               0.000000000               0.000000000               0.000093860               0.005264933              -0.000335921              -0.000622917               0.001962599               0.001339682               0.000000000               0.000000000               0.000000000               0.000000000               0.000203267               0.005117427              -0.000200526              -0.000563452               0.001893609               0.001330157               0.000000000               0.000000000               0.000000000               0.000000000               0.000238049               0.005036241              -0.000084592              -0.000540260               0.001858817               0.001318557               0.000000000               0.000000000               0.000000000               0.000000000               0.000223313               0.005004104              -0.000029523              -0.000541769               0.001848608               0.001306838               0.000000000               0.000000000               0.000000000               0.000000000              -0.006302723               0.001037861               0.000520908              -0.002493251               0.001177029              -0.001316222               0.000000000               0.000000000               0.000000000               0.000000000              -0.005409682               0.003174913              -0.001023770              -0.002425490               0.001866788              -0.000558702               0.000000000               0.000000000               0.000000000               0.000000000              -0.005104755               0.005202303              -0.002293572              -0.002564565               0.002588938               0.000024372               0.000000000               0.000000000               0.000000000               0.000000000              -0.004532650               0.006195773              -0.002449747              -0.002474210               0.002889973               0.000415763               0.000000000               0.000000000               0.000000000               0.000000000              -0.003885666               0.006649022              -0.002291306              -0.002288247               0.002979067               0.000690819               0.000000000               0.000000000               0.000000000               0.000000000              -0.003237692               0.006802605              -0.002055825              -0.002064456               0.002955664               0.000891208               0.000000000               0.000000000               0.000000000               0.000000000              -0.002620139               0.006786850              -0.001824229              -0.001830905               0.002872562               0.001041657               0.000000000               0.000000000               0.000000000               0.000000000              -0.002044134               0.006670839              -0.001619161              -0.001600402               0.002757058               0.001156656               0.000000000               0.000000000               0.000000000               0.000000000              -0.001513364               0.006484605              -0.001434488              -0.001378084               0.002620874               0.001242790               0.000000000               0.000000000               0.000000000               0.000000000              -0.001034676               0.006256076              -0.001265056              -0.001170010               0.002475341               0.001305331               0.000000000               0.000000000               0.000000000               0.000000000              -0.000617168               0.006008484              -0.001105834              -0.000982496               0.002330307               0.001347810               0.000000000               0.000000000               0.000000000               0.000000000              -0.000252691               0.005762343              -0.000941690              -0.000815050               0.002192445               0.001377395               0.000000000               0.000000000               0.000000000               0.000000000               0.000063731               0.005539383              -0.000763448              -0.000668522               0.002069283               0.001400761               0.000000000               0.000000000               0.000000000               0.000000000               0.000315435               0.005346682              -0.000576551              -0.000550046               0.001965558               0.001415512               0.000000000               0.000000000               0.000000000               0.000000000               0.000479713               0.005184533              -0.000383499              -0.000468173               0.001884218               0.001416045               0.000000000               0.000000000               0.000000000               0.000000000               0.000543841               0.005071917              -0.000186942              -0.000430048               0.001833971               0.001403923               0.000000000               0.000000000               0.000000000               0.000000000               0.000530858               0.005021072              -0.000083991              -0.000428561               0.001816528               0.001387966               0.000000000               0.000000000               0.000000000               0.000000000              -0.008526381              -0.000054494               0.001084996              -0.003190578               0.001045354              -0.002145224               0.000000000               0.000000000               0.000000000               0.000000000              -0.006538435               0.001818630              -0.000698256              -0.002679238               0.001499279              -0.001179959               0.000000000               0.000000000               0.000000000               0.000000000              -0.005343310               0.003549081              -0.002245837              -0.002447372               0.001998803              -0.000448569               0.000000000               0.000000000               0.000000000               0.000000000              -0.004469326               0.004665151              -0.002576970              -0.002259137               0.002308079               0.000048943               0.000000000               0.000000000               0.000000000               0.000000000              -0.003733385               0.005353632              -0.002506739              -0.002069219               0.002474265               0.000405046               0.000000000               0.000000000               0.000000000               0.000000000              -0.003072469               0.005753239              -0.002308720              -0.001871327               0.002541502               0.000670175               0.000000000               0.000000000               0.000000000               0.000000000              -0.002467645               0.005959720              -0.002089770              -0.001670328               0.002543329               0.000873001               0.000000000               0.000000000               0.000000000               0.000000000              -0.001903624               0.006035136              -0.001888115              -0.001468248               0.002501107               0.001032859               0.000000000               0.000000000               0.000000000               0.000000000              -0.001372298               0.006014122              -0.001702679              -0.001266374               0.002426812               0.001160437               0.000000000               0.000000000               0.000000000               0.000000000              -0.000876707               0.005926101              -0.001525869              -0.001069526               0.002331855               0.001262330               0.000000000               0.000000000               0.000000000               0.000000000              -0.000425746               0.005795343              -0.001359000              -0.000884071               0.002226452               0.001342381               0.000000000               0.000000000               0.000000000               0.000000000              -0.000012075               0.005651356              -0.001192228              -0.000710947               0.002120749               0.001409802               0.000000000               0.000000000               0.000000000               0.000000000               0.000367384               0.005506805              -0.001010133              -0.000550581               0.002019110               0.001468529               0.000000000               0.000000000               0.000000000               0.000000000               0.000702202               0.005366901              -0.000804880              -0.000407536               0.001924794               0.001517258               0.000000000               0.000000000               0.000000000               0.000000000               0.000961992               0.005230710              -0.000567605              -0.000293091               0.001841250               0.001548159               0.000000000               0.000000000               0.000000000               0.000000000               0.001119284               0.005109095              -0.000296837              -0.000218905               0.001775983               0.001557078               0.000000000               0.000000000               0.000000000               0.000000000               0.001167042               0.005053358              -0.000153576              -0.000194029               0.001749112               0.001555083               0.000000000               0.000000000               0.000000000               0.000000000              -0.010652912              -0.000733125               0.001311274              -0.003903199               0.001056684              -0.002846515               0.000000000               0.000000000               0.000000000               0.000000000              -0.007651965               0.000716577              -0.000403420              -0.002959056               0.001225203              -0.001733854               0.000000000               0.000000000               0.000000000               0.000000000              -0.005550365               0.001996973              -0.001949412              -0.002331005               0.001442649              -0.000888356               0.000000000               0.000000000               0.000000000               0.000000000              -0.004323489               0.003105463              -0.002370544              -0.002009488               0.001704971              -0.000304517               0.000000000               0.000000000               0.000000000               0.000000000              -0.003465296               0.003946244              -0.002379994              -0.001792763               0.001912988               0.000120225               0.000000000               0.000000000               0.000000000               0.000000000              -0.002777347               0.004543026              -0.002238175              -0.001609380               0.002050786               0.000441406               0.000000000               0.000000000               0.000000000               0.000000000              -0.002177541               0.004945075              -0.002058934              -0.001434710               0.002126578               0.000691868               0.000000000               0.000000000               0.000000000               0.000000000              -0.001625998               0.005203914              -0.001886445              -0.001260236               0.002154699               0.000894463               0.000000000               0.000000000               0.000000000               0.000000000              -0.001109103               0.005352687              -0.001722364              -0.001084998               0.002145877               0.001060879               0.000000000               0.000000000               0.000000000               0.000000000              -0.000613561               0.005416100              -0.001563178              -0.000907096               0.002107714               0.001200617               0.000000000               0.000000000               0.000000000               0.000000000              -0.000131769               0.005422311              -0.001413881              -0.000727201               0.002049819               0.001322618               0.000000000               0.000000000               0.000000000               0.000000000               0.000338387               0.005400731              -0.001267676              -0.000548196               0.001982957               0.001434762               0.000000000               0.000000000               0.000000000               0.000000000               0.000794450               0.005356935              -0.001107843              -0.000371698               0.001909526               0.001537828               0.000000000               0.000000000               0.000000000               0.000000000               0.001229462               0.005290064              -0.000915752              -0.000200210               0.001830074               0.001629864               0.000000000               0.000000000               0.000000000               0.000000000               0.001625395               0.005203090              -0.000670718              -0.000040864               0.001747967               0.001707103               0.000000000               0.000000000               0.000000000               0.000000000               0.001960126               0.005106152              -0.000365022               0.000096777               0.001669775               0.001766552               0.000000000               0.000000000               0.000000000               0.000000000               0.002150775               0.005072958              -0.000205027               0.000172419               0.001633496               0.001805915               0.000000000               0.000000000               0.000000000               0.000000000              -0.012435491              -0.001092863               0.001158576              -0.004526699               0.001144604              -0.003382095               0.000000000               0.000000000               0.000000000               0.000000000              -0.008607277              -0.000083098              -0.000189440              -0.003217339               0.001044740              -0.002172599               0.000000000               0.000000000               0.000000000               0.000000000              -0.005725791               0.000729176              -0.001436099              -0.002238316               0.000989157              -0.001249159               0.000000000               0.000000000               0.000000000               0.000000000              -0.004159151               0.001747690              -0.001825287              -0.001778140               0.001175268              -0.000602872               0.000000000               0.000000000               0.000000000               0.000000000              -0.003165060               0.002660011              -0.001876914              -0.001519396               0.001393125              -0.000126271               0.000000000               0.000000000               0.000000000               0.000000000              -0.002437469               0.003387723              -0.001792932              -0.001337514               0.001575067               0.000237553               0.000000000               0.000000000               0.000000000               0.000000000              -0.001836890               0.003936641              -0.001669003              -0.001180912               0.001705837               0.000524925               0.000000000               0.000000000               0.000000000               0.000000000              -0.001301828               0.004348079              -0.001540419              -0.001031694               0.001793243               0.000761549               0.000000000               0.000000000               0.000000000               0.000000000              -0.000800980               0.004645935              -0.001415093              -0.000881108               0.001842332               0.000961224               0.000000000               0.000000000               0.000000000               0.000000000              -0.000307774               0.004847006              -0.001297576              -0.000721290               0.001856082               0.001134792               0.000000000               0.000000000               0.000000000               0.000000000               0.000194332               0.004984250              -0.001189877              -0.000550156               0.001844785               0.001294629               0.000000000               0.000000000               0.000000000               0.000000000               0.000709992               0.005082058              -0.001083805              -0.000369010               0.001817006               0.001447996               0.000000000               0.000000000               0.000000000               0.000000000               0.001236880               0.005141985              -0.000965445              -0.000178918               0.001773617               0.001594699               0.000000000               0.000000000               0.000000000               0.000000000               0.001772943               0.005157878              -0.000817145               0.000020118               0.001712569               0.001732687               0.000000000               0.000000000               0.000000000               0.000000000               0.002325367               0.005135104              -0.000616845               0.000230122               0.001634977               0.001865099               0.000000000               0.000000000               0.000000000               0.000000000               0.002890235               0.005080389              -0.000345942               0.000448785               0.001543851               0.001992636               0.000000000               0.000000000               0.000000000               0.000000000               0.003282334               0.005084445              -0.000204777               0.000595314               0.001496360               0.002091674               0.000000000               0.000000000               0.000000000               0.000000000              -0.013632575              -0.001246897               0.000676040              -0.004956351               0.001236476              -0.003719874               0.000000000               0.000000000               0.000000000               0.000000000              -0.009261002              -0.000562222              -0.000065972              -0.003402596               0.000946785              -0.002455811               0.000000000               0.000000000               0.000000000               0.000000000              -0.005854100              -0.000100835              -0.000761374              -0.002182681               0.000693944              -0.001488738               0.000000000               0.000000000               0.000000000               0.000000000              -0.004034080               0.000819243              -0.000995841              -0.001615183               0.000811469              -0.000803714               0.000000000               0.000000000               0.000000000               0.000000000              -0.002929115               0.001747925              -0.001041508              -0.001316906               0.001021603              -0.000295303               0.000000000               0.000000000               0.000000000               0.000000000              -0.002164169               0.002541493              -0.001005202              -0.001129248               0.001223571               0.000094324               0.000000000               0.000000000               0.000000000               0.000000000              -0.001563338               0.003179700              -0.000940417              -0.000983712               0.001387793               0.000404081               0.000000000               0.000000000               0.000000000               0.000000000              -0.001040037               0.003692603              -0.000868806              -0.000851587               0.001514718               0.000663130               0.000000000               0.000000000               0.000000000               0.000000000              -0.000546857               0.004094655              -0.000800689              -0.000716902               0.001603838               0.000886937               0.000000000               0.000000000               0.000000000               0.000000000              -0.000056499               0.004401136              -0.000739422              -0.000571328               0.001657473               0.001086145               0.000000000               0.000000000               0.000000000               0.000000000               0.000449614               0.004638006              -0.000683930              -0.000411145               0.001683035               0.001271890               0.000000000               0.000000000               0.000000000               0.000000000               0.000982661               0.004822186              -0.000628504              -0.000234275               0.001685471               0.001451196               0.000000000               0.000000000               0.000000000               0.000000000               0.001553942               0.004960761              -0.000564636              -0.000037367               0.001666026               0.001628659               0.000000000               0.000000000               0.000000000               0.000000000               0.002173373               0.005050496              -0.000486367               0.000183701               0.001622248               0.001805949               0.000000000               0.000000000               0.000000000               0.000000000               0.002859705               0.005089262              -0.000378190               0.000436227               0.001550994               0.001987222               0.000000000               0.000000000               0.000000000               0.000000000               0.003630819               0.005065014              -0.000217337               0.000728423               0.001445513               0.002173936               0.000000000               0.000000000               0.000000000               0.000000000               0.004217280               0.005097272              -0.000132806               0.000944311               0.001384303               0.002328615               0.000000000               0.000000000               0.000000000               0.000000000               0.000000000               0.000000000               0.000000000               0.000000000               0.000000000               0.000000000               0.000000000               0.000000000               0.000000000               0.000000000               0.000000000               0.000000000               0.000000000               0.000000000               0.000000000               0.000000000               0.000000000               0.000000000               0.000000000               0.000000000               0.000000000               0.000000000               0.000000000               0.000000000               0.000000000               0.000000000               0.000000000               0.000000000               0.000000000               0.000000000               0.000000000               0.000000000               0.000000000               0.000000000               0.000000000               0.000000000               0.000000000               0.000000000               0.000000000               0.000000000               0.000000000               0.000000000               0.000000000               0.000000000               0.000000000               0.000000000               0.000000000               0.000000000               0.000000000               0.000000000               0.000000000               0.000000000               0.000000000               0.000000000               0.000000000               0.000000000               0.000000000               0.000000000               0.000000000               0.000000000               0.000000000               0.000000000               0.000000000               0.000000000               0.000000000               0.000000000               0.000000000               0.000000000               0.000000000               0.000000000               0.000000000               0.000000000               0.000000000               0.000000000               0.000000000               0.000000000               0.000000000               0.000000000               0.000000000               0.000000000               0.000000000               0.000000000               0.000000000               0.000000000               0.000000000               0.000000000               0.000000000               0.000000000               0.000000000               0.000000000               0.000000000               0.000000000               0.000000000               0.000000000               0.000000000               0.000000000               0.000000000               0.000000000               0.000000000               0.000000000               0.000000000               0.000000000               0.000000000               0.000000000               0.000000000               0.000000000               0.000000000               0.000000000               0.000000000               0.000000000               0.000000000               0.000000000               0.000000000               0.000000000               0.000000000               0.000000000               0.000000000               0.000000000               0.000000000               0.000000000               0.000000000               0.000000000               0.000000000               0.000000000               0.000000000               0.000000000               0.000000000               0.000000000               0.000000000               0.000000000               0.000000000               0.000000000               0.000000000               0.000000000               0.000000000               0.000000000               0.000000000               0.000000000               0.000000000               0.000000000               0.000000000               0.000000000               0.000000000               0.000000000               0.000000000               0.000000000               0.000000000               0.000000000               0.000000000               0.000000000               0.000000000               0.000000000               0.000000000               0.000000000               0.000000000               0.000000000               0.000000000               0.000000000               0.000000000               0.000000000               0.000000000               0.000000000               0.000000000               0.000000000               0.000000000               0.000000000               0.000000000               0.000000000               0.000000000               0.000000000               0.000000000               0.000000000               0.000000000               0.000000000               0.000000000               0.000000000               0.000000000               0.000000000               0.000000000               0.000000000               0.000000000               0.000000000               0.000000000               0.000000000               0.000000000               0.000000000               0.000000000               0.000000000               0.000000000               0.000000000               0.000000000               0.000000000               0.000000000               0.000000000               0.000000000               0.000000000               0.000000000               0.000000000               0.000000000               0.000000000               0.000000000               0.000000000               0.000000000               0.000000000               0.000000000               0.000000000               0.000000000               0.000000000               0.000000000               0.000000000               0.000000000               0.000000000               0.000000000               0.000000000               0.000000000               0.000000000               0.000000000               0.000000000               0.000000000               0.000000000               0.000000000               0.000000000               0.000000000               0.000000000               0.000000000               0.000000000               0.000000000               0.000000000               0.000000000               0.000000000               0.000000000               0.000000000               0.000000000               0.000000000               0.000000000               0.000000000               0.000000000               0.000000000               0.000000000               0.000000000               0.000000000               0.000000000               0.000000000               0.000000000               0.000000000               0.000000000               0.000000000               0.000000000               0.000000000               0.000000000               0.000000000               0.000000000               0.000000000               0.000000000               0.000000000               0.000000000               0.000000000               0.000000000               0.000000000               0.000000000               0.000000000               0.000000000               0.000000000               0.000000000               0.000000000               0.000000000               0.000000000               0.000000000               0.000000000               0.000000000               0.000000000               0.000000000               0.000000000               0.000000000               0.000000000               0.000000000               0.000000000               0.000000000               0.000000000               0.000000000               0.000000000               0.000000000               0.000000000               0.000000000               0.000000000               0.000000000               0.000000000               0.000000000               0.000000000               0.000000000               0.000000000               0.000000000               0.000000000               0.000000000               0.000000000               0.000000000               0.000000000               0.000000000               0.000000000               0.000000000               0.000000000               0.000000000               0.000000000               0.000000000               0.000000000               0.000000000               0.000000000               0.000000000               0.000000000               0.000000000               0.000000000               0.000000000               0.000000000               0.000000000               0.000000000               0.000000000               0.000000000               0.000000000               0.000000000               0.000000000               0.000000000               0.000000000               0.000000000               0.000000000               0.000000000               0.000000000               0.000000000               0.000000000               0.000000000               0.000000000               0.000000000               0.000000000               0.000000000               0.000000000               0.000000000               0.000000000               0.000000000               0.000000000               0.000000000               0.000000000               0.002329784               0.023519233               0.001591516              -0.002066230               0.008528409               0.006462179               0.000000000               0.000000000               0.000000000               0.000000000               0.002108119               0.018166224               0.000721513              -0.001480230               0.006548757               0.005068527               0.000000000               0.000000000               0.000000000               0.000000000               0.002577857               0.013875015              -0.000138370              -0.000767679               0.004880852               0.004113173               0.000000000               0.000000000               0.000000000               0.000000000               0.002300454               0.011458919              -0.000492335              -0.000569693               0.004009499               0.003439806               0.000000000               0.000000000               0.000000000               0.000000000               0.001831324               0.009926613              -0.000627450              -0.000554079               0.003493531               0.002939452               0.000000000               0.000000000               0.000000000               0.000000000               0.001362458               0.008842540              -0.000664573              -0.000594395               0.003145615               0.002551221               0.000000000               0.000000000               0.000000000               0.000000000               0.000953090               0.007994459              -0.000658658              -0.000641897               0.002878759               0.002236862               0.000000000               0.000000000               0.000000000               0.000000000               0.000616619               0.007275321              -0.000633871              -0.000678182               0.002651143               0.001972962               0.000000000               0.000000000               0.000000000               0.000000000               0.000356141               0.006624993              -0.000602776              -0.000694570               0.002439832               0.001745262               0.000000000               0.000000000               0.000000000               0.000000000               0.000161814               0.006014470              -0.000570967              -0.000691127               0.002235179               0.001544052               0.000000000               0.000000000               0.000000000               0.000000000               0.000015763               0.005421799              -0.000539193              -0.000671812               0.002031186               0.001359373               0.000000000               0.000000000               0.000000000               0.000000000              -0.000085738               0.004833688              -0.000501767              -0.000636361               0.001823334               0.001186972               0.000000000               0.000000000               0.000000000               0.000000000              -0.000144367               0.004232569              -0.000453534              -0.000583207               0.001605245               0.001022037               0.000000000               0.000000000               0.000000000               0.000000000              -0.000165097               0.003604960              -0.000393000              -0.000512530               0.001372485               0.000859955               0.000000000               0.000000000               0.000000000               0.000000000              -0.000146260               0.002941793              -0.000307718              -0.000422571               0.001121445               0.000698874               0.000000000               0.000000000               0.000000000               0.000000000              -0.000084392               0.002221902              -0.000177355              -0.000309384               0.000843755               0.000534371               0.000000000               0.000000000               0.000000000               0.000000000              -0.000099994               0.001683538              -0.000108727              -0.000247939               0.000643820               0.000395881               0.000000000               0.000000000               0.000000000               0.000000000               0.002478605               0.022045928               0.002951175              -0.001826261               0.007957323               0.006131062               0.000000000               0.000000000               0.000000000               0.000000000               0.001898764               0.017240165               0.001336105              -0.001442981               0.006227658               0.004784677               0.000000000               0.000000000               0.000000000               0.000000000               0.001987513               0.013511682              -0.000246390              -0.000943641               0.004818396               0.003874755               0.000000000               0.000000000               0.000000000               0.000000000               0.001582949               0.011376118              -0.000873999              -0.000828407               0.004068137               0.003239730               0.000000000               0.000000000               0.000000000               0.000000000               0.001110787               0.009983341              -0.001101494              -0.000831371               0.003604870               0.002773500               0.000000000               0.000000000               0.000000000               0.000000000               0.000693816               0.008964002              -0.001154214              -0.000860318               0.003274743               0.002414426               0.000000000               0.000000000               0.000000000               0.000000000               0.000355653               0.008141775              -0.001131631              -0.000884350               0.003008681               0.002124331               0.000000000               0.000000000               0.000000000               0.000000000               0.000100634               0.007430768              -0.001079143              -0.000891106               0.002773933               0.001882827               0.000000000               0.000000000               0.000000000               0.000000000              -0.000078414               0.006785359              -0.001018936              -0.000877573               0.002554288               0.001676715               0.000000000               0.000000000               0.000000000               0.000000000              -0.000204233               0.006184226              -0.000959170              -0.000849614               0.002344593               0.001494979               0.000000000               0.000000000               0.000000000               0.000000000              -0.000285769               0.005614496              -0.000897915              -0.000808974               0.002141138               0.001332164               0.000000000               0.000000000               0.000000000               0.000000000              -0.000327331               0.005063050              -0.000824576              -0.000755629               0.001939543               0.001183914               0.000000000               0.000000000               0.000000000               0.000000000              -0.000334551               0.004515801              -0.000731043              -0.000689930               0.001735229               0.001045298               0.000000000               0.000000000               0.000000000               0.000000000              -0.000299850               0.003971844              -0.000620420              -0.000608923               0.001526909               0.000917986               0.000000000               0.000000000               0.000000000               0.000000000              -0.000225466               0.003431787              -0.000473140              -0.000513522               0.001315091               0.000801569               0.000000000               0.000000000               0.000000000               0.000000000              -0.000121990               0.002896013              -0.000264429              -0.000407747               0.001101244               0.000693496               0.000000000               0.000000000               0.000000000               0.000000000              -0.000101340               0.002529622              -0.000157172              -0.000354204               0.000961267               0.000607063               0.000000000               0.000000000               0.000000000               0.000000000               0.002599133               0.019819965               0.003892386              -0.001502819               0.007107528               0.005604709               0.000000000               0.000000000               0.000000000               0.000000000               0.001523592               0.015865257               0.001762725              -0.001411807               0.005758968               0.004347161               0.000000000               0.000000000               0.000000000               0.000000000               0.001087853               0.012975049              -0.000291932              -0.001213933               0.004729618               0.003515684               0.000000000               0.000000000               0.000000000               0.000000000               0.000541001               0.011235172              -0.001060257              -0.001201518               0.004145526               0.002944008               0.000000000               0.000000000               0.000000000               0.000000000               0.000094916               0.010026922              -0.001318549              -0.001217769               0.003748197               0.002530428               0.000000000               0.000000000               0.000000000               0.000000000              -0.000226912               0.009087427              -0.001362528              -0.001221018               0.003436118               0.002215100               0.000000000               0.000000000               0.000000000               0.000000000              -0.000441608               0.008298944              -0.001318357              -0.001202968               0.003167276               0.001964308               0.000000000               0.000000000               0.000000000               0.000000000              -0.000570225               0.007596674              -0.001242632              -0.001163416               0.002920005               0.001756588               0.000000000               0.000000000               0.000000000               0.000000000              -0.000636342               0.006962452              -0.001159570              -0.001108932               0.002690438               0.001581506               0.000000000               0.000000000               0.000000000               0.000000000              -0.000661478               0.006381068              -0.001079645              -0.001045685               0.002475563               0.001429878               0.000000000               0.000000000               0.000000000               0.000000000              -0.000650591               0.005844031              -0.000998085              -0.000974473               0.002272815               0.001298342               0.000000000               0.000000000               0.000000000               0.000000000              -0.000603539               0.005340758              -0.000899755              -0.000893920               0.002078208               0.001184288               0.000000000               0.000000000               0.000000000               0.000000000              -0.000526085               0.004865367              -0.000779646              -0.000805451               0.001890256               0.001084805               0.000000000               0.000000000               0.000000000               0.000000000              -0.000418714               0.004421251              -0.000642301              -0.000709672               0.001710293               0.001000620               0.000000000               0.000000000               0.000000000               0.000000000              -0.000288496               0.004014711              -0.000470867              -0.000610023               0.001541565               0.000931541               0.000000000               0.000000000               0.000000000               0.000000000              -0.000147888               0.003665904              -0.000252900              -0.000513695               0.001393188               0.000879493               0.000000000               0.000000000               0.000000000               0.000000000              -0.000096470               0.003460662              -0.000144112              -0.000468758               0.001309795               0.000841037               0.000000000               0.000000000               0.000000000               0.000000000               0.002545510               0.017117999               0.004322941              -0.001185184               0.006101003               0.004915819               0.000000000               0.000000000               0.000000000               0.000000000               0.000955510               0.014227903               0.001979505              -0.001420169               0.005215976               0.003795807               0.000000000               0.000000000               0.000000000               0.000000000              -0.000021163               0.012336485              -0.000242030              -0.001549993               0.004628785               0.003078792               0.000000000               0.000000000               0.000000000               0.000000000              -0.000648792               0.011026600              -0.001016576              -0.001621618               0.004216036               0.002594418               0.000000000               0.000000000               0.000000000               0.000000000              -0.001007558               0.010004434              -0.001251460              -0.001628385               0.003877573               0.002249188               0.000000000               0.000000000               0.000000000               0.000000000              -0.001182552               0.009141147              -0.001274774              -0.001586097               0.003575717               0.001989621               0.000000000               0.000000000               0.000000000               0.000000000              -0.001236810               0.008381938              -0.001214798              -0.001511542               0.003297799               0.001786256               0.000000000               0.000000000               0.000000000               0.000000000              -0.001217084               0.007699339              -0.001127239              -0.001418821               0.003039361               0.001620540               0.000000000               0.000000000               0.000000000               0.000000000              -0.001150073               0.007086945              -0.001041637              -0.001317143               0.002801339               0.001484196               0.000000000               0.000000000               0.000000000               0.000000000              -0.001056518               0.006537030              -0.000961280              -0.001213320               0.002583428               0.001370108               0.000000000               0.000000000               0.000000000               0.000000000              -0.000940922               0.006038006              -0.000877931              -0.001107594               0.002381846               0.001274252               0.000000000               0.000000000               0.000000000               0.000000000              -0.000800373               0.005581586              -0.000777504              -0.000997836               0.002193122               0.001195286               0.000000000               0.000000000               0.000000000               0.000000000              -0.000642172               0.005168846              -0.000656497              -0.000886918               0.002018571               0.001131652               0.000000000               0.000000000               0.000000000               0.000000000              -0.000475621               0.004806998              -0.000521322              -0.000779231               0.001862060               0.001082829               0.000000000               0.000000000               0.000000000               0.000000000              -0.000305384               0.004510103              -0.000365907              -0.000678280               0.001729446               0.001051166               0.000000000               0.000000000               0.000000000               0.000000000              -0.000144626               0.004301268              -0.000189673              -0.000591892               0.001631039               0.001039147               0.000000000               0.000000000               0.000000000               0.000000000              -0.000078806               0.004204356              -0.000104165              -0.000555095               0.001586470               0.001031374               0.000000000               0.000000000               0.000000000               0.000000000               0.002176444               0.014215395               0.004261407              -0.000960759               0.005058670               0.004097911               0.000000000               0.000000000               0.000000000               0.000000000               0.000195812               0.012504036               0.002021231              -0.001489573               0.004664494               0.003174921               0.000000000               0.000000000               0.000000000               0.000000000              -0.001206042               0.011642072              -0.000072436              -0.001907520               0.004516492               0.002608972               0.000000000               0.000000000               0.000000000               0.000000000              -0.001808338               0.010731993              -0.000748998              -0.002019621               0.004250502               0.002230881               0.000000000               0.000000000               0.000000000               0.000000000              -0.002007845               0.009871528              -0.000936562              -0.001986878               0.003952769               0.001965891               0.000000000               0.000000000               0.000000000               0.000000000              -0.001994540               0.009077014              -0.000944874              -0.001882575               0.003653166               0.001770591               0.000000000               0.000000000               0.000000000               0.000000000              -0.001867294               0.008350841              -0.000888718              -0.001744086               0.003364948               0.001620862               0.000000000               0.000000000               0.000000000               0.000000000              -0.001687323               0.007695914              -0.000816747              -0.001594731               0.003096856               0.001502125               0.000000000               0.000000000               0.000000000               0.000000000              -0.001486981               0.007115534              -0.000750822              -0.001447056               0.002854173               0.001407117               0.000000000               0.000000000               0.000000000               0.000000000              -0.001282747               0.006596138              -0.000691584              -0.001305544               0.002633872               0.001328328               0.000000000               0.000000000               0.000000000               0.000000000              -0.001071795               0.006127998              -0.000626465              -0.001167920               0.002431952               0.001264032               0.000000000               0.000000000               0.000000000               0.000000000              -0.000851933               0.005706837              -0.000543677              -0.001032827               0.002246535               0.001213708               0.000000000               0.000000000               0.000000000               0.000000000              -0.000634389               0.005340560              -0.000445037              -0.000905464               0.002081990               0.001176526               0.000000000               0.000000000               0.000000000               0.000000000              -0.000433172               0.005042364              -0.000337839              -0.000792733               0.001945016               0.001152283               0.000000000               0.000000000               0.000000000               0.000000000              -0.000254891               0.004825705              -0.000223716              -0.000698795               0.001841484               0.001142689               0.000000000               0.000000000               0.000000000               0.000000000              -0.000109892               0.004699421              -0.000109644              -0.000628635               0.001776003               0.001147368               0.000000000               0.000000000               0.000000000               0.000000000              -0.000052101               0.004655484              -0.000056650              -0.000601472               0.001752303               0.001150831               0.000000000               0.000000000               0.000000000               0.000000000               0.001439161               0.011346362               0.003800114              -0.000878611               0.004074952               0.003196341               0.000000000               0.000000000               0.000000000               0.000000000              -0.000707474               0.010826421               0.001949917              -0.001618602               0.004148305               0.002529702               0.000000000               0.000000000               0.000000000               0.000000000              -0.002336228               0.010909060               0.000227684              -0.002239713               0.004382888               0.002143175               0.000000000               0.000000000               0.000000000               0.000000000              -0.002785687               0.010328185              -0.000301379              -0.002335650               0.004221244               0.001885594               0.000000000               0.000000000               0.000000000               0.000000000              -0.002764997               0.009601075              -0.000454421              -0.002237003               0.003945994               0.001708991               0.000000000               0.000000000               0.000000000               0.000000000              -0.002542560               0.008873680              -0.000472894              -0.002062665               0.003645419               0.001582754               0.000000000               0.000000000               0.000000000               0.000000000              -0.002239121               0.008191332              -0.000445640              -0.001863582               0.003351611               0.001488028               0.000000000               0.000000000               0.000000000               0.000000000              -0.001914611               0.007574937              -0.000412996              -0.001664842               0.003079901               0.001415059               0.000000000               0.000000000               0.000000000               0.000000000              -0.001600268               0.007028181              -0.000386741              -0.001478620               0.002835577               0.001356957               0.000000000               0.000000000               0.000000000               0.000000000              -0.001304702               0.006531892              -0.000362910              -0.001305746               0.002612524               0.001306778               0.000000000               0.000000000               0.000000000               0.000000000              -0.001025394               0.006083296              -0.000329907              -0.001144932               0.002409389               0.001264457               0.000000000               0.000000000               0.000000000               0.000000000              -0.000760722               0.005687441              -0.000277328              -0.000996198               0.002227861               0.001231662               0.000000000               0.000000000               0.000000000               0.000000000              -0.000518711               0.005359007              -0.000214899              -0.000864390               0.002074448               0.001210058               0.000000000               0.000000000               0.000000000               0.000000000              -0.000314697               0.005113522              -0.000152610              -0.000757200               0.001956890               0.001199691               0.000000000               0.000000000               0.000000000               0.000000000              -0.000159468               0.004952405              -0.000091232              -0.000678849               0.001877068               0.001198219               0.000000000               0.000000000               0.000000000               0.000000000              -0.000057831               0.004865181              -0.000037914              -0.000629833               0.001831655               0.001201822               0.000000000               0.000000000               0.000000000               0.000000000              -0.000025516               0.004834781              -0.000017412              -0.000613915               0.001816216               0.001202301               0.000000000               0.000000000               0.000000000               0.000000000               0.000375225               0.008701189               0.003049675              -0.000946939               0.003216013               0.002269073               0.000000000               0.000000000               0.000000000               0.000000000              -0.001695872               0.009292224               0.001820013              -0.001797476               0.003696535               0.001899059               0.000000000               0.000000000               0.000000000               0.000000000              -0.003296281               0.010139286               0.000644666              -0.002503510               0.004214232               0.001710722               0.000000000               0.000000000               0.000000000               0.000000000              -0.003484324               0.009810457               0.000252399              -0.002532922               0.004114427               0.001581505               0.000000000               0.000000000               0.000000000               0.000000000              -0.003215091               0.009200041               0.000097663              -0.002355658               0.003851869               0.001496211               0.000000000               0.000000000               0.000000000               0.000000000              -0.002792843               0.008544512               0.000037064              -0.002115375               0.003553267               0.001437892               0.000000000               0.000000000               0.000000000               0.000000000              -0.002337434               0.007917402               0.000009303              -0.001866208               0.003261177               0.001394969               0.000000000               0.000000000               0.000000000               0.000000000              -0.001900477               0.007350552              -0.000011172              -0.001631494               0.002993991               0.001362497               0.000000000               0.000000000               0.000000000               0.000000000              -0.001505580               0.006829743              -0.000032469              -0.001418307               0.002749327               0.001331020               0.000000000               0.000000000               0.000000000               0.000000000              -0.001155885               0.006350005              -0.000050208              -0.001227205               0.002525715               0.001298511               0.000000000               0.000000000               0.000000000               0.000000000              -0.000845067               0.005916491              -0.000057191              -0.001056459               0.002324297               0.001267838               0.000000000               0.000000000               0.000000000               0.000000000              -0.000570802               0.005550425              -0.000047109              -0.000907852               0.002152740               0.001244889               0.000000000               0.000000000               0.000000000               0.000000000              -0.000341103               0.005274005              -0.000033756              -0.000787162               0.002020372               0.001233209               0.000000000               0.000000000               0.000000000               0.000000000              -0.000168495               0.005087326              -0.000024060              -0.000699100               0.001928791               0.001229692               0.000000000               0.000000000               0.000000000               0.000000000              -0.000061365               0.004974367              -0.000012303              -0.000644806               0.001873041               0.001228235               0.000000000               0.000000000               0.000000000               0.000000000              -0.000010875               0.004916997              -0.000002886              -0.000618701               0.001845216               0.001226515               0.000000000               0.000000000               0.000000000               0.000000000              -0.000001679               0.004897406              -0.000001887              -0.000612804               0.001836720               0.001223916               0.000000000               0.000000000               0.000000000               0.000000000              -0.000887859               0.006477106               0.002139888              -0.001142584               0.002539874               0.001397291               0.000000000               0.000000000               0.000000000               0.000000000              -0.002660833               0.007919037               0.001679303              -0.001987688               0.003302215               0.001314527               0.000000000               0.000000000               0.000000000               0.000000000              -0.004043619               0.009356452               0.001144357              -0.002685907               0.004014088               0.001328181               0.000000000               0.000000000               0.000000000               0.000000000              -0.003952371               0.009293494               0.000842711              -0.002643819               0.003979073               0.001335254               0.000000000               0.000000000               0.000000000               0.000000000              -0.003473394               0.008832007               0.000653516              -0.002406517               0.003746145               0.001339628               0.000000000               0.000000000               0.000000000               0.000000000              -0.002895575               0.008270487               0.000525561              -0.002119646               0.003463350               0.001343704               0.000000000               0.000000000               0.000000000               0.000000000              -0.002328422               0.007713539               0.000432056              -0.001837346               0.003183603               0.001346257               0.000000000               0.000000000               0.000000000               0.000000000              -0.001811990               0.007189290               0.000358294              -0.001578154               0.002922457               0.001344304               0.000000000               0.000000000               0.000000000               0.000000000              -0.001358548               0.006693106               0.000292260              -0.001346090               0.002679710               0.001333619               0.000000000               0.000000000               0.000000000               0.000000000              -0.000970751               0.006226695               0.000232810              -0.001142366               0.002456333               0.001313967               0.000000000               0.000000000               0.000000000               0.000000000              -0.000646594               0.005806604               0.000180959              -0.000968296               0.002258281               0.001289985               0.000000000               0.000000000               0.000000000               0.000000000              -0.000374585               0.005470989               0.000133312              -0.000824341               0.002098425               0.001274084               0.000000000               0.000000000               0.000000000               0.000000000              -0.000168830               0.005232790               0.000088209              -0.000717408               0.001983382               0.001265974               0.000000000               0.000000000               0.000000000               0.000000000              -0.000041044               0.005077926               0.000049987              -0.000650130               0.001909335               0.001259205               0.000000000               0.000000000               0.000000000               0.000000000               0.000019411               0.004991335               0.000021968              -0.000616636               0.001869307               0.001252671               0.000000000               0.000000000               0.000000000               0.000000000               0.000030826               0.004957111               0.000004176              -0.000608078               0.001855046               0.001246969               0.000000000               0.000000000               0.000000000               0.000000000               0.000025026               0.004952807              -0.000002073              -0.000609714               0.001854157               0.001244443               0.000000000               0.000000000               0.000000000               0.000000000              -0.002347108               0.004416213               0.001192027              -0.001432189               0.001949452               0.000517263               0.000000000               0.000000000               0.000000000               0.000000000              -0.003465905               0.006318999               0.001528582              -0.002089585               0.002802840               0.000713255               0.000000000               0.000000000               0.000000000               0.000000000              -0.004482928               0.008181826               0.001669199              -0.002703820               0.003628521               0.000924701               0.000000000               0.000000000               0.000000000               0.000000000              -0.004244296               0.008523217               0.001463458              -0.002657007               0.003726713               0.001069706               0.000000000               0.000000000               0.000000000               0.000000000              -0.003685871               0.008348288               0.001239732              -0.002425732               0.003591312               0.001165580               0.000000000               0.000000000               0.000000000               0.000000000              -0.003058885               0.007993677               0.001042095              -0.002146286               0.003379961               0.001233675               0.000000000               0.000000000               0.000000000               0.000000000              -0.002452571               0.007577871               0.000882609              -0.001866944               0.003148246               0.001281303               0.000000000               0.000000000               0.000000000               0.000000000              -0.001901110               0.007146377               0.000755069              -0.001606209               0.002917505               0.001311295               0.000000000               0.000000000               0.000000000               0.000000000              -0.001418096               0.006715267               0.000642364              -0.001371191               0.002695463               0.001324272               0.000000000               0.000000000               0.000000000               0.000000000              -0.001007501               0.006294206               0.000538326              -0.001164586               0.002486243               0.001321657               0.000000000               0.000000000               0.000000000               0.000000000              -0.000658646               0.005913946               0.000440562              -0.000986233               0.002300040               0.001313807               0.000000000               0.000000000               0.000000000               0.000000000              -0.000368499               0.005592390               0.000340783              -0.000837234               0.002143189               0.001305955               0.000000000               0.000000000               0.000000000               0.000000000              -0.000148837               0.005335494               0.000241141              -0.000722749               0.002019397               0.001296648               0.000000000               0.000000000               0.000000000               0.000000000              -0.000004697               0.005154386               0.000152511              -0.000646058               0.001933464               0.001287406               0.000000000               0.000000000               0.000000000               0.000000000               0.000069536               0.005047010               0.000076395              -0.000604799               0.001883919               0.001279121               0.000000000               0.000000000               0.000000000               0.000000000               0.000090341               0.005004997               0.000022565              -0.000591745               0.001865564               0.001273819               0.000000000               0.000000000               0.000000000               0.000000000               0.000085104               0.004998099               0.000002310              -0.000592847               0.001863632               0.001270785               0.000000000               0.000000000               0.000000000               0.000000000              -0.004192701               0.002555764               0.000277042              -0.001891730               0.001482488              -0.000409242               0.000000000               0.000000000               0.000000000               0.000000000              -0.004366004               0.004704000               0.001315511              -0.002225246               0.002309732               0.000084486               0.000000000               0.000000000               0.000000000               0.000000000              -0.004826249               0.006791708               0.002090779              -0.002658801               0.003150146               0.000491346               0.000000000               0.000000000               0.000000000               0.000000000              -0.004465503               0.007516938               0.002047379              -0.002614175               0.003377012               0.000762837               0.000000000               0.000000000               0.000000000               0.000000000              -0.003870507               0.007670482               0.001828924              -0.002410245               0.003360216               0.000949972               0.000000000               0.000000000               0.000000000               0.000000000              -0.003229472               0.007563395               0.001590159              -0.002156471               0.003239930               0.001083459               0.000000000               0.000000000               0.000000000               0.000000000              -0.002606128               0.007330379               0.001379078              -0.001893591               0.003074632               0.001181041               0.000000000               0.000000000               0.000000000               0.000000000              -0.002031501               0.007036284               0.001203042              -0.001641344               0.002892519               0.001251175               0.000000000               0.000000000               0.000000000               0.000000000              -0.001517932               0.006708502               0.001045642              -0.001407784               0.002705406               0.001297622               0.000000000               0.000000000               0.000000000               0.000000000              -0.001072511               0.006368310               0.000902208              -0.001198227               0.002522158               0.001323930               0.000000000               0.000000000               0.000000000               0.000000000              -0.000688951               0.006037144               0.000769688              -0.001012997               0.002350027               0.001337030               0.000000000               0.000000000               0.000000000               0.000000000              -0.000361445               0.005732507               0.000629471              -0.000852103               0.002194851               0.001342748               0.000000000               0.000000000               0.000000000               0.000000000              -0.000095701               0.005471838               0.000480233              -0.000719866               0.002063883               0.001344017               0.000000000               0.000000000               0.000000000               0.000000000               0.000093860               0.005264933               0.000335921              -0.000622917               0.001962599               0.001339682               0.000000000               0.000000000               0.000000000               0.000000000               0.000203267               0.005117427               0.000200526              -0.000563452               0.001893609               0.001330157               0.000000000               0.000000000               0.000000000               0.000000000               0.000238049               0.005036241               0.000084592              -0.000540260               0.001858817               0.001318557               0.000000000               0.000000000               0.000000000               0.000000000               0.000223313               0.005004104               0.000029523              -0.000541769               0.001848608               0.001306838               0.000000000               0.000000000               0.000000000               0.000000000              -0.006302723               0.001037861              -0.000520908              -0.002493251               0.001177029              -0.001316222               0.000000000               0.000000000               0.000000000               0.000000000              -0.005409682               0.003174913               0.001023770              -0.002425490               0.001866788              -0.000558702               0.000000000               0.000000000               0.000000000               0.000000000              -0.005104755               0.005202303               0.002293572              -0.002564565               0.002588938               0.000024372               0.000000000               0.000000000               0.000000000               0.000000000              -0.004532650               0.006195773               0.002449747              -0.002474210               0.002889973               0.000415763               0.000000000               0.000000000               0.000000000               0.000000000              -0.003885666               0.006649022               0.002291306              -0.002288247               0.002979067               0.000690819               0.000000000               0.000000000               0.000000000               0.000000000              -0.003237692               0.006802605               0.002055825              -0.002064456               0.002955664               0.000891208               0.000000000               0.000000000               0.000000000               0.000000000              -0.002620139               0.006786850               0.001824229              -0.001830905               0.002872562               0.001041657               0.000000000               0.000000000               0.000000000               0.000000000              -0.002044134               0.006670839               0.001619161              -0.001600402               0.002757058               0.001156656               0.000000000               0.000000000               0.000000000               0.000000000              -0.001513364               0.006484605               0.001434488              -0.001378084               0.002620874               0.001242790               0.000000000               0.000000000               0.000000000               0.000000000              -0.001034676               0.006256076               0.001265056              -0.001170010               0.002475341               0.001305331               0.000000000               0.000000000               0.000000000               0.000000000              -0.000617168               0.006008484               0.001105834              -0.000982496               0.002330307               0.001347810               0.000000000               0.000000000               0.000000000               0.000000000              -0.000252691               0.005762343               0.000941690              -0.000815050               0.002192445               0.001377395               0.000000000               0.000000000               0.000000000               0.000000000               0.000063731               0.005539383               0.000763448              -0.000668522               0.002069283               0.001400761               0.000000000               0.000000000               0.000000000               0.000000000               0.000315435               0.005346682               0.000576551              -0.000550046               0.001965558               0.001415512               0.000000000               0.000000000               0.000000000               0.000000000               0.000479713               0.005184533               0.000383499              -0.000468173               0.001884218               0.001416045               0.000000000               0.000000000               0.000000000               0.000000000               0.000543841               0.005071917               0.000186942              -0.000430048               0.001833971               0.001403923               0.000000000               0.000000000               0.000000000               0.000000000               0.000530858               0.005021072               0.000083991              -0.000428561               0.001816528               0.001387966               0.000000000               0.000000000               0.000000000               0.000000000              -0.008526381              -0.000054494              -0.001084996              -0.003190578               0.001045354              -0.002145224               0.000000000               0.000000000               0.000000000               0.000000000              -0.006538435               0.001818630               0.000698256              -0.002679238               0.001499279              -0.001179959               0.000000000               0.000000000               0.000000000               0.000000000              -0.005343310               0.003549081               0.002245837              -0.002447372               0.001998803              -0.000448569               0.000000000               0.000000000               0.000000000               0.000000000              -0.004469326               0.004665151               0.002576970              -0.002259137               0.002308079               0.000048943               0.000000000               0.000000000               0.000000000               0.000000000              -0.003733385               0.005353632               0.002506739              -0.002069219               0.002474265               0.000405046               0.000000000               0.000000000               0.000000000               0.000000000              -0.003072469               0.005753239               0.002308720              -0.001871327               0.002541502               0.000670175               0.000000000               0.000000000               0.000000000               0.000000000              -0.002467645               0.005959720               0.002089770              -0.001670328               0.002543329               0.000873001               0.000000000               0.000000000               0.000000000               0.000000000              -0.001903624               0.006035136               0.001888115              -0.001468248               0.002501107               0.001032859               0.000000000               0.000000000               0.000000000               0.000000000              -0.001372298               0.006014122               0.001702679              -0.001266374               0.002426812               0.001160437               0.000000000               0.000000000               0.000000000               0.000000000              -0.000876707               0.005926101               0.001525869              -0.001069526               0.002331855               0.001262330               0.000000000               0.000000000               0.000000000               0.000000000              -0.000425746               0.005795343               0.001359000              -0.000884071               0.002226452               0.001342381               0.000000000               0.000000000               0.000000000               0.000000000              -0.000012075               0.005651356               0.001192228              -0.000710947               0.002120749               0.001409802               0.000000000               0.000000000               0.000000000               0.000000000               0.000367384               0.005506805               0.001010133              -0.000550581               0.002019110               0.001468529               0.000000000               0.000000000               0.000000000               0.000000000               0.000702202               0.005366901               0.000804880              -0.000407536               0.001924794               0.001517258               0.000000000               0.000000000               0.000000000               0.000000000               0.000961992               0.005230710               0.000567605              -0.000293091               0.001841250               0.001548159               0.000000000               0.000000000               0.000000000               0.000000000               0.001119284               0.005109095               0.000296837              -0.000218905               0.001775983               0.001557078               0.000000000               0.000000000               0.000000000               0.000000000               0.001167042               0.005053358               0.000153576              -0.000194029               0.001749112               0.001555083               0.000000000               0.000000000               0.000000000               0.000000000              -0.010652912              -0.000733125              -0.001311274              -0.003903199               0.001056684              -0.002846515               0.000000000               0.000000000               0.000000000               0.000000000              -0.007651965               0.000716577               0.000403420              -0.002959056               0.001225203              -0.001733854               0.000000000               0.000000000               0.000000000               0.000000000              -0.005550365               0.001996973               0.001949412              -0.002331005               0.001442649              -0.000888356               0.000000000               0.000000000               0.000000000               0.000000000              -0.004323489               0.003105463               0.002370544              -0.002009488               0.001704971              -0.000304517               0.000000000               0.000000000               0.000000000               0.000000000              -0.003465296               0.003946244               0.002379994              -0.001792763               0.001912988               0.000120225               0.000000000               0.000000000               0.000000000               0.000000000              -0.002777347               0.004543026               0.002238175              -0.001609380               0.002050786               0.000441406               0.000000000               0.000000000               0.000000000               0.000000000              -0.002177541               0.004945075               0.002058934              -0.001434710               0.002126578               0.000691868               0.000000000               0.000000000               0.000000000               0.000000000              -0.001625998               0.005203914               0.001886445              -0.001260236               0.002154699               0.000894463               0.000000000               0.000000000               0.000000000               0.000000000              -0.001109103               0.005352687               0.001722364              -0.001084998               0.002145877               0.001060879               0.000000000               0.000000000               0.000000000               0.000000000              -0.000613561               0.005416100               0.001563178              -0.000907096               0.002107714               0.001200617               0.000000000               0.000000000               0.000000000               0.000000000              -0.000131769               0.005422311               0.001413881              -0.000727201               0.002049819               0.001322618               0.000000000               0.000000000               0.000000000               0.000000000               0.000338387               0.005400731               0.001267676              -0.000548196               0.001982957               0.001434762               0.000000000               0.000000000               0.000000000               0.000000000               0.000794450               0.005356935               0.001107843              -0.000371698               0.001909526               0.001537828               0.000000000               0.000000000               0.000000000               0.000000000               0.001229462               0.005290064               0.000915752              -0.000200210               0.001830074               0.001629864               0.000000000               0.000000000               0.000000000               0.000000000               0.001625395               0.005203090               0.000670718              -0.000040864               0.001747967               0.001707103               0.000000000               0.000000000               0.000000000               0.000000000               0.001960126               0.005106152               0.000365022               0.000096777               0.001669775               0.001766552               0.000000000               0.000000000               0.000000000               0.000000000               0.002150775               0.005072958               0.000205027               0.000172419               0.001633496               0.001805915               0.000000000               0.000000000               0.000000000               0.000000000              -0.012435491              -0.001092863              -0.001158576              -0.004526699               0.001144604              -0.003382095               0.000000000               0.000000000               0.000000000               0.000000000              -0.008607277              -0.000083098               0.000189440              -0.003217339               0.001044740              -0.002172599               0.000000000               0.000000000               0.000000000               0.000000000              -0.005725791               0.000729176               0.001436099              -0.002238316               0.000989157              -0.001249159               0.000000000               0.000000000               0.000000000               0.000000000              -0.004159151               0.001747690               0.001825287              -0.001778140               0.001175268              -0.000602872               0.000000000               0.000000000               0.000000000               0.000000000              -0.003165060               0.002660011               0.001876914              -0.001519396               0.001393125              -0.000126271               0.000000000               0.000000000               0.000000000               0.000000000              -0.002437469               0.003387723               0.001792932              -0.001337514               0.001575067               0.000237553               0.000000000               0.000000000               0.000000000               0.000000000              -0.001836890               0.003936641               0.001669003              -0.001180912               0.001705837               0.000524925               0.000000000               0.000000000               0.000000000               0.000000000              -0.001301828               0.004348079               0.001540419              -0.001031694               0.001793243               0.000761549               0.000000000               0.000000000               0.000000000               0.000000000              -0.000800980               0.004645935               0.001415093              -0.000881108               0.001842332               0.000961224               0.000000000               0.000000000               0.000000000               0.000000000              -0.000307774               0.004847006               0.001297576              -0.000721290               0.001856082               0.001134792               0.000000000               0.000000000               0.000000000               0.000000000               0.000194332               0.004984250               0.001189877              -0.000550156               0.001844785               0.001294629               0.000000000               0.000000000               0.000000000               0.000000000               0.000709992               0.005082058               0.001083805              -0.000369010               0.001817006               0.001447996               0.000000000               0.000000000               0.000000000               0.000000000               0.001236880               0.005141985               0.000965445              -0.000178918               0.001773617               0.001594699               0.000000000               0.000000000               0.000000000               0.000000000               0.001772943               0.005157878               0.000817145               0.000020118               0.001712569               0.001732687               0.000000000               0.000000000               0.000000000               0.000000000               0.002325367               0.005135104               0.000616845               0.000230122               0.001634977               0.001865099               0.000000000               0.000000000               0.000000000               0.000000000               0.002890235               0.005080389               0.000345942               0.000448785               0.001543851               0.001992636               0.000000000               0.000000000               0.000000000               0.000000000               0.003282334               0.005084445               0.000204777               0.000595314               0.001496360               0.002091674               0.000000000               0.000000000               0.000000000               0.000000000              -0.013632575              -0.001246897              -0.000676040              -0.004956351               0.001236476              -0.003719874               0.000000000               0.000000000               0.000000000               0.000000000              -0.009261002              -0.000562222               0.000065972              -0.003402596               0.000946785              -0.002455811               0.000000000               0.000000000               0.000000000               0.000000000              -0.005854100              -0.000100835               0.000761374              -0.002182681               0.000693944              -0.001488738               0.000000000               0.000000000               0.000000000               0.000000000              -0.004034080               0.000819243               0.000995841              -0.001615183               0.000811469              -0.000803714               0.000000000               0.000000000               0.000000000               0.000000000              -0.002929115               0.001747925               0.001041508              -0.001316906               0.001021603              -0.000295303               0.000000000               0.000000000               0.000000000               0.000000000              -0.002164169               0.002541493               0.001005202              -0.001129248               0.001223571               0.000094324               0.000000000               0.000000000               0.000000000               0.000000000              -0.001563338               0.003179700               0.000940417              -0.000983712               0.001387793               0.000404081               0.000000000               0.000000000               0.000000000               0.000000000              -0.001040037               0.003692603               0.000868806              -0.000851587               0.001514718               0.000663130               0.000000000               0.000000000               0.000000000               0.000000000              -0.000546857               0.004094655               0.000800689              -0.000716902               0.001603838               0.000886937               0.000000000               0.000000000               0.000000000               0.000000000              -0.000056499               0.004401136               0.000739422              -0.000571328               0.001657473               0.001086145               0.000000000               0.000000000               0.000000000               0.000000000               0.000449614               0.004638006               0.000683930              -0.000411145               0.001683035               0.001271890               0.000000000               0.000000000               0.000000000               0.000000000               0.000982661               0.004822186               0.000628504              -0.000234275               0.001685471               0.001451196               0.000000000               0.000000000               0.000000000               0.000000000               0.001553942               0.004960761               0.000564636              -0.000037367               0.001666026               0.001628659               0.000000000               0.000000000               0.000000000               0.000000000               0.002173373               0.005050496               0.000486367               0.000183701               0.001622248               0.001805949               0.000000000               0.000000000               0.000000000               0.000000000               0.002859705               0.005089262               0.000378190               0.000436227               0.001550994               0.001987222               0.000000000               0.000000000               0.000000000               0.000000000               0.003630819               0.005065014               0.000217337               0.000728423               0.001445513               0.002173936               0.000000000               0.000000000               0.000000000               0.000000000               0.004217280               0.005097272               0.000132806               0.000944311               0.001384303               0.002328615               0.000000000               0.000000000               0.000000000               0.000000000               0.000000000               0.000000000               0.000000000               0.000000000               0.000000000               0.000000000               0.000000000               0.000000000               0.000000000               0.000000000               0.000000000               0.000000000               0.000000000               0.000000000               0.000000000               0.000000000               0.000000000               0.000000000               0.000000000               0.000000000               0.000000000               0.000000000               0.000000000               0.000000000               0.000000000               0.000000000               0.000000000               0.000000000               0.000000000               0.000000000               0.000000000               0.000000000               0.000000000               0.000000000               0.000000000               0.000000000               0.000000000               0.000000000               0.000000000               0.000000000               0.000000000               0.000000000               0.000000000               0.000000000               0.000000000               0.000000000               0.000000000               0.000000000               0.000000000               0.000000000               0.000000000               0.000000000               0.000000000               0.000000000               0.000000000               0.000000000               0.000000000               0.000000000               0.000000000               0.000000000               0.000000000               0.000000000               0.000000000               0.000000000               0.000000000               0.000000000               0.000000000               0.000000000               0.000000000               0.000000000               0.000000000               0.000000000               0.000000000               0.000000000               0.000000000               0.000000000               0.000000000               0.000000000               0.000000000               0.000000000               0.000000000               0.000000000               0.000000000               0.000000000               0.000000000               0.000000000               0.000000000               0.000000000               0.000000000               0.000000000               0.000000000               0.000000000               0.000000000               0.000000000               0.000000000               0.000000000               0.000000000               0.000000000               0.000000000               0.000000000               0.000000000               0.000000000               0.000000000               0.000000000               0.000000000               0.000000000               0.000000000               0.000000000               0.000000000               0.000000000               0.000000000               0.000000000               0.000000000               0.000000000               0.000000000               0.000000000               0.000000000               0.000000000               0.000000000               0.000000000               0.000000000               0.000000000               0.000000000               0.000000000               0.000000000               0.000000000               0.000000000               0.000000000               0.000000000               0.000000000               0.000000000               0.000000000               0.000000000               0.000000000               0.000000000               0.000000000               0.000000000               0.000000000               0.000000000               0.000000000               0.000000000               0.000000000               0.000000000               0.000000000               0.000000000               0.000000000               0.000000000               0.000000000               0.000000000               0.000000000               0.000000000               0.000000000               0.000000000               0.000000000               0.000000000               0.000000000               0.000000000               0.000000000               0.000000000               0.000000000               0.000000000               0.000000000               0.000000000               0.000000000               0.000000000               0.000000000               0.000000000               0.000000000               0.000000000               0.000000000 </DataArray>
</PointData>
</Piece>
</UnstructuredGrid> </VTKFile>
