<?xml version="1.0"?>
<VTKFile type="UnstructuredGrid" version="0.1">
<UnstructuredGrid>
<Piece NumberOfPoints="      1156" NumberOfCells="      1024">
<Points>
<DataArray type="Float64"                                    Name="coordinates"                                                      NumberOfComponents=" 3" format="ascii">
              0.133000000               0.000000000               0.000000000               0.155937500               0.000000000               0.000000000               0.178875000               0.000000000               0.000000000               0.201812500               0.000000000               0.000000000               0.224750000               0.000000000               0.000000000               0.247687500               0.000000000               0.000000000               0.270625000               0.000000000               0.000000000               0.293562500               0.000000000               0.000000000               0.316500000               0.000000000               0.000000000               0.339437500               0.000000000               0.000000000               0.362375000               0.000000000               0.000000000               0.385312500               0.000000000               0.000000000               0.408250000               0.000000000               0.000000000               0.431187500               0.000000000               0.000000000               0.454125000               0.000000000               0.000000000               0.477062500               0.000000000               0.000000000               0.500000000               0.000000000               0.000000000               0.132359569               0.013036280               0.000000000               0.155337096               0.016127762               0.000000000               0.178314623               0.019219245               0.000000000               0.201292150               0.022310727               0.000000000               0.224269676               0.025402210               0.000000000               0.247247203               0.028493692               0.000000000               0.270224730               0.031585175               0.000000000               0.293202257               0.034676657               0.000000000               0.316179784               0.037768140               0.000000000               0.339157311               0.040859622               0.000000000               0.362134838               0.043951105               0.000000000               0.385112365               0.047042587               0.000000000               0.408089892               0.050134070               0.000000000               0.431067419               0.053225552               0.000000000               0.454044946               0.056317035               0.000000000               0.477022473               0.059408517               0.000000000               0.500000000               0.062500000               0.000000000               0.130444442               0.025947013               0.000000000               0.153541665               0.032137825               0.000000000               0.176638887               0.038328636               0.000000000               0.199736109               0.044519448               0.000000000               0.222833332               0.050710260               0.000000000               0.245930554               0.056901071               0.000000000               0.269027776               0.063091883               0.000000000               0.292124999               0.069282695               0.000000000               0.315222221               0.075473506               0.000000000               0.338319444               0.081664318               0.000000000               0.361416666               0.087855130               0.000000000               0.384513888               0.094045942               0.000000000               0.407611111               0.100236753               0.000000000               0.430708333               0.106427565               0.000000000               0.453805555               0.112618377               0.000000000               0.476902778               0.118809188               0.000000000               0.500000000               0.125000000               0.000000000               0.127273065               0.038607862               0.000000000               0.150568498               0.047913621               0.000000000               0.173863932               0.057219379               0.000000000               0.197159365               0.066525138               0.000000000               0.220454798               0.075830897               0.000000000               0.243750232               0.085136655               0.000000000               0.267045665               0.094442414               0.000000000               0.290341099               0.103748172               0.000000000               0.313636532               0.113053931               0.000000000               0.336931966               0.122359690               0.000000000               0.360227399               0.131665448               0.000000000               0.383522833               0.140971207               0.000000000               0.406818266               0.150276966               0.000000000               0.430113700               0.159582724               0.000000000               0.453409133               0.168888483               0.000000000               0.476704567               0.178194241               0.000000000               0.500000000               0.187500000               0.000000000               0.122875978               0.050896897               0.000000000               0.146446229               0.063340840               0.000000000               0.170016481               0.075784784               0.000000000               0.193586732               0.088228728               0.000000000               0.217156983               0.100672672               0.000000000               0.240727235               0.113116616               0.000000000               0.264297486               0.125560560               0.000000000               0.287867738               0.138004504               0.000000000               0.311437989               0.150448448               0.000000000               0.335008240               0.162892392               0.000000000               0.358578492               0.175336336               0.000000000               0.382148743               0.187780280               0.000000000               0.405718994               0.200224224               0.000000000               0.429289246               0.212668168               0.000000000               0.452859497               0.225112112               0.000000000               0.476429749               0.237556056               0.000000000               0.500000000               0.250000000               0.000000000               0.117295528               0.062695766               0.000000000               0.141214558               0.078308531               0.000000000               0.165133587               0.093921295               0.000000000               0.189052617               0.109534060               0.000000000               0.212971646               0.125146824               0.000000000               0.236890676               0.140759589               0.000000000               0.260809705               0.156372354               0.000000000               0.284728735               0.171985118               0.000000000               0.308647764               0.187597883               0.000000000               0.332566794               0.203210648               0.000000000               0.356485823               0.218823412               0.000000000               0.380404853               0.234436177               0.000000000               0.404323882               0.250048941               0.000000000               0.428242912               0.265661706               0.000000000               0.452161941               0.281274471               0.000000000               0.476080971               0.296887235               0.000000000               0.500000000               0.312500000               0.000000000               0.110585458               0.073890841               0.000000000               0.134923867               0.092710163               0.000000000               0.159262276               0.111529486               0.000000000               0.183600685               0.130348808               0.000000000               0.207939094               0.149168131               0.000000000               0.232277503               0.167987453               0.000000000               0.256615912               0.186806776               0.000000000               0.280954320               0.205626098               0.000000000               0.305292729               0.224445420               0.000000000               0.329631138               0.243264743               0.000000000               0.353969547               0.262084065               0.000000000               0.378307956               0.280903388               0.000000000               0.402646365               0.299722710               0.000000000               0.426984773               0.318542033               0.000000000               0.451323182               0.337361355               0.000000000               0.475661591               0.356180678               0.000000000               0.500000000               0.375000000               0.000000000               0.102810390               0.084374307               0.000000000               0.127634741               0.106444663               0.000000000               0.152459092               0.128515018               0.000000000               0.177283442               0.150585374               0.000000000               0.202107793               0.172655730               0.000000000               0.226932143               0.194726086               0.000000000               0.251756494               0.216796442               0.000000000               0.276580845               0.238866798               0.000000000               0.301405195               0.260937153               0.000000000               0.326229546               0.283007509               0.000000000               0.351053896               0.305077865               0.000000000               0.375878247               0.327148221               0.000000000               0.400702598               0.349218577               0.000000000               0.425526948               0.371288933               0.000000000               0.450351299               0.393359288               0.000000000               0.475175649               0.415429644               0.000000000               0.500000000               0.437500000               0.000000000               0.094045202               0.094045202               0.000000000               0.119417377               0.119417377               0.000000000               0.144789552               0.144789552               0.000000000               0.170161727               0.170161727               0.000000000               0.195533901               0.195533901               0.000000000               0.220906076               0.220906076               0.000000000               0.246278251               0.246278251               0.000000000               0.271650426               0.271650426               0.000000000               0.297022601               0.297022601               0.000000000               0.322394776               0.322394776               0.000000000               0.347766951               0.347766951               0.000000000               0.373139126               0.373139126               0.000000000               0.398511300               0.398511300               0.000000000               0.423883475               0.423883475               0.000000000               0.449255650               0.449255650               0.000000000               0.474627825               0.474627825               0.000000000               0.500000000               0.500000000               0.000000000               0.084374307               0.102810390               0.000000000               0.106444663               0.127634741               0.000000000               0.128515018               0.152459092               0.000000000               0.150585374               0.177283442               0.000000000               0.172655730               0.202107793               0.000000000               0.194726086               0.226932143               0.000000000               0.216796442               0.251756494               0.000000000               0.238866798               0.276580845               0.000000000               0.260937153               0.301405195               0.000000000               0.283007509               0.326229546               0.000000000               0.305077865               0.351053896               0.000000000               0.327148221               0.375878247               0.000000000               0.349218577               0.400702598               0.000000000               0.371288933               0.425526948               0.000000000               0.393359288               0.450351299               0.000000000               0.415429644               0.475175649               0.000000000               0.437500000               0.500000000               0.000000000               0.073890841               0.110585458               0.000000000               0.092710163               0.134923867               0.000000000               0.111529486               0.159262276               0.000000000               0.130348808               0.183600685               0.000000000               0.149168131               0.207939094               0.000000000               0.167987453               0.232277503               0.000000000               0.186806776               0.256615912               0.000000000               0.205626098               0.280954320               0.000000000               0.224445420               0.305292729               0.000000000               0.243264743               0.329631138               0.000000000               0.262084065               0.353969547               0.000000000               0.280903388               0.378307956               0.000000000               0.299722710               0.402646365               0.000000000               0.318542033               0.426984773               0.000000000               0.337361355               0.451323182               0.000000000               0.356180678               0.475661591               0.000000000               0.375000000               0.500000000               0.000000000               0.062695766               0.117295528               0.000000000               0.078308531               0.141214558               0.000000000               0.093921295               0.165133587               0.000000000               0.109534060               0.189052617               0.000000000               0.125146824               0.212971646               0.000000000               0.140759589               0.236890676               0.000000000               0.156372354               0.260809705               0.000000000               0.171985118               0.284728735               0.000000000               0.187597883               0.308647764               0.000000000               0.203210648               0.332566794               0.000000000               0.218823412               0.356485823               0.000000000               0.234436177               0.380404853               0.000000000               0.250048941               0.404323882               0.000000000               0.265661706               0.428242912               0.000000000               0.281274471               0.452161941               0.000000000               0.296887235               0.476080971               0.000000000               0.312500000               0.500000000               0.000000000               0.050896897               0.122875978               0.000000000               0.063340840               0.146446229               0.000000000               0.075784784               0.170016481               0.000000000               0.088228728               0.193586732               0.000000000               0.100672672               0.217156983               0.000000000               0.113116616               0.240727235               0.000000000               0.125560560               0.264297486               0.000000000               0.138004504               0.287867738               0.000000000               0.150448448               0.311437989               0.000000000               0.162892392               0.335008240               0.000000000               0.175336336               0.358578492               0.000000000               0.187780280               0.382148743               0.000000000               0.200224224               0.405718994               0.000000000               0.212668168               0.429289246               0.000000000               0.225112112               0.452859497               0.000000000               0.237556056               0.476429749               0.000000000               0.250000000               0.500000000               0.000000000               0.038607862               0.127273065               0.000000000               0.047913621               0.150568498               0.000000000               0.057219379               0.173863932               0.000000000               0.066525138               0.197159365               0.000000000               0.075830897               0.220454798               0.000000000               0.085136655               0.243750232               0.000000000               0.094442414               0.267045665               0.000000000               0.103748172               0.290341099               0.000000000               0.113053931               0.313636532               0.000000000               0.122359690               0.336931966               0.000000000               0.131665448               0.360227399               0.000000000               0.140971207               0.383522833               0.000000000               0.150276966               0.406818266               0.000000000               0.159582724               0.430113700               0.000000000               0.168888483               0.453409133               0.000000000               0.178194241               0.476704567               0.000000000               0.187500000               0.500000000               0.000000000               0.025947013               0.130444442               0.000000000               0.032137825               0.153541665               0.000000000               0.038328636               0.176638887               0.000000000               0.044519448               0.199736109               0.000000000               0.050710260               0.222833332               0.000000000               0.056901071               0.245930554               0.000000000               0.063091883               0.269027776               0.000000000               0.069282695               0.292124999               0.000000000               0.075473506               0.315222221               0.000000000               0.081664318               0.338319444               0.000000000               0.087855130               0.361416666               0.000000000               0.094045942               0.384513888               0.000000000               0.100236753               0.407611111               0.000000000               0.106427565               0.430708333               0.000000000               0.112618377               0.453805555               0.000000000               0.118809188               0.476902778               0.000000000               0.125000000               0.500000000               0.000000000               0.013036280               0.132359569               0.000000000               0.016127762               0.155337096               0.000000000               0.019219245               0.178314623               0.000000000               0.022310727               0.201292150               0.000000000               0.025402210               0.224269676               0.000000000               0.028493692               0.247247203               0.000000000               0.031585175               0.270224730               0.000000000               0.034676657               0.293202257               0.000000000               0.037768140               0.316179784               0.000000000               0.040859622               0.339157311               0.000000000               0.043951105               0.362134838               0.000000000               0.047042587               0.385112365               0.000000000               0.050134070               0.408089892               0.000000000               0.053225552               0.431067419               0.000000000               0.056317035               0.454044946               0.000000000               0.059408517               0.477022473               0.000000000               0.062500000               0.500000000               0.000000000               0.000000000               0.133000000               0.000000000               0.000000000               0.155937500               0.000000000               0.000000000               0.178875000               0.000000000               0.000000000               0.201812500               0.000000000               0.000000000               0.224750000               0.000000000               0.000000000               0.247687500               0.000000000               0.000000000               0.270625000               0.000000000               0.000000000               0.293562500               0.000000000               0.000000000               0.316500000               0.000000000               0.000000000               0.339437500               0.000000000               0.000000000               0.362375000               0.000000000               0.000000000               0.385312500               0.000000000               0.000000000               0.408250000               0.000000000               0.000000000               0.431187500               0.000000000               0.000000000               0.454125000               0.000000000               0.000000000               0.477062500               0.000000000               0.000000000               0.500000000               0.000000000               0.133000000               0.000000000               0.000000000               0.155937500               0.000000000               0.000000000               0.178875000               0.000000000               0.000000000               0.201812500               0.000000000               0.000000000               0.224750000               0.000000000               0.000000000               0.247687500               0.000000000               0.000000000               0.270625000               0.000000000               0.000000000               0.293562500               0.000000000               0.000000000               0.316500000               0.000000000               0.000000000               0.339437500               0.000000000               0.000000000               0.362375000               0.000000000               0.000000000               0.385312500               0.000000000               0.000000000               0.408250000               0.000000000               0.000000000               0.431187500               0.000000000               0.000000000               0.454125000               0.000000000               0.000000000               0.477062500               0.000000000               0.000000000               0.500000000               0.000000000               0.000000000               0.132359569              -0.013036280               0.000000000               0.155337096              -0.016127762               0.000000000               0.178314623              -0.019219245               0.000000000               0.201292150              -0.022310727               0.000000000               0.224269676              -0.025402210               0.000000000               0.247247203              -0.028493692               0.000000000               0.270224730              -0.031585175               0.000000000               0.293202257              -0.034676657               0.000000000               0.316179784              -0.037768140               0.000000000               0.339157311              -0.040859622               0.000000000               0.362134838              -0.043951105               0.000000000               0.385112365              -0.047042587               0.000000000               0.408089892              -0.050134070               0.000000000               0.431067419              -0.053225552               0.000000000               0.454044946              -0.056317035               0.000000000               0.477022473              -0.059408517               0.000000000               0.500000000              -0.062500000               0.000000000               0.130444442              -0.025947013               0.000000000               0.153541665              -0.032137825               0.000000000               0.176638887              -0.038328636               0.000000000               0.199736109              -0.044519448               0.000000000               0.222833332              -0.050710260               0.000000000               0.245930554              -0.056901071               0.000000000               0.269027776              -0.063091883               0.000000000               0.292124999              -0.069282695               0.000000000               0.315222221              -0.075473506               0.000000000               0.338319444              -0.081664318               0.000000000               0.361416666              -0.087855130               0.000000000               0.384513888              -0.094045942               0.000000000               0.407611111              -0.100236753               0.000000000               0.430708333              -0.106427565               0.000000000               0.453805555              -0.112618377               0.000000000               0.476902778              -0.118809188               0.000000000               0.500000000              -0.125000000               0.000000000               0.127273065              -0.038607862               0.000000000               0.150568498              -0.047913621               0.000000000               0.173863932              -0.057219379               0.000000000               0.197159365              -0.066525138               0.000000000               0.220454798              -0.075830897               0.000000000               0.243750232              -0.085136655               0.000000000               0.267045665              -0.094442414               0.000000000               0.290341099              -0.103748172               0.000000000               0.313636532              -0.113053931               0.000000000               0.336931966              -0.122359690               0.000000000               0.360227399              -0.131665448               0.000000000               0.383522833              -0.140971207               0.000000000               0.406818266              -0.150276966               0.000000000               0.430113700              -0.159582724               0.000000000               0.453409133              -0.168888483               0.000000000               0.476704567              -0.178194241               0.000000000               0.500000000              -0.187500000               0.000000000               0.122875978              -0.050896897               0.000000000               0.146446229              -0.063340840               0.000000000               0.170016481              -0.075784784               0.000000000               0.193586732              -0.088228728               0.000000000               0.217156983              -0.100672672               0.000000000               0.240727235              -0.113116616               0.000000000               0.264297486              -0.125560560               0.000000000               0.287867738              -0.138004504               0.000000000               0.311437989              -0.150448448               0.000000000               0.335008240              -0.162892392               0.000000000               0.358578492              -0.175336336               0.000000000               0.382148743              -0.187780280               0.000000000               0.405718994              -0.200224224               0.000000000               0.429289246              -0.212668168               0.000000000               0.452859497              -0.225112112               0.000000000               0.476429749              -0.237556056               0.000000000               0.500000000              -0.250000000               0.000000000               0.117295528              -0.062695766               0.000000000               0.141214558              -0.078308531               0.000000000               0.165133587              -0.093921295               0.000000000               0.189052617              -0.109534060               0.000000000               0.212971646              -0.125146824               0.000000000               0.236890676              -0.140759589               0.000000000               0.260809705              -0.156372354               0.000000000               0.284728735              -0.171985118               0.000000000               0.308647764              -0.187597883               0.000000000               0.332566794              -0.203210648               0.000000000               0.356485823              -0.218823412               0.000000000               0.380404853              -0.234436177               0.000000000               0.404323882              -0.250048941               0.000000000               0.428242912              -0.265661706               0.000000000               0.452161941              -0.281274471               0.000000000               0.476080971              -0.296887235               0.000000000               0.500000000              -0.312500000               0.000000000               0.110585458              -0.073890841               0.000000000               0.134923867              -0.092710163               0.000000000               0.159262276              -0.111529486               0.000000000               0.183600685              -0.130348808               0.000000000               0.207939094              -0.149168131               0.000000000               0.232277503              -0.167987453               0.000000000               0.256615912              -0.186806776               0.000000000               0.280954320              -0.205626098               0.000000000               0.305292729              -0.224445420               0.000000000               0.329631138              -0.243264743               0.000000000               0.353969547              -0.262084065               0.000000000               0.378307956              -0.280903388               0.000000000               0.402646365              -0.299722710               0.000000000               0.426984773              -0.318542033               0.000000000               0.451323182              -0.337361355               0.000000000               0.475661591              -0.356180678               0.000000000               0.500000000              -0.375000000               0.000000000               0.102810390              -0.084374307               0.000000000               0.127634741              -0.106444663               0.000000000               0.152459092              -0.128515018               0.000000000               0.177283442              -0.150585374               0.000000000               0.202107793              -0.172655730               0.000000000               0.226932143              -0.194726086               0.000000000               0.251756494              -0.216796442               0.000000000               0.276580845              -0.238866798               0.000000000               0.301405195              -0.260937153               0.000000000               0.326229546              -0.283007509               0.000000000               0.351053896              -0.305077865               0.000000000               0.375878247              -0.327148221               0.000000000               0.400702598              -0.349218577               0.000000000               0.425526948              -0.371288933               0.000000000               0.450351299              -0.393359288               0.000000000               0.475175649              -0.415429644               0.000000000               0.500000000              -0.437500000               0.000000000               0.094045202              -0.094045202               0.000000000               0.119417377              -0.119417377               0.000000000               0.144789552              -0.144789552               0.000000000               0.170161727              -0.170161727               0.000000000               0.195533901              -0.195533901               0.000000000               0.220906076              -0.220906076               0.000000000               0.246278251              -0.246278251               0.000000000               0.271650426              -0.271650426               0.000000000               0.297022601              -0.297022601               0.000000000               0.322394776              -0.322394776               0.000000000               0.347766951              -0.347766951               0.000000000               0.373139126              -0.373139126               0.000000000               0.398511300              -0.398511300               0.000000000               0.423883475              -0.423883475               0.000000000               0.449255650              -0.449255650               0.000000000               0.474627825              -0.474627825               0.000000000               0.500000000              -0.500000000               0.000000000               0.084374307              -0.102810390               0.000000000               0.106444663              -0.127634741               0.000000000               0.128515018              -0.152459092               0.000000000               0.150585374              -0.177283442               0.000000000               0.172655730              -0.202107793               0.000000000               0.194726086              -0.226932143               0.000000000               0.216796442              -0.251756494               0.000000000               0.238866798              -0.276580845               0.000000000               0.260937153              -0.301405195               0.000000000               0.283007509              -0.326229546               0.000000000               0.305077865              -0.351053896               0.000000000               0.327148221              -0.375878247               0.000000000               0.349218577              -0.400702598               0.000000000               0.371288933              -0.425526948               0.000000000               0.393359288              -0.450351299               0.000000000               0.415429644              -0.475175649               0.000000000               0.437500000              -0.500000000               0.000000000               0.073890841              -0.110585458               0.000000000               0.092710163              -0.134923867               0.000000000               0.111529486              -0.159262276               0.000000000               0.130348808              -0.183600685               0.000000000               0.149168131              -0.207939094               0.000000000               0.167987453              -0.232277503               0.000000000               0.186806776              -0.256615912               0.000000000               0.205626098              -0.280954320               0.000000000               0.224445420              -0.305292729               0.000000000               0.243264743              -0.329631138               0.000000000               0.262084065              -0.353969547               0.000000000               0.280903388              -0.378307956               0.000000000               0.299722710              -0.402646365               0.000000000               0.318542033              -0.426984773               0.000000000               0.337361355              -0.451323182               0.000000000               0.356180678              -0.475661591               0.000000000               0.375000000              -0.500000000               0.000000000               0.062695766              -0.117295528               0.000000000               0.078308531              -0.141214558               0.000000000               0.093921295              -0.165133587               0.000000000               0.109534060              -0.189052617               0.000000000               0.125146824              -0.212971646               0.000000000               0.140759589              -0.236890676               0.000000000               0.156372354              -0.260809705               0.000000000               0.171985118              -0.284728735               0.000000000               0.187597883              -0.308647764               0.000000000               0.203210648              -0.332566794               0.000000000               0.218823412              -0.356485823               0.000000000               0.234436177              -0.380404853               0.000000000               0.250048941              -0.404323882               0.000000000               0.265661706              -0.428242912               0.000000000               0.281274471              -0.452161941               0.000000000               0.296887235              -0.476080971               0.000000000               0.312500000              -0.500000000               0.000000000               0.050896897              -0.122875978               0.000000000               0.063340840              -0.146446229               0.000000000               0.075784784              -0.170016481               0.000000000               0.088228728              -0.193586732               0.000000000               0.100672672              -0.217156983               0.000000000               0.113116616              -0.240727235               0.000000000               0.125560560              -0.264297486               0.000000000               0.138004504              -0.287867738               0.000000000               0.150448448              -0.311437989               0.000000000               0.162892392              -0.335008240               0.000000000               0.175336336              -0.358578492               0.000000000               0.187780280              -0.382148743               0.000000000               0.200224224              -0.405718994               0.000000000               0.212668168              -0.429289246               0.000000000               0.225112112              -0.452859497               0.000000000               0.237556056              -0.476429749               0.000000000               0.250000000              -0.500000000               0.000000000               0.038607862              -0.127273065               0.000000000               0.047913621              -0.150568498               0.000000000               0.057219379              -0.173863932               0.000000000               0.066525138              -0.197159365               0.000000000               0.075830897              -0.220454798               0.000000000               0.085136655              -0.243750232               0.000000000               0.094442414              -0.267045665               0.000000000               0.103748172              -0.290341099               0.000000000               0.113053931              -0.313636532               0.000000000               0.122359690              -0.336931966               0.000000000               0.131665448              -0.360227399               0.000000000               0.140971207              -0.383522833               0.000000000               0.150276966              -0.406818266               0.000000000               0.159582724              -0.430113700               0.000000000               0.168888483              -0.453409133               0.000000000               0.178194241              -0.476704567               0.000000000               0.187500000              -0.500000000               0.000000000               0.025947013              -0.130444442               0.000000000               0.032137825              -0.153541665               0.000000000               0.038328636              -0.176638887               0.000000000               0.044519448              -0.199736109               0.000000000               0.050710260              -0.222833332               0.000000000               0.056901071              -0.245930554               0.000000000               0.063091883              -0.269027776               0.000000000               0.069282695              -0.292124999               0.000000000               0.075473506              -0.315222221               0.000000000               0.081664318              -0.338319444               0.000000000               0.087855130              -0.361416666               0.000000000               0.094045942              -0.384513888               0.000000000               0.100236753              -0.407611111               0.000000000               0.106427565              -0.430708333               0.000000000               0.112618377              -0.453805555               0.000000000               0.118809188              -0.476902778               0.000000000               0.125000000              -0.500000000               0.000000000               0.013036280              -0.132359569               0.000000000               0.016127762              -0.155337096               0.000000000               0.019219245              -0.178314623               0.000000000               0.022310727              -0.201292150               0.000000000               0.025402210              -0.224269676               0.000000000               0.028493692              -0.247247203               0.000000000               0.031585175              -0.270224730               0.000000000               0.034676657              -0.293202257               0.000000000               0.037768140              -0.316179784               0.000000000               0.040859622              -0.339157311               0.000000000               0.043951105              -0.362134838               0.000000000               0.047042587              -0.385112365               0.000000000               0.050134070              -0.408089892               0.000000000               0.053225552              -0.431067419               0.000000000               0.056317035              -0.454044946               0.000000000               0.059408517              -0.477022473               0.000000000               0.062500000              -0.500000000               0.000000000               0.000000000              -0.133000000               0.000000000               0.000000000              -0.155937500               0.000000000               0.000000000              -0.178875000               0.000000000               0.000000000              -0.201812500               0.000000000               0.000000000              -0.224750000               0.000000000               0.000000000              -0.247687500               0.000000000               0.000000000              -0.270625000               0.000000000               0.000000000              -0.293562500               0.000000000               0.000000000              -0.316500000               0.000000000               0.000000000              -0.339437500               0.000000000               0.000000000              -0.362375000               0.000000000               0.000000000              -0.385312500               0.000000000               0.000000000              -0.408250000               0.000000000               0.000000000              -0.431187500               0.000000000               0.000000000              -0.454125000               0.000000000               0.000000000              -0.477062500               0.000000000               0.000000000              -0.500000000               0.000000000              -0.133000000               0.000000000               0.000000000              -0.155937500               0.000000000               0.000000000              -0.178875000               0.000000000               0.000000000              -0.201812500               0.000000000               0.000000000              -0.224750000               0.000000000               0.000000000              -0.247687500               0.000000000               0.000000000              -0.270625000               0.000000000               0.000000000              -0.293562500               0.000000000               0.000000000              -0.316500000               0.000000000               0.000000000              -0.339437500               0.000000000               0.000000000              -0.362375000               0.000000000               0.000000000              -0.385312500               0.000000000               0.000000000              -0.408250000               0.000000000               0.000000000              -0.431187500               0.000000000               0.000000000              -0.454125000               0.000000000               0.000000000              -0.477062500               0.000000000               0.000000000              -0.500000000               0.000000000               0.000000000              -0.132359569              -0.013036280               0.000000000              -0.155337096              -0.016127762               0.000000000              -0.178314623              -0.019219245               0.000000000              -0.201292150              -0.022310727               0.000000000              -0.224269676              -0.025402210               0.000000000              -0.247247203              -0.028493692               0.000000000              -0.270224730              -0.031585175               0.000000000              -0.293202257              -0.034676657               0.000000000              -0.316179784              -0.037768140               0.000000000              -0.339157311              -0.040859622               0.000000000              -0.362134838              -0.043951105               0.000000000              -0.385112365              -0.047042587               0.000000000              -0.408089892              -0.050134070               0.000000000              -0.431067419              -0.053225552               0.000000000              -0.454044946              -0.056317035               0.000000000              -0.477022473              -0.059408517               0.000000000              -0.500000000              -0.062500000               0.000000000              -0.130444442              -0.025947013               0.000000000              -0.153541665              -0.032137825               0.000000000              -0.176638887              -0.038328636               0.000000000              -0.199736109              -0.044519448               0.000000000              -0.222833332              -0.050710260               0.000000000              -0.245930554              -0.056901071               0.000000000              -0.269027776              -0.063091883               0.000000000              -0.292124999              -0.069282695               0.000000000              -0.315222221              -0.075473506               0.000000000              -0.338319444              -0.081664318               0.000000000              -0.361416666              -0.087855130               0.000000000              -0.384513888              -0.094045942               0.000000000              -0.407611111              -0.100236753               0.000000000              -0.430708333              -0.106427565               0.000000000              -0.453805555              -0.112618377               0.000000000              -0.476902778              -0.118809188               0.000000000              -0.500000000              -0.125000000               0.000000000              -0.127273065              -0.038607862               0.000000000              -0.150568498              -0.047913621               0.000000000              -0.173863932              -0.057219379               0.000000000              -0.197159365              -0.066525138               0.000000000              -0.220454798              -0.075830897               0.000000000              -0.243750232              -0.085136655               0.000000000              -0.267045665              -0.094442414               0.000000000              -0.290341099              -0.103748172               0.000000000              -0.313636532              -0.113053931               0.000000000              -0.336931966              -0.122359690               0.000000000              -0.360227399              -0.131665448               0.000000000              -0.383522833              -0.140971207               0.000000000              -0.406818266              -0.150276966               0.000000000              -0.430113700              -0.159582724               0.000000000              -0.453409133              -0.168888483               0.000000000              -0.476704567              -0.178194241               0.000000000              -0.500000000              -0.187500000               0.000000000              -0.122875978              -0.050896897               0.000000000              -0.146446229              -0.063340840               0.000000000              -0.170016481              -0.075784784               0.000000000              -0.193586732              -0.088228728               0.000000000              -0.217156983              -0.100672672               0.000000000              -0.240727235              -0.113116616               0.000000000              -0.264297486              -0.125560560               0.000000000              -0.287867738              -0.138004504               0.000000000              -0.311437989              -0.150448448               0.000000000              -0.335008240              -0.162892392               0.000000000              -0.358578492              -0.175336336               0.000000000              -0.382148743              -0.187780280               0.000000000              -0.405718994              -0.200224224               0.000000000              -0.429289246              -0.212668168               0.000000000              -0.452859497              -0.225112112               0.000000000              -0.476429749              -0.237556056               0.000000000              -0.500000000              -0.250000000               0.000000000              -0.117295528              -0.062695766               0.000000000              -0.141214558              -0.078308531               0.000000000              -0.165133587              -0.093921295               0.000000000              -0.189052617              -0.109534060               0.000000000              -0.212971646              -0.125146824               0.000000000              -0.236890676              -0.140759589               0.000000000              -0.260809705              -0.156372354               0.000000000              -0.284728735              -0.171985118               0.000000000              -0.308647764              -0.187597883               0.000000000              -0.332566794              -0.203210648               0.000000000              -0.356485823              -0.218823412               0.000000000              -0.380404853              -0.234436177               0.000000000              -0.404323882              -0.250048941               0.000000000              -0.428242912              -0.265661706               0.000000000              -0.452161941              -0.281274471               0.000000000              -0.476080971              -0.296887235               0.000000000              -0.500000000              -0.312500000               0.000000000              -0.110585458              -0.073890841               0.000000000              -0.134923867              -0.092710163               0.000000000              -0.159262276              -0.111529486               0.000000000              -0.183600685              -0.130348808               0.000000000              -0.207939094              -0.149168131               0.000000000              -0.232277503              -0.167987453               0.000000000              -0.256615912              -0.186806776               0.000000000              -0.280954320              -0.205626098               0.000000000              -0.305292729              -0.224445420               0.000000000              -0.329631138              -0.243264743               0.000000000              -0.353969547              -0.262084065               0.000000000              -0.378307956              -0.280903388               0.000000000              -0.402646365              -0.299722710               0.000000000              -0.426984773              -0.318542033               0.000000000              -0.451323182              -0.337361355               0.000000000              -0.475661591              -0.356180678               0.000000000              -0.500000000              -0.375000000               0.000000000              -0.102810390              -0.084374307               0.000000000              -0.127634741              -0.106444663               0.000000000              -0.152459092              -0.128515018               0.000000000              -0.177283442              -0.150585374               0.000000000              -0.202107793              -0.172655730               0.000000000              -0.226932143              -0.194726086               0.000000000              -0.251756494              -0.216796442               0.000000000              -0.276580845              -0.238866798               0.000000000              -0.301405195              -0.260937153               0.000000000              -0.326229546              -0.283007509               0.000000000              -0.351053896              -0.305077865               0.000000000              -0.375878247              -0.327148221               0.000000000              -0.400702598              -0.349218577               0.000000000              -0.425526948              -0.371288933               0.000000000              -0.450351299              -0.393359288               0.000000000              -0.475175649              -0.415429644               0.000000000              -0.500000000              -0.437500000               0.000000000              -0.094045202              -0.094045202               0.000000000              -0.119417377              -0.119417377               0.000000000              -0.144789552              -0.144789552               0.000000000              -0.170161727              -0.170161727               0.000000000              -0.195533901              -0.195533901               0.000000000              -0.220906076              -0.220906076               0.000000000              -0.246278251              -0.246278251               0.000000000              -0.271650426              -0.271650426               0.000000000              -0.297022601              -0.297022601               0.000000000              -0.322394776              -0.322394776               0.000000000              -0.347766951              -0.347766951               0.000000000              -0.373139126              -0.373139126               0.000000000              -0.398511300              -0.398511300               0.000000000              -0.423883475              -0.423883475               0.000000000              -0.449255650              -0.449255650               0.000000000              -0.474627825              -0.474627825               0.000000000              -0.500000000              -0.500000000               0.000000000              -0.084374307              -0.102810390               0.000000000              -0.106444663              -0.127634741               0.000000000              -0.128515018              -0.152459092               0.000000000              -0.150585374              -0.177283442               0.000000000              -0.172655730              -0.202107793               0.000000000              -0.194726086              -0.226932143               0.000000000              -0.216796442              -0.251756494               0.000000000              -0.238866798              -0.276580845               0.000000000              -0.260937153              -0.301405195               0.000000000              -0.283007509              -0.326229546               0.000000000              -0.305077865              -0.351053896               0.000000000              -0.327148221              -0.375878247               0.000000000              -0.349218577              -0.400702598               0.000000000              -0.371288933              -0.425526948               0.000000000              -0.393359288              -0.450351299               0.000000000              -0.415429644              -0.475175649               0.000000000              -0.437500000              -0.500000000               0.000000000              -0.073890841              -0.110585458               0.000000000              -0.092710163              -0.134923867               0.000000000              -0.111529486              -0.159262276               0.000000000              -0.130348808              -0.183600685               0.000000000              -0.149168131              -0.207939094               0.000000000              -0.167987453              -0.232277503               0.000000000              -0.186806776              -0.256615912               0.000000000              -0.205626098              -0.280954320               0.000000000              -0.224445420              -0.305292729               0.000000000              -0.243264743              -0.329631138               0.000000000              -0.262084065              -0.353969547               0.000000000              -0.280903388              -0.378307956               0.000000000              -0.299722710              -0.402646365               0.000000000              -0.318542033              -0.426984773               0.000000000              -0.337361355              -0.451323182               0.000000000              -0.356180678              -0.475661591               0.000000000              -0.375000000              -0.500000000               0.000000000              -0.062695766              -0.117295528               0.000000000              -0.078308531              -0.141214558               0.000000000              -0.093921295              -0.165133587               0.000000000              -0.109534060              -0.189052617               0.000000000              -0.125146824              -0.212971646               0.000000000              -0.140759589              -0.236890676               0.000000000              -0.156372354              -0.260809705               0.000000000              -0.171985118              -0.284728735               0.000000000              -0.187597883              -0.308647764               0.000000000              -0.203210648              -0.332566794               0.000000000              -0.218823412              -0.356485823               0.000000000              -0.234436177              -0.380404853               0.000000000              -0.250048941              -0.404323882               0.000000000              -0.265661706              -0.428242912               0.000000000              -0.281274471              -0.452161941               0.000000000              -0.296887235              -0.476080971               0.000000000              -0.312500000              -0.500000000               0.000000000              -0.050896897              -0.122875978               0.000000000              -0.063340840              -0.146446229               0.000000000              -0.075784784              -0.170016481               0.000000000              -0.088228728              -0.193586732               0.000000000              -0.100672672              -0.217156983               0.000000000              -0.113116616              -0.240727235               0.000000000              -0.125560560              -0.264297486               0.000000000              -0.138004504              -0.287867738               0.000000000              -0.150448448              -0.311437989               0.000000000              -0.162892392              -0.335008240               0.000000000              -0.175336336              -0.358578492               0.000000000              -0.187780280              -0.382148743               0.000000000              -0.200224224              -0.405718994               0.000000000              -0.212668168              -0.429289246               0.000000000              -0.225112112              -0.452859497               0.000000000              -0.237556056              -0.476429749               0.000000000              -0.250000000              -0.500000000               0.000000000              -0.038607862              -0.127273065               0.000000000              -0.047913621              -0.150568498               0.000000000              -0.057219379              -0.173863932               0.000000000              -0.066525138              -0.197159365               0.000000000              -0.075830897              -0.220454798               0.000000000              -0.085136655              -0.243750232               0.000000000              -0.094442414              -0.267045665               0.000000000              -0.103748172              -0.290341099               0.000000000              -0.113053931              -0.313636532               0.000000000              -0.122359690              -0.336931966               0.000000000              -0.131665448              -0.360227399               0.000000000              -0.140971207              -0.383522833               0.000000000              -0.150276966              -0.406818266               0.000000000              -0.159582724              -0.430113700               0.000000000              -0.168888483              -0.453409133               0.000000000              -0.178194241              -0.476704567               0.000000000              -0.187500000              -0.500000000               0.000000000              -0.025947013              -0.130444442               0.000000000              -0.032137825              -0.153541665               0.000000000              -0.038328636              -0.176638887               0.000000000              -0.044519448              -0.199736109               0.000000000              -0.050710260              -0.222833332               0.000000000              -0.056901071              -0.245930554               0.000000000              -0.063091883              -0.269027776               0.000000000              -0.069282695              -0.292124999               0.000000000              -0.075473506              -0.315222221               0.000000000              -0.081664318              -0.338319444               0.000000000              -0.087855130              -0.361416666               0.000000000              -0.094045942              -0.384513888               0.000000000              -0.100236753              -0.407611111               0.000000000              -0.106427565              -0.430708333               0.000000000              -0.112618377              -0.453805555               0.000000000              -0.118809188              -0.476902778               0.000000000              -0.125000000              -0.500000000               0.000000000              -0.013036280              -0.132359569               0.000000000              -0.016127762              -0.155337096               0.000000000              -0.019219245              -0.178314623               0.000000000              -0.022310727              -0.201292150               0.000000000              -0.025402210              -0.224269676               0.000000000              -0.028493692              -0.247247203               0.000000000              -0.031585175              -0.270224730               0.000000000              -0.034676657              -0.293202257               0.000000000              -0.037768140              -0.316179784               0.000000000              -0.040859622              -0.339157311               0.000000000              -0.043951105              -0.362134838               0.000000000              -0.047042587              -0.385112365               0.000000000              -0.050134070              -0.408089892               0.000000000              -0.053225552              -0.431067419               0.000000000              -0.056317035              -0.454044946               0.000000000              -0.059408517              -0.477022473               0.000000000              -0.062500000              -0.500000000               0.000000000               0.000000000              -0.133000000               0.000000000               0.000000000              -0.155937500               0.000000000               0.000000000              -0.178875000               0.000000000               0.000000000              -0.201812500               0.000000000               0.000000000              -0.224750000               0.000000000               0.000000000              -0.247687500               0.000000000               0.000000000              -0.270625000               0.000000000               0.000000000              -0.293562500               0.000000000               0.000000000              -0.316500000               0.000000000               0.000000000              -0.339437500               0.000000000               0.000000000              -0.362375000               0.000000000               0.000000000              -0.385312500               0.000000000               0.000000000              -0.408250000               0.000000000               0.000000000              -0.431187500               0.000000000               0.000000000              -0.454125000               0.000000000               0.000000000              -0.477062500               0.000000000               0.000000000              -0.500000000               0.000000000              -0.133000000               0.000000000               0.000000000              -0.155937500               0.000000000               0.000000000              -0.178875000               0.000000000               0.000000000              -0.201812500               0.000000000               0.000000000              -0.224750000               0.000000000               0.000000000              -0.247687500               0.000000000               0.000000000              -0.270625000               0.000000000               0.000000000              -0.293562500               0.000000000               0.000000000              -0.316500000               0.000000000               0.000000000              -0.339437500               0.000000000               0.000000000              -0.362375000               0.000000000               0.000000000              -0.385312500               0.000000000               0.000000000              -0.408250000               0.000000000               0.000000000              -0.431187500               0.000000000               0.000000000              -0.454125000               0.000000000               0.000000000              -0.477062500               0.000000000               0.000000000              -0.500000000               0.000000000               0.000000000              -0.132359569               0.013036280               0.000000000              -0.155337096               0.016127762               0.000000000              -0.178314623               0.019219245               0.000000000              -0.201292150               0.022310727               0.000000000              -0.224269676               0.025402210               0.000000000              -0.247247203               0.028493692               0.000000000              -0.270224730               0.031585175               0.000000000              -0.293202257               0.034676657               0.000000000              -0.316179784               0.037768140               0.000000000              -0.339157311               0.040859622               0.000000000              -0.362134838               0.043951105               0.000000000              -0.385112365               0.047042587               0.000000000              -0.408089892               0.050134070               0.000000000              -0.431067419               0.053225552               0.000000000              -0.454044946               0.056317035               0.000000000              -0.477022473               0.059408517               0.000000000              -0.500000000               0.062500000               0.000000000              -0.130444442               0.025947013               0.000000000              -0.153541665               0.032137825               0.000000000              -0.176638887               0.038328636               0.000000000              -0.199736109               0.044519448               0.000000000              -0.222833332               0.050710260               0.000000000              -0.245930554               0.056901071               0.000000000              -0.269027776               0.063091883               0.000000000              -0.292124999               0.069282695               0.000000000              -0.315222221               0.075473506               0.000000000              -0.338319444               0.081664318               0.000000000              -0.361416666               0.087855130               0.000000000              -0.384513888               0.094045942               0.000000000              -0.407611111               0.100236753               0.000000000              -0.430708333               0.106427565               0.000000000              -0.453805555               0.112618377               0.000000000              -0.476902778               0.118809188               0.000000000              -0.500000000               0.125000000               0.000000000              -0.127273065               0.038607862               0.000000000              -0.150568498               0.047913621               0.000000000              -0.173863932               0.057219379               0.000000000              -0.197159365               0.066525138               0.000000000              -0.220454798               0.075830897               0.000000000              -0.243750232               0.085136655               0.000000000              -0.267045665               0.094442414               0.000000000              -0.290341099               0.103748172               0.000000000              -0.313636532               0.113053931               0.000000000              -0.336931966               0.122359690               0.000000000              -0.360227399               0.131665448               0.000000000              -0.383522833               0.140971207               0.000000000              -0.406818266               0.150276966               0.000000000              -0.430113700               0.159582724               0.000000000              -0.453409133               0.168888483               0.000000000              -0.476704567               0.178194241               0.000000000              -0.500000000               0.187500000               0.000000000              -0.122875978               0.050896897               0.000000000              -0.146446229               0.063340840               0.000000000              -0.170016481               0.075784784               0.000000000              -0.193586732               0.088228728               0.000000000              -0.217156983               0.100672672               0.000000000              -0.240727235               0.113116616               0.000000000              -0.264297486               0.125560560               0.000000000              -0.287867738               0.138004504               0.000000000              -0.311437989               0.150448448               0.000000000              -0.335008240               0.162892392               0.000000000              -0.358578492               0.175336336               0.000000000              -0.382148743               0.187780280               0.000000000              -0.405718994               0.200224224               0.000000000              -0.429289246               0.212668168               0.000000000              -0.452859497               0.225112112               0.000000000              -0.476429749               0.237556056               0.000000000              -0.500000000               0.250000000               0.000000000              -0.117295528               0.062695766               0.000000000              -0.141214558               0.078308531               0.000000000              -0.165133587               0.093921295               0.000000000              -0.189052617               0.109534060               0.000000000              -0.212971646               0.125146824               0.000000000              -0.236890676               0.140759589               0.000000000              -0.260809705               0.156372354               0.000000000              -0.284728735               0.171985118               0.000000000              -0.308647764               0.187597883               0.000000000              -0.332566794               0.203210648               0.000000000              -0.356485823               0.218823412               0.000000000              -0.380404853               0.234436177               0.000000000              -0.404323882               0.250048941               0.000000000              -0.428242912               0.265661706               0.000000000              -0.452161941               0.281274471               0.000000000              -0.476080971               0.296887235               0.000000000              -0.500000000               0.312500000               0.000000000              -0.110585458               0.073890841               0.000000000              -0.134923867               0.092710163               0.000000000              -0.159262276               0.111529486               0.000000000              -0.183600685               0.130348808               0.000000000              -0.207939094               0.149168131               0.000000000              -0.232277503               0.167987453               0.000000000              -0.256615912               0.186806776               0.000000000              -0.280954320               0.205626098               0.000000000              -0.305292729               0.224445420               0.000000000              -0.329631138               0.243264743               0.000000000              -0.353969547               0.262084065               0.000000000              -0.378307956               0.280903388               0.000000000              -0.402646365               0.299722710               0.000000000              -0.426984773               0.318542033               0.000000000              -0.451323182               0.337361355               0.000000000              -0.475661591               0.356180678               0.000000000              -0.500000000               0.375000000               0.000000000              -0.102810390               0.084374307               0.000000000              -0.127634741               0.106444663               0.000000000              -0.152459092               0.128515018               0.000000000              -0.177283442               0.150585374               0.000000000              -0.202107793               0.172655730               0.000000000              -0.226932143               0.194726086               0.000000000              -0.251756494               0.216796442               0.000000000              -0.276580845               0.238866798               0.000000000              -0.301405195               0.260937153               0.000000000              -0.326229546               0.283007509               0.000000000              -0.351053896               0.305077865               0.000000000              -0.375878247               0.327148221               0.000000000              -0.400702598               0.349218577               0.000000000              -0.425526948               0.371288933               0.000000000              -0.450351299               0.393359288               0.000000000              -0.475175649               0.415429644               0.000000000              -0.500000000               0.437500000               0.000000000              -0.094045202               0.094045202               0.000000000              -0.119417377               0.119417377               0.000000000              -0.144789552               0.144789552               0.000000000              -0.170161727               0.170161727               0.000000000              -0.195533901               0.195533901               0.000000000              -0.220906076               0.220906076               0.000000000              -0.246278251               0.246278251               0.000000000              -0.271650426               0.271650426               0.000000000              -0.297022601               0.297022601               0.000000000              -0.322394776               0.322394776               0.000000000              -0.347766951               0.347766951               0.000000000              -0.373139126               0.373139126               0.000000000              -0.398511300               0.398511300               0.000000000              -0.423883475               0.423883475               0.000000000              -0.449255650               0.449255650               0.000000000              -0.474627825               0.474627825               0.000000000              -0.500000000               0.500000000               0.000000000              -0.084374307               0.102810390               0.000000000              -0.106444663               0.127634741               0.000000000              -0.128515018               0.152459092               0.000000000              -0.150585374               0.177283442               0.000000000              -0.172655730               0.202107793               0.000000000              -0.194726086               0.226932143               0.000000000              -0.216796442               0.251756494               0.000000000              -0.238866798               0.276580845               0.000000000              -0.260937153               0.301405195               0.000000000              -0.283007509               0.326229546               0.000000000              -0.305077865               0.351053896               0.000000000              -0.327148221               0.375878247               0.000000000              -0.349218577               0.400702598               0.000000000              -0.371288933               0.425526948               0.000000000              -0.393359288               0.450351299               0.000000000              -0.415429644               0.475175649               0.000000000              -0.437500000               0.500000000               0.000000000              -0.073890841               0.110585458               0.000000000              -0.092710163               0.134923867               0.000000000              -0.111529486               0.159262276               0.000000000              -0.130348808               0.183600685               0.000000000              -0.149168131               0.207939094               0.000000000              -0.167987453               0.232277503               0.000000000              -0.186806776               0.256615912               0.000000000              -0.205626098               0.280954320               0.000000000              -0.224445420               0.305292729               0.000000000              -0.243264743               0.329631138               0.000000000              -0.262084065               0.353969547               0.000000000              -0.280903388               0.378307956               0.000000000              -0.299722710               0.402646365               0.000000000              -0.318542033               0.426984773               0.000000000              -0.337361355               0.451323182               0.000000000              -0.356180678               0.475661591               0.000000000              -0.375000000               0.500000000               0.000000000              -0.062695766               0.117295528               0.000000000              -0.078308531               0.141214558               0.000000000              -0.093921295               0.165133587               0.000000000              -0.109534060               0.189052617               0.000000000              -0.125146824               0.212971646               0.000000000              -0.140759589               0.236890676               0.000000000              -0.156372354               0.260809705               0.000000000              -0.171985118               0.284728735               0.000000000              -0.187597883               0.308647764               0.000000000              -0.203210648               0.332566794               0.000000000              -0.218823412               0.356485823               0.000000000              -0.234436177               0.380404853               0.000000000              -0.250048941               0.404323882               0.000000000              -0.265661706               0.428242912               0.000000000              -0.281274471               0.452161941               0.000000000              -0.296887235               0.476080971               0.000000000              -0.312500000               0.500000000               0.000000000              -0.050896897               0.122875978               0.000000000              -0.063340840               0.146446229               0.000000000              -0.075784784               0.170016481               0.000000000              -0.088228728               0.193586732               0.000000000              -0.100672672               0.217156983               0.000000000              -0.113116616               0.240727235               0.000000000              -0.125560560               0.264297486               0.000000000              -0.138004504               0.287867738               0.000000000              -0.150448448               0.311437989               0.000000000              -0.162892392               0.335008240               0.000000000              -0.175336336               0.358578492               0.000000000              -0.187780280               0.382148743               0.000000000              -0.200224224               0.405718994               0.000000000              -0.212668168               0.429289246               0.000000000              -0.225112112               0.452859497               0.000000000              -0.237556056               0.476429749               0.000000000              -0.250000000               0.500000000               0.000000000              -0.038607862               0.127273065               0.000000000              -0.047913621               0.150568498               0.000000000              -0.057219379               0.173863932               0.000000000              -0.066525138               0.197159365               0.000000000              -0.075830897               0.220454798               0.000000000              -0.085136655               0.243750232               0.000000000              -0.094442414               0.267045665               0.000000000              -0.103748172               0.290341099               0.000000000              -0.113053931               0.313636532               0.000000000              -0.122359690               0.336931966               0.000000000              -0.131665448               0.360227399               0.000000000              -0.140971207               0.383522833               0.000000000              -0.150276966               0.406818266               0.000000000              -0.159582724               0.430113700               0.000000000              -0.168888483               0.453409133               0.000000000              -0.178194241               0.476704567               0.000000000              -0.187500000               0.500000000               0.000000000              -0.025947013               0.130444442               0.000000000              -0.032137825               0.153541665               0.000000000              -0.038328636               0.176638887               0.000000000              -0.044519448               0.199736109               0.000000000              -0.050710260               0.222833332               0.000000000              -0.056901071               0.245930554               0.000000000              -0.063091883               0.269027776               0.000000000              -0.069282695               0.292124999               0.000000000              -0.075473506               0.315222221               0.000000000              -0.081664318               0.338319444               0.000000000              -0.087855130               0.361416666               0.000000000              -0.094045942               0.384513888               0.000000000              -0.100236753               0.407611111               0.000000000              -0.106427565               0.430708333               0.000000000              -0.112618377               0.453805555               0.000000000              -0.118809188               0.476902778               0.000000000              -0.125000000               0.500000000               0.000000000              -0.013036280               0.132359569               0.000000000              -0.016127762               0.155337096               0.000000000              -0.019219245               0.178314623               0.000000000              -0.022310727               0.201292150               0.000000000              -0.025402210               0.224269676               0.000000000              -0.028493692               0.247247203               0.000000000              -0.031585175               0.270224730               0.000000000              -0.034676657               0.293202257               0.000000000              -0.037768140               0.316179784               0.000000000              -0.040859622               0.339157311               0.000000000              -0.043951105               0.362134838               0.000000000              -0.047042587               0.385112365               0.000000000              -0.050134070               0.408089892               0.000000000              -0.053225552               0.431067419               0.000000000              -0.056317035               0.454044946               0.000000000              -0.059408517               0.477022473               0.000000000              -0.062500000               0.500000000               0.000000000               0.000000000               0.133000000               0.000000000               0.000000000               0.155937500               0.000000000               0.000000000               0.178875000               0.000000000               0.000000000               0.201812500               0.000000000               0.000000000               0.224750000               0.000000000               0.000000000               0.247687500               0.000000000               0.000000000               0.270625000               0.000000000               0.000000000               0.293562500               0.000000000               0.000000000               0.316500000               0.000000000               0.000000000               0.339437500               0.000000000               0.000000000               0.362375000               0.000000000               0.000000000               0.385312500               0.000000000               0.000000000               0.408250000               0.000000000               0.000000000               0.431187500               0.000000000               0.000000000               0.454125000               0.000000000               0.000000000               0.477062500               0.000000000               0.000000000               0.500000000               0.000000000 </DataArray>
</Points>
<Cells>
<DataArray type="Int32"                                    Name="connectivity"                                                      NumberOfComponents=" 1" format="ascii">
         0          1         18         17          1          2         19         18          2          3         20         19          3          4         21         20          4          5         22         21          5          6         23         22          6          7         24         23          7          8         25         24          8          9         26         25          9         10         27         26         10         11         28         27         11         12         29         28         12         13         30         29         13         14         31         30         14         15         32         31         15         16         33         32         17         18         35         34         18         19         36         35         19         20         37         36         20         21         38         37         21         22         39         38         22         23         40         39         23         24         41         40         24         25         42         41         25         26         43         42         26         27         44         43         27         28         45         44         28         29         46         45         29         30         47         46         30         31         48         47         31         32         49         48         32         33         50         49         34         35         52         51         35         36         53         52         36         37         54         53         37         38         55         54         38         39         56         55         39         40         57         56         40         41         58         57         41         42         59         58         42         43         60         59         43         44         61         60         44         45         62         61         45         46         63         62         46         47         64         63         47         48         65         64         48         49         66         65         49         50         67         66         51         52         69         68         52         53         70         69         53         54         71         70         54         55         72         71         55         56         73         72         56         57         74         73         57         58         75         74         58         59         76         75         59         60         77         76         60         61         78         77         61         62         79         78         62         63         80         79         63         64         81         80         64         65         82         81         65         66         83         82         66         67         84         83         68         69         86         85         69         70         87         86         70         71         88         87         71         72         89         88         72         73         90         89         73         74         91         90         74         75         92         91         75         76         93         92         76         77         94         93         77         78         95         94         78         79         96         95         79         80         97         96         80         81         98         97         81         82         99         98         82         83        100         99         83         84        101        100         85         86        103        102         86         87        104        103         87         88        105        104         88         89        106        105         89         90        107        106         90         91        108        107         91         92        109        108         92         93        110        109         93         94        111        110         94         95        112        111         95         96        113        112         96         97        114        113         97         98        115        114         98         99        116        115         99        100        117        116        100        101        118        117        102        103        120        119        103        104        121        120        104        105        122        121        105        106        123        122        106        107        124        123        107        108        125        124        108        109        126        125        109        110        127        126        110        111        128        127        111        112        129        128        112        113        130        129        113        114        131        130        114        115        132        131        115        116        133        132        116        117        134        133        117        118        135        134        119        120        137        136        120        121        138        137        121        122        139        138        122        123        140        139        123        124        141        140        124        125        142        141        125        126        143        142        126        127        144        143        127        128        145        144        128        129        146        145        129        130        147        146        130        131        148        147        131        132        149        148        132        133        150        149        133        134        151        150        134        135        152        151        136        137        154        153        137        138        155        154        138        139        156        155        139        140        157        156        140        141        158        157        141        142        159        158        142        143        160        159        143        144        161        160        144        145        162        161        145        146        163        162        146        147        164        163        147        148        165        164        148        149        166        165        149        150        167        166        150        151        168        167        151        152        169        168        153        154        171        170        154        155        172        171        155        156        173        172        156        157        174        173        157        158        175        174        158        159        176        175        159        160        177        176        160        161        178        177        161        162        179        178        162        163        180        179        163        164        181        180        164        165        182        181        165        166        183        182        166        167        184        183        167        168        185        184        168        169        186        185        170        171        188        187        171        172        189        188        172        173        190        189        173        174        191        190        174        175        192        191        175        176        193        192        176        177        194        193        177        178        195        194        178        179        196        195        179        180        197        196        180        181        198        197        181        182        199        198        182        183        200        199        183        184        201        200        184        185        202        201        185        186        203        202        187        188        205        204        188        189        206        205        189        190        207        206        190        191        208        207        191        192        209        208        192        193        210        209        193        194        211        210        194        195        212        211        195        196        213        212        196        197        214        213        197        198        215        214        198        199        216        215        199        200        217        216        200        201        218        217        201        202        219        218        202        203        220        219        204        205        222        221        205        206        223        222        206        207        224        223        207        208        225        224        208        209        226        225        209        210        227        226        210        211        228        227        211        212        229        228        212        213        230        229        213        214        231        230        214        215        232        231        215        216        233        232        216        217        234        233        217        218        235        234        218        219        236        235        219        220        237        236        221        222        239        238        222        223        240        239        223        224        241        240        224        225        242        241        225        226        243        242        226        227        244        243        227        228        245        244        228        229        246        245        229        230        247        246        230        231        248        247        231        232        249        248        232        233        250        249        233        234        251        250        234        235        252        251        235        236        253        252        236        237        254        253        238        239        256        255        239        240        257        256        240        241        258        257        241        242        259        258        242        243        260        259        243        244        261        260        244        245        262        261        245        246        263        262        246        247        264        263        247        248        265        264        248        249        266        265        249        250        267        266        250        251        268        267        251        252        269        268        252        253        270        269        253        254        271        270        255        256        273        272        256        257        274        273        257        258        275        274        258        259        276        275        259        260        277        276        260        261        278        277        261        262        279        278        262        263        280        279        263        264        281        280        264        265        282        281        265        266        283        282        266        267        284        283        267        268        285        284        268        269        286        285        269        270        287        286        270        271        288        287        306        307          1          0        307        308          2          1        308        309          3          2        309        310          4          3        310        311          5          4        311        312          6          5        312        313          7          6        313        314          8          7        314        315          9          8        315        316         10          9        316        317         11         10        317        318         12         11        318        319         13         12        319        320         14         13        320        321         15         14        321        322         16         15        323        324        307        306        324        325        308        307        325        326        309        308        326        327        310        309        327        328        311        310        328        329        312        311        329        330        313        312        330        331        314        313        331        332        315        314        332        333        316        315        333        334        317        316        334        335        318        317        335        336        319        318        336        337        320        319        337        338        321        320        338        339        322        321        340        341        324        323        341        342        325        324        342        343        326        325        343        344        327        326        344        345        328        327        345        346        329        328        346        347        330        329        347        348        331        330        348        349        332        331        349        350        333        332        350        351        334        333        351        352        335        334        352        353        336        335        353        354        337        336        354        355        338        337        355        356        339        338        357        358        341        340        358        359        342        341        359        360        343        342        360        361        344        343        361        362        345        344        362        363        346        345        363        364        347        346        364        365        348        347        365        366        349        348        366        367        350        349        367        368        351        350        368        369        352        351        369        370        353        352        370        371        354        353        371        372        355        354        372        373        356        355        374        375        358        357        375        376        359        358        376        377        360        359        377        378        361        360        378        379        362        361        379        380        363        362        380        381        364        363        381        382        365        364        382        383        366        365        383        384        367        366        384        385        368        367        385        386        369        368        386        387        370        369        387        388        371        370        388        389        372        371        389        390        373        372        391        392        375        374        392        393        376        375        393        394        377        376        394        395        378        377        395        396        379        378        396        397        380        379        397        398        381        380        398        399        382        381        399        400        383        382        400        401        384        383        401        402        385        384        402        403        386        385        403        404        387        386        404        405        388        387        405        406        389        388        406        407        390        389        408        409        392        391        409        410        393        392        410        411        394        393        411        412        395        394        412        413        396        395        413        414        397        396        414        415        398        397        415        416        399        398        416        417        400        399        417        418        401        400        418        419        402        401        419        420        403        402        420        421        404        403        421        422        405        404        422        423        406        405        423        424        407        406        425        426        409        408        426        427        410        409        427        428        411        410        428        429        412        411        429        430        413        412        430        431        414        413        431        432        415        414        432        433        416        415        433        434        417        416        434        435        418        417        435        436        419        418        436        437        420        419        437        438        421        420        438        439        422        421        439        440        423        422        440        441        424        423        442        443        426        425        443        444        427        426        444        445        428        427        445        446        429        428        446        447        430        429        447        448        431        430        448        449        432        431        449        450        433        432        450        451        434        433        451        452        435        434        452        453        436        435        453        454        437        436        454        455        438        437        455        456        439        438        456        457        440        439        457        458        441        440        459        460        443        442        460        461        444        443        461        462        445        444        462        463        446        445        463        464        447        446        464        465        448        447        465        466        449        448        466        467        450        449        467        468        451        450        468        469        452        451        469        470        453        452        470        471        454        453        471        472        455        454        472        473        456        455        473        474        457        456        474        475        458        457        476        477        460        459        477        478        461        460        478        479        462        461        479        480        463        462        480        481        464        463        481        482        465        464        482        483        466        465        483        484        467        466        484        485        468        467        485        486        469        468        486        487        470        469        487        488        471        470        488        489        472        471        489        490        473        472        490        491        474        473        491        492        475        474        493        494        477        476        494        495        478        477        495        496        479        478        496        497        480        479        497        498        481        480        498        499        482        481        499        500        483        482        500        501        484        483        501        502        485        484        502        503        486        485        503        504        487        486        504        505        488        487        505        506        489        488        506        507        490        489        507        508        491        490        508        509        492        491        510        511        494        493        511        512        495        494        512        513        496        495        513        514        497        496        514        515        498        497        515        516        499        498        516        517        500        499        517        518        501        500        518        519        502        501        519        520        503        502        520        521        504        503        521        522        505        504        522        523        506        505        523        524        507        506        524        525        508        507        525        526        509        508        527        528        511        510        528        529        512        511        529        530        513        512        530        531        514        513        531        532        515        514        532        533        516        515        533        534        517        516        534        535        518        517        535        536        519        518        536        537        520        519        537        538        521        520        538        539        522        521        539        540        523        522        540        541        524        523        541        542        525        524        542        543        526        525        544        545        528        527        545        546        529        528        546        547        530        529        547        548        531        530        548        549        532        531        549        550        533        532        550        551        534        533        551        552        535        534        552        553        536        535        553        554        537        536        554        555        538        537        555        556        539        538        556        557        540        539        557        558        541        540        558        559        542        541        559        560        543        542        561        562        545        544        562        563        546        545        563        564        547        546        564        565        548        547        565        566        549        548        566        567        550        549        567        568        551        550        568        569        552        551        569        570        553        552        570        571        554        553        571        572        555        554        572        573        556        555        573        574        557        556        574        575        558        557        575        576        559        558        576        577        560        559        578        579        596        595        579        580        597        596        580        581        598        597        581        582        599        598        582        583        600        599        583        584        601        600        584        585        602        601        585        586        603        602        586        587        604        603        587        588        605        604        588        589        606        605        589        590        607        606        590        591        608        607        591        592        609        608        592        593        610        609        593        594        611        610        595        596        613        612        596        597        614        613        597        598        615        614        598        599        616        615        599        600        617        616        600        601        618        617        601        602        619        618        602        603        620        619        603        604        621        620        604        605        622        621        605        606        623        622        606        607        624        623        607        608        625        624        608        609        626        625        609        610        627        626        610        611        628        627        612        613        630        629        613        614        631        630        614        615        632        631        615        616        633        632        616        617        634        633        617        618        635        634        618        619        636        635        619        620        637        636        620        621        638        637        621        622        639        638        622        623        640        639        623        624        641        640        624        625        642        641        625        626        643        642        626        627        644        643        627        628        645        644        629        630        647        646        630        631        648        647        631        632        649        648        632        633        650        649        633        634        651        650        634        635        652        651        635        636        653        652        636        637        654        653        637        638        655        654        638        639        656        655        639        640        657        656        640        641        658        657        641        642        659        658        642        643        660        659        643        644        661        660        644        645        662        661        646        647        664        663        647        648        665        664        648        649        666        665        649        650        667        666        650        651        668        667        651        652        669        668        652        653        670        669        653        654        671        670        654        655        672        671        655        656        673        672        656        657        674        673        657        658        675        674        658        659        676        675        659        660        677        676        660        661        678        677        661        662        679        678        663        664        681        680        664        665        682        681        665        666        683        682        666        667        684        683        667        668        685        684        668        669        686        685        669        670        687        686        670        671        688        687        671        672        689        688        672        673        690        689        673        674        691        690        674        675        692        691        675        676        693        692        676        677        694        693        677        678        695        694        678        679        696        695        680        681        698        697        681        682        699        698        682        683        700        699        683        684        701        700        684        685        702        701        685        686        703        702        686        687        704        703        687        688        705        704        688        689        706        705        689        690        707        706        690        691        708        707        691        692        709        708        692        693        710        709        693        694        711        710        694        695        712        711        695        696        713        712        697        698        715        714        698        699        716        715        699        700        717        716        700        701        718        717        701        702        719        718        702        703        720        719        703        704        721        720        704        705        722        721        705        706        723        722        706        707        724        723        707        708        725        724        708        709        726        725        709        710        727        726        710        711        728        727        711        712        729        728        712        713        730        729        714        715        732        731        715        716        733        732        716        717        734        733        717        718        735        734        718        719        736        735        719        720        737        736        720        721        738        737        721        722        739        738        722        723        740        739        723        724        741        740        724        725        742        741        725        726        743        742        726        727        744        743        727        728        745        744        728        729        746        745        729        730        747        746        731        732        749        748        732        733        750        749        733        734        751        750        734        735        752        751        735        736        753        752        736        737        754        753        737        738        755        754        738        739        756        755        739        740        757        756        740        741        758        757        741        742        759        758        742        743        760        759        743        744        761        760        744        745        762        761        745        746        763        762        746        747        764        763        748        749        766        765        749        750        767        766        750        751        768        767        751        752        769        768        752        753        770        769        753        754        771        770        754        755        772        771        755        756        773        772        756        757        774        773        757        758        775        774        758        759        776        775        759        760        777        776        760        761        778        777        761        762        779        778        762        763        780        779        763        764        781        780        765        766        783        782        766        767        784        783        767        768        785        784        768        769        786        785        769        770        787        786        770        771        788        787        771        772        789        788        772        773        790        789        773        774        791        790        774        775        792        791        775        776        793        792        776        777        794        793        777        778        795        794        778        779        796        795        779        780        797        796        780        781        798        797        782        783        800        799        783        784        801        800        784        785        802        801        785        786        803        802        786        787        804        803        787        788        805        804        788        789        806        805        789        790        807        806        790        791        808        807        791        792        809        808        792        793        810        809        793        794        811        810        794        795        812        811        795        796        813        812        796        797        814        813        797        798        815        814        799        800        817        816        800        801        818        817        801        802        819        818        802        803        820        819        803        804        821        820        804        805        822        821        805        806        823        822        806        807        824        823        807        808        825        824        808        809        826        825        809        810        827        826        810        811        828        827        811        812        829        828        812        813        830        829        813        814        831        830        814        815        832        831        816        817        834        833        817        818        835        834        818        819        836        835        819        820        837        836        820        821        838        837        821        822        839        838        822        823        840        839        823        824        841        840        824        825        842        841        825        826        843        842        826        827        844        843        827        828        845        844        828        829        846        845        829        830        847        846        830        831        848        847        831        832        849        848        833        834        562        561        834        835        563        562        835        836        564        563        836        837        565        564        837        838        566        565        838        839        567        566        839        840        568        567        840        841        569        568        841        842        570        569        842        843        571        570        843        844        572        571        844        845        573        572        845        846        574        573        846        847        575        574        847        848        576        575        848        849        577        576        884        885        579        578        885        886        580        579        886        887        581        580        887        888        582        581        888        889        583        582        889        890        584        583        890        891        585        584        891        892        586        585        892        893        587        586        893        894        588        587        894        895        589        588        895        896        590        589        896        897        591        590        897        898        592        591        898        899        593        592        899        900        594        593        901        902        885        884        902        903        886        885        903        904        887        886        904        905        888        887        905        906        889        888        906        907        890        889        907        908        891        890        908        909        892        891        909        910        893        892        910        911        894        893        911        912        895        894        912        913        896        895        913        914        897        896        914        915        898        897        915        916        899        898        916        917        900        899        918        919        902        901        919        920        903        902        920        921        904        903        921        922        905        904        922        923        906        905        923        924        907        906        924        925        908        907        925        926        909        908        926        927        910        909        927        928        911        910        928        929        912        911        929        930        913        912        930        931        914        913        931        932        915        914        932        933        916        915        933        934        917        916        935        936        919        918        936        937        920        919        937        938        921        920        938        939        922        921        939        940        923        922        940        941        924        923        941        942        925        924        942        943        926        925        943        944        927        926        944        945        928        927        945        946        929        928        946        947        930        929        947        948        931        930        948        949        932        931        949        950        933        932        950        951        934        933        952        953        936        935        953        954        937        936        954        955        938        937        955        956        939        938        956        957        940        939        957        958        941        940        958        959        942        941        959        960        943        942        960        961        944        943        961        962        945        944        962        963        946        945        963        964        947        946        964        965        948        947        965        966        949        948        966        967        950        949        967        968        951        950        969        970        953        952        970        971        954        953        971        972        955        954        972        973        956        955        973        974        957        956        974        975        958        957        975        976        959        958        976        977        960        959        977        978        961        960        978        979        962        961        979        980        963        962        980        981        964        963        981        982        965        964        982        983        966        965        983        984        967        966        984        985        968        967        986        987        970        969        987        988        971        970        988        989        972        971        989        990        973        972        990        991        974        973        991        992        975        974        992        993        976        975        993        994        977        976        994        995        978        977        995        996        979        978        996        997        980        979        997        998        981        980        998        999        982        981        999       1000        983        982       1000       1001        984        983       1001       1002        985        984       1003       1004        987        986       1004       1005        988        987       1005       1006        989        988       1006       1007        990        989       1007       1008        991        990       1008       1009        992        991       1009       1010        993        992       1010       1011        994        993       1011       1012        995        994       1012       1013        996        995       1013       1014        997        996       1014       1015        998        997       1015       1016        999        998       1016       1017       1000        999       1017       1018       1001       1000       1018       1019       1002       1001       1020       1021       1004       1003       1021       1022       1005       1004       1022       1023       1006       1005       1023       1024       1007       1006       1024       1025       1008       1007       1025       1026       1009       1008       1026       1027       1010       1009       1027       1028       1011       1010       1028       1029       1012       1011       1029       1030       1013       1012       1030       1031       1014       1013       1031       1032       1015       1014       1032       1033       1016       1015       1033       1034       1017       1016       1034       1035       1018       1017       1035       1036       1019       1018       1037       1038       1021       1020       1038       1039       1022       1021       1039       1040       1023       1022       1040       1041       1024       1023       1041       1042       1025       1024       1042       1043       1026       1025       1043       1044       1027       1026       1044       1045       1028       1027       1045       1046       1029       1028       1046       1047       1030       1029       1047       1048       1031       1030       1048       1049       1032       1031       1049       1050       1033       1032       1050       1051       1034       1033       1051       1052       1035       1034       1052       1053       1036       1035       1054       1055       1038       1037       1055       1056       1039       1038       1056       1057       1040       1039       1057       1058       1041       1040       1058       1059       1042       1041       1059       1060       1043       1042       1060       1061       1044       1043       1061       1062       1045       1044       1062       1063       1046       1045       1063       1064       1047       1046       1064       1065       1048       1047       1065       1066       1049       1048       1066       1067       1050       1049       1067       1068       1051       1050       1068       1069       1052       1051       1069       1070       1053       1052       1071       1072       1055       1054       1072       1073       1056       1055       1073       1074       1057       1056       1074       1075       1058       1057       1075       1076       1059       1058       1076       1077       1060       1059       1077       1078       1061       1060       1078       1079       1062       1061       1079       1080       1063       1062       1080       1081       1064       1063       1081       1082       1065       1064       1082       1083       1066       1065       1083       1084       1067       1066       1084       1085       1068       1067       1085       1086       1069       1068       1086       1087       1070       1069       1088       1089       1072       1071       1089       1090       1073       1072       1090       1091       1074       1073       1091       1092       1075       1074       1092       1093       1076       1075       1093       1094       1077       1076       1094       1095       1078       1077       1095       1096       1079       1078       1096       1097       1080       1079       1097       1098       1081       1080       1098       1099       1082       1081       1099       1100       1083       1082       1100       1101       1084       1083       1101       1102       1085       1084       1102       1103       1086       1085       1103       1104       1087       1086       1105       1106       1089       1088       1106       1107       1090       1089       1107       1108       1091       1090       1108       1109       1092       1091       1109       1110       1093       1092       1110       1111       1094       1093       1111       1112       1095       1094       1112       1113       1096       1095       1113       1114       1097       1096       1114       1115       1098       1097       1115       1116       1099       1098       1116       1117       1100       1099       1117       1118       1101       1100       1118       1119       1102       1101       1119       1120       1103       1102       1120       1121       1104       1103       1122       1123       1106       1105       1123       1124       1107       1106       1124       1125       1108       1107       1125       1126       1109       1108       1126       1127       1110       1109       1127       1128       1111       1110       1128       1129       1112       1111       1129       1130       1113       1112       1130       1131       1114       1113       1131       1132       1115       1114       1132       1133       1116       1115       1133       1134       1117       1116       1134       1135       1118       1117       1135       1136       1119       1118       1136       1137       1120       1119       1137       1138       1121       1120        272        273       1123       1122        273        274       1124       1123        274        275       1125       1124        275        276       1126       1125        276        277       1127       1126        277        278       1128       1127        278        279       1129       1128        279        280       1130       1129        280        281       1131       1130        281        282       1132       1131        282        283       1133       1132        283        284       1134       1133        284        285       1135       1134        285        286       1136       1135        286        287       1137       1136        287        288       1138       1137 </DataArray>
<DataArray type="Int32"                                    Name="offsets"                                                      NumberOfComponents=" 1" format="ascii">
         4          8         12         16         20         24         28         32         36         40         44         48         52         56         60         64         68         72         76         80         84         88         92         96        100        104        108        112        116        120        124        128        132        136        140        144        148        152        156        160        164        168        172        176        180        184        188        192        196        200        204        208        212        216        220        224        228        232        236        240        244        248        252        256        260        264        268        272        276        280        284        288        292        296        300        304        308        312        316        320        324        328        332        336        340        344        348        352        356        360        364        368        372        376        380        384        388        392        396        400        404        408        412        416        420        424        428        432        436        440        444        448        452        456        460        464        468        472        476        480        484        488        492        496        500        504        508        512        516        520        524        528        532        536        540        544        548        552        556        560        564        568        572        576        580        584        588        592        596        600        604        608        612        616        620        624        628        632        636        640        644        648        652        656        660        664        668        672        676        680        684        688        692        696        700        704        708        712        716        720        724        728        732        736        740        744        748        752        756        760        764        768        772        776        780        784        788        792        796        800        804        808        812        816        820        824        828        832        836        840        844        848        852        856        860        864        868        872        876        880        884        888        892        896        900        904        908        912        916        920        924        928        932        936        940        944        948        952        956        960        964        968        972        976        980        984        988        992        996       1000       1004       1008       1012       1016       1020       1024       1028       1032       1036       1040       1044       1048       1052       1056       1060       1064       1068       1072       1076       1080       1084       1088       1092       1096       1100       1104       1108       1112       1116       1120       1124       1128       1132       1136       1140       1144       1148       1152       1156       1160       1164       1168       1172       1176       1180       1184       1188       1192       1196       1200       1204       1208       1212       1216       1220       1224       1228       1232       1236       1240       1244       1248       1252       1256       1260       1264       1268       1272       1276       1280       1284       1288       1292       1296       1300       1304       1308       1312       1316       1320       1324       1328       1332       1336       1340       1344       1348       1352       1356       1360       1364       1368       1372       1376       1380       1384       1388       1392       1396       1400       1404       1408       1412       1416       1420       1424       1428       1432       1436       1440       1444       1448       1452       1456       1460       1464       1468       1472       1476       1480       1484       1488       1492       1496       1500       1504       1508       1512       1516       1520       1524       1528       1532       1536       1540       1544       1548       1552       1556       1560       1564       1568       1572       1576       1580       1584       1588       1592       1596       1600       1604       1608       1612       1616       1620       1624       1628       1632       1636       1640       1644       1648       1652       1656       1660       1664       1668       1672       1676       1680       1684       1688       1692       1696       1700       1704       1708       1712       1716       1720       1724       1728       1732       1736       1740       1744       1748       1752       1756       1760       1764       1768       1772       1776       1780       1784       1788       1792       1796       1800       1804       1808       1812       1816       1820       1824       1828       1832       1836       1840       1844       1848       1852       1856       1860       1864       1868       1872       1876       1880       1884       1888       1892       1896       1900       1904       1908       1912       1916       1920       1924       1928       1932       1936       1940       1944       1948       1952       1956       1960       1964       1968       1972       1976       1980       1984       1988       1992       1996       2000       2004       2008       2012       2016       2020       2024       2028       2032       2036       2040       2044       2048       2052       2056       2060       2064       2068       2072       2076       2080       2084       2088       2092       2096       2100       2104       2108       2112       2116       2120       2124       2128       2132       2136       2140       2144       2148       2152       2156       2160       2164       2168       2172       2176       2180       2184       2188       2192       2196       2200       2204       2208       2212       2216       2220       2224       2228       2232       2236       2240       2244       2248       2252       2256       2260       2264       2268       2272       2276       2280       2284       2288       2292       2296       2300       2304       2308       2312       2316       2320       2324       2328       2332       2336       2340       2344       2348       2352       2356       2360       2364       2368       2372       2376       2380       2384       2388       2392       2396       2400       2404       2408       2412       2416       2420       2424       2428       2432       2436       2440       2444       2448       2452       2456       2460       2464       2468       2472       2476       2480       2484       2488       2492       2496       2500       2504       2508       2512       2516       2520       2524       2528       2532       2536       2540       2544       2548       2552       2556       2560       2564       2568       2572       2576       2580       2584       2588       2592       2596       2600       2604       2608       2612       2616       2620       2624       2628       2632       2636       2640       2644       2648       2652       2656       2660       2664       2668       2672       2676       2680       2684       2688       2692       2696       2700       2704       2708       2712       2716       2720       2724       2728       2732       2736       2740       2744       2748       2752       2756       2760       2764       2768       2772       2776       2780       2784       2788       2792       2796       2800       2804       2808       2812       2816       2820       2824       2828       2832       2836       2840       2844       2848       2852       2856       2860       2864       2868       2872       2876       2880       2884       2888       2892       2896       2900       2904       2908       2912       2916       2920       2924       2928       2932       2936       2940       2944       2948       2952       2956       2960       2964       2968       2972       2976       2980       2984       2988       2992       2996       3000       3004       3008       3012       3016       3020       3024       3028       3032       3036       3040       3044       3048       3052       3056       3060       3064       3068       3072       3076       3080       3084       3088       3092       3096       3100       3104       3108       3112       3116       3120       3124       3128       3132       3136       3140       3144       3148       3152       3156       3160       3164       3168       3172       3176       3180       3184       3188       3192       3196       3200       3204       3208       3212       3216       3220       3224       3228       3232       3236       3240       3244       3248       3252       3256       3260       3264       3268       3272       3276       3280       3284       3288       3292       3296       3300       3304       3308       3312       3316       3320       3324       3328       3332       3336       3340       3344       3348       3352       3356       3360       3364       3368       3372       3376       3380       3384       3388       3392       3396       3400       3404       3408       3412       3416       3420       3424       3428       3432       3436       3440       3444       3448       3452       3456       3460       3464       3468       3472       3476       3480       3484       3488       3492       3496       3500       3504       3508       3512       3516       3520       3524       3528       3532       3536       3540       3544       3548       3552       3556       3560       3564       3568       3572       3576       3580       3584       3588       3592       3596       3600       3604       3608       3612       3616       3620       3624       3628       3632       3636       3640       3644       3648       3652       3656       3660       3664       3668       3672       3676       3680       3684       3688       3692       3696       3700       3704       3708       3712       3716       3720       3724       3728       3732       3736       3740       3744       3748       3752       3756       3760       3764       3768       3772       3776       3780       3784       3788       3792       3796       3800       3804       3808       3812       3816       3820       3824       3828       3832       3836       3840       3844       3848       3852       3856       3860       3864       3868       3872       3876       3880       3884       3888       3892       3896       3900       3904       3908       3912       3916       3920       3924       3928       3932       3936       3940       3944       3948       3952       3956       3960       3964       3968       3972       3976       3980       3984       3988       3992       3996       4000       4004       4008       4012       4016       4020       4024       4028       4032       4036       4040       4044       4048       4052       4056       4060       4064       4068       4072       4076       4080       4084       4088       4092       4096 </DataArray>
<DataArray type="UInt8"                                    Name="types"                                                      NumberOfComponents=" 1" format="ascii">
         9          9          9          9          9          9          9          9          9          9          9          9          9          9          9          9          9          9          9          9          9          9          9          9          9          9          9          9          9          9          9          9          9          9          9          9          9          9          9          9          9          9          9          9          9          9          9          9          9          9          9          9          9          9          9          9          9          9          9          9          9          9          9          9          9          9          9          9          9          9          9          9          9          9          9          9          9          9          9          9          9          9          9          9          9          9          9          9          9          9          9          9          9          9          9          9          9          9          9          9          9          9          9          9          9          9          9          9          9          9          9          9          9          9          9          9          9          9          9          9          9          9          9          9          9          9          9          9          9          9          9          9          9          9          9          9          9          9          9          9          9          9          9          9          9          9          9          9          9          9          9          9          9          9          9          9          9          9          9          9          9          9          9          9          9          9          9          9          9          9          9          9          9          9          9          9          9          9          9          9          9          9          9          9          9          9          9          9          9          9          9          9          9          9          9          9          9          9          9          9          9          9          9          9          9          9          9          9          9          9          9          9          9          9          9          9          9          9          9          9          9          9          9          9          9          9          9          9          9          9          9          9          9          9          9          9          9          9          9          9          9          9          9          9          9          9          9          9          9          9          9          9          9          9          9          9          9          9          9          9          9          9          9          9          9          9          9          9          9          9          9          9          9          9          9          9          9          9          9          9          9          9          9          9          9          9          9          9          9          9          9          9          9          9          9          9          9          9          9          9          9          9          9          9          9          9          9          9          9          9          9          9          9          9          9          9          9          9          9          9          9          9          9          9          9          9          9          9          9          9          9          9          9          9          9          9          9          9          9          9          9          9          9          9          9          9          9          9          9          9          9          9          9          9          9          9          9          9          9          9          9          9          9          9          9          9          9          9          9          9          9          9          9          9          9          9          9          9          9          9          9          9          9          9          9          9          9          9          9          9          9          9          9          9          9          9          9          9          9          9          9          9          9          9          9          9          9          9          9          9          9          9          9          9          9          9          9          9          9          9          9          9          9          9          9          9          9          9          9          9          9          9          9          9          9          9          9          9          9          9          9          9          9          9          9          9          9          9          9          9          9          9          9          9          9          9          9          9          9          9          9          9          9          9          9          9          9          9          9          9          9          9          9          9          9          9          9          9          9          9          9          9          9          9          9          9          9          9          9          9          9          9          9          9          9          9          9          9          9          9          9          9          9          9          9          9          9          9          9          9          9          9          9          9          9          9          9          9          9          9          9          9          9          9          9          9          9          9          9          9          9          9          9          9          9          9          9          9          9          9          9          9          9          9          9          9          9          9          9          9          9          9          9          9          9          9          9          9          9          9          9          9          9          9          9          9          9          9          9          9          9          9          9          9          9          9          9          9          9          9          9          9          9          9          9          9          9          9          9          9          9          9          9          9          9          9          9          9          9          9          9          9          9          9          9          9          9          9          9          9          9          9          9          9          9          9          9          9          9          9          9          9          9          9          9          9          9          9          9          9          9          9          9          9          9          9          9          9          9          9          9          9          9          9          9          9          9          9          9          9          9          9          9          9          9          9          9          9          9          9          9          9          9          9          9          9          9          9          9          9          9          9          9          9          9          9          9          9          9          9          9          9          9          9          9          9          9          9          9          9          9          9          9          9          9          9          9          9          9          9          9          9          9          9          9          9          9          9          9          9          9          9          9          9          9          9          9          9          9          9          9          9          9          9          9          9          9          9          9          9          9          9          9          9          9          9          9          9          9          9          9          9          9          9          9          9          9          9          9          9          9          9          9          9          9          9          9          9          9          9          9          9          9          9          9          9          9          9          9          9          9          9          9          9          9          9          9          9          9          9          9          9          9          9          9          9          9          9          9          9          9          9          9          9          9          9          9          9          9          9          9          9          9          9          9          9          9          9          9          9          9          9          9          9          9          9          9          9          9          9          9          9          9          9          9          9          9          9          9          9          9          9          9          9          9          9          9          9          9          9          9          9          9          9          9          9          9          9          9          9          9          9          9          9          9          9          9          9          9          9          9          9          9          9          9          9          9          9          9          9          9          9          9          9          9          9          9          9          9          9          9          9          9          9          9          9          9          9          9          9          9          9          9          9          9          9          9          9          9          9          9          9          9          9          9          9          9          9          9          9          9          9          9          9          9          9          9          9          9          9          9          9          9          9          9          9          9          9          9          9          9          9          9          9          9          9          9          9          9          9          9          9          9          9          9          9          9          9          9          9          9          9          9          9          9          9          9          9          9          9          9          9          9          9          9          9          9          9          9          9          9          9          9          9          9          9          9          9          9          9          9          9          9          9          9          9          9          9          9          9          9          9          9          9          9          9          9          9          9          9          9          9          9          9          9          9          9          9          9          9          9          9          9          9          9          9          9          9          9          9          9          9          9          9 </DataArray>
</Cells>
<CellData>
<DataArray type="Int32"                                    Name="material"                                                      NumberOfComponents=" 1" format="ascii">
         1          1          1          1          1          1          1          1          1          1          1          1          1          1          1          1          1          1          1          1          1          1          1          1          1          1          1          1          1          1          1          1          1          1          1          1          1          1          1          1          1          1          1          1          1          1          1          1          1          1          1          1          1          1          1          1          1          1          1          1          1          1          1          1          1          1          1          1          1          1          1          1          1          1          1          1          1          1          1          1          1          1          1          1          1          1          1          1          1          1          1          1          1          1          1          1          1          1          1          1          1          1          1          1          1          1          1          1          1          1          1          1          1          1          1          1          1          1          1          1          1          1          1          1          1          1          1          1          1          1          1          1          1          1          1          1          1          1          1          1          1          1          1          1          1          1          1          1          1          1          1          1          1          1          1          1          1          1          1          1          1          1          1          1          1          1          1          1          1          1          1          1          1          1          1          1          1          1          1          1          1          1          1          1          1          1          1          1          1          1          1          1          1          1          1          1          1          1          1          1          1          1          1          1          1          1          1          1          1          1          1          1          1          1          1          1          1          1          1          1          1          1          1          1          1          1          1          1          1          1          1          1          1          1          1          1          1          1          1          1          1          1          1          1          1          1          1          1          1          1          1          1          1          1          1          1          1          1          1          1          1          1          1          1          1          1          1          1          1          1          1          1          1          1          1          1          1          1          1          1          1          1          1          1          1          1          1          1          1          1          1          1          1          1          1          1          1          1          1          1          1          1          1          1          1          1          1          1          1          1          1          1          1          1          1          1          1          1          1          1          1          1          1          1          1          1          1          1          1          1          1          1          1          1          1          1          1          1          1          1          1          1          1          1          1          1          1          1          1          1          1          1          1          1          1          1          1          1          1          1          1          1          1          1          1          1          1          1          1          1          1          1          1          1          1          1          1          1          1          1          1          1          1          1          1          1          1          1          1          1          1          1          1          1          1          1          1          1          1          1          1          1          1          1          1          1          1          1          1          1          1          1          1          1          1          1          1          1          1          1          1          1          1          1          1          1          1          1          1          1          1          1          1          1          1          1          1          1          1          1          1          1          1          1          1          1          1          1          1          1          1          1          1          1          1          1          1          1          1          1          1          1          1          1          1          1          1          1          1          1          1          1          1          1          1          1          1          1          1          1          1          1          1          1          1          1          1          1          1          1          1          1          1          1          1          1          1          1          1          1          1          1          1          1          1          1          1          1          1          1          1          1          1          1          1          1          1          1          1          1          1          1          1          1          1          1          1          1          1          1          1          1          1          1          1          1          1          1          1          1          1          1          1          1          1          1          1          1          1          1          1          1          1          1          1          1          1          1          1          1          1          1          1          1          1          1          1          1          1          1          1          1          1          1          1          1          1          1          1          1          1          1          1          1          1          1          1          1          1          1          1          1          1          1          1          1          1          1          1          1          1          1          1          1          1          1          1          1          1          1          1          1          1          1          1          1          1          1          1          1          1          1          1          1          1          1          1          1          1          1          1          1          1          1          1          1          1          1          1          1          1          1          1          1          1          1          1          1          1          1          1          1          1          1          1          1          1          1          1          1          1          1          1          1          1          1          1          1          1          1          1          1          1          1          1          1          1          1          1          1          1          1          1          1          1          1          1          1          1          1          1          1          1          1          1          1          1          1          1          1          1          1          1          1          1          1          1          1          1          1          1          1          1          1          1          1          1          1          1          1          1          1          1          1          1          1          1          1          1          1          1          1          1          1          1          1          1          1          1          1          1          1          1          1          1          1          1          1          1          1          1          1          1          1          1          1          1          1          1          1          1          1          1          1          1          1          1          1          1          1          1          1          1          1          1          1          1          1          1          1          1          1          1          1          1          1          1          1          1          1          1          1          1          1          1          1          1          1          1          1          1          1          1          1          1          1          1          1          1          1          1          1          1          1          1          1          1          1          1          1          1          1          1          1          1          1          1          1          1          1          1          1          1          1          1          1          1          1          1          1          1          1          1          1          1          1          1          1          1          1          1          1          1          1          1          1          1          1          1          1          1          1          1          1          1          1          1          1          1          1          1          1          1          1          1          1          1          1          1          1          1          1          1          1          1          1          1          1          1          1          1          1          1          1          1          1          1          1          1          1          1          1          1          1          1          1          1          1          1          1          1          1          1          1          1          1          1          1          1          1          1          1          1          1          1          1          1          1          1          1          1          1          1          1          1          1          1          1          1          1          1          1          1          1          1          1          1          1          1          1          1          1          1          1          1          1          1          1          1          1          1          1          1          1          1          1          1          1          1          1          1          1          1          1          1          1          1          1          1          1          1          1          1          1          1          1          1          1          1          1          1          1          1          1          1          1          1          1          1          1          1          1          1          1          1          1          1          1          1          1          1          1          1          1          1          1          1          1          1          1          1          1          1          1 </DataArray>
</CellData>
<PointData>
<DataArray type="Float64"                                    Name="u"                                                      NumberOfComponents=" 3" format="ascii">
             -0.000323330               0.000000000               0.999999987              -0.000360482               0.000000000               0.999999987              -0.000377614               0.000000000               0.999999987              -0.000387539              -0.000000000               0.999999987              -0.000395348               0.000000000               0.999999987              -0.000403191              -0.000000000               0.999999987              -0.000412015               0.000000000               0.999999987              -0.000422260               0.000000000               0.999999987              -0.000433847               0.000000000               0.999999987              -0.000446533               0.000000000               0.999999987              -0.000460104              -0.000000000               0.999999987              -0.000474382              -0.000000000               0.999999987              -0.000489255               0.000000000               0.999999987              -0.000504648              -0.000000000               0.999999987              -0.000520319               0.000000000               0.999999987              -0.000535944               0.000000000               0.999999987              -0.000551067               0.000000000               0.999999987              -0.000321564               0.000094343               0.999999987              -0.000356445               0.000079764               0.999999987              -0.000372121               0.000074273               0.999999987              -0.000381227               0.000073514               0.999999987              -0.000388604               0.000075458               0.999999987              -0.000396223               0.000079062               0.999999987              -0.000404973               0.000083756               0.999999987              -0.000415076               0.000089001               0.999999987              -0.000426380               0.000094363               0.999999987              -0.000438743               0.000099619               0.999999987              -0.000451962               0.000104662               0.999999987              -0.000465911               0.000109353               0.999999987              -0.000480351               0.000113668               0.999999987              -0.000495118               0.000117366               0.999999987              -0.000510055               0.000120060               0.999999987              -0.000524825               0.000121157               0.999999987              -0.000539126               0.000120071               0.999999987              -0.000316233               0.000187745               0.999999987              -0.000344546               0.000158831               0.999999987              -0.000356323               0.000148467               0.999999987              -0.000363251               0.000147577               0.999999987              -0.000369461               0.000151917               0.999999987              -0.000376535               0.000159397               0.999999987              -0.000384904               0.000168896               0.999999987              -0.000394601               0.000179387               0.999999987              -0.000405452               0.000190044               0.999999987              -0.000417143               0.000200488               0.999999987              -0.000429512               0.000210567               0.999999987              -0.000442444               0.000220098               0.999999987              -0.000455682               0.000228768               0.999999987              -0.000469003               0.000236316               0.999999987              -0.000482138               0.000242114               0.999999987              -0.000494942               0.000245455               0.999999987              -0.000507320               0.000245628               0.999999987              -0.000307399               0.000279290               0.999999987              -0.000325353               0.000236658               0.999999987              -0.000331493               0.000222588               0.999999987              -0.000335557               0.000222574               0.999999987              -0.000340480               0.000230019               0.999999987              -0.000346991               0.000241804               0.999999987              -0.000355080               0.000256213               0.999999987              -0.000364510               0.000271892               0.999999987              -0.000374866               0.000287774               0.999999987              -0.000385875               0.000303274               0.999999987              -0.000397306               0.000318391               0.999999987              -0.000409037               0.000332762               0.999999987              -0.000420761               0.000345893               0.999999987              -0.000432208               0.000357318               0.999999987              -0.000443207               0.000366684               0.999999987              -0.000453656               0.000373478               0.999999987              -0.000463536               0.000377203               0.999999987              -0.000295222               0.000368053               0.999999987              -0.000299797               0.000312924               0.999999987              -0.000299719               0.000296639               0.999999987              -0.000301203               0.000298508               0.999999987              -0.000305270               0.000309726               0.999999987              -0.000311743               0.000326160               0.999999987              -0.000320024               0.000345497               0.999999987              -0.000329376               0.000366191               0.999999987              -0.000339392               0.000387063               0.999999987              -0.000349729               0.000407518               0.999999987              -0.000360194               0.000427525               0.999999987              -0.000370489               0.000446641               0.999999987              -0.000380302               0.000464069               0.999999987              -0.000389473               0.000479535               0.999999987              -0.000397980               0.000493069               0.999999987              -0.000405802               0.000504274               0.999999987              -0.000412963               0.000513117               0.999999987              -0.000279932               0.000453098               0.999999987              -0.000269226               0.000387464               0.999999987              -0.000263482               0.000370497               0.999999987              -0.000263435               0.000375057               0.999999987              -0.000267692               0.000390441               0.999999987              -0.000274908               0.000411515               0.999999987              -0.000283779               0.000435617               0.999999987              -0.000293407               0.000460950               0.999999987              -0.000303318               0.000486445               0.999999987              -0.000313032               0.000511618               0.999999987              -0.000322302               0.000536166               0.999999987              -0.000330856               0.000559550               0.999999987              -0.000338511               0.000581126               0.999999987              -0.000345227               0.000600859               0.999999987              -0.000351108               0.000618898               0.999999987              -0.000356225               0.000635154               0.999999987              -0.000360819               0.000649804               0.999999987              -0.000261752               0.000533607               0.999999987              -0.000235387               0.000460089               0.999999987              -0.000225459               0.000443682               0.999999987              -0.000225314               0.000451511               0.999999987              -0.000230871               0.000471043               0.999999987              -0.000239396               0.000496626               0.999999987              -0.000249268               0.000525086               0.999999987              -0.000259311               0.000554620               0.999999987              -0.000268947               0.000584433               0.999999987              -0.000277883               0.000613887               0.999999987              -0.000285751               0.000642417               0.999999987              -0.000292452               0.000669695               0.999999987              -0.000297897               0.000695208               0.999999987              -0.000302259               0.000719008               0.999999987              -0.000305738               0.000741379               0.999999987              -0.000308479               0.000762119               0.999999987              -0.000310534               0.000781822               0.999999987              -0.000241095               0.000608767               0.999999987              -0.000200046               0.000530581               0.999999987              -0.000187958               0.000515655               0.999999987              -0.000189401               0.000526727               0.999999987              -0.000197044               0.000550215               0.999999987              -0.000207315               0.000579849               0.999999987              -0.000218004               0.000612343               0.999999987              -0.000228142               0.000645923               0.999999987              -0.000237241               0.000679710               0.999999987              -0.000245030               0.000713045               0.999999987              -0.000251325               0.000745255               0.999999987              -0.000256056               0.000775978               0.999999987              -0.000259331               0.000804917               0.999999987              -0.000261436               0.000832257               0.999999987              -0.000262313               0.000858283               0.999999987              -0.000262163               0.000883079               0.999999987              -0.000261219               0.000906983               0.999999987              -0.000218954               0.000677222               0.999999987              -0.000164561               0.000598829               0.999999987              -0.000153182               0.000585518               0.999999987              -0.000157283               0.000599501               0.999999987              -0.000167499               0.000626526               0.999999987              -0.000179252               0.000659937               0.999999987              -0.000190443               0.000696203               0.999999987              -0.000200322               0.000733636               0.999999987              -0.000208502               0.000771148               0.999999987              -0.000214871               0.000807990               0.999999987              -0.000219273               0.000843554               0.999999987              -0.000221666               0.000877348               0.999999987              -0.000222384               0.000909374               0.999999987              -0.000221525               0.000939993               0.999999987              -0.000219213               0.000969471               0.999999987              -0.000215985               0.000998043               0.999999987              -0.000212368               0.001026005               0.999999987              -0.000196712               0.000741375               0.999999987              -0.000136040               0.000672549               0.999999987              -0.000121808               0.000654530               0.999999987              -0.000124284               0.000662566               0.999999987              -0.000133316               0.000684254               0.999999987              -0.000144271               0.000713274               0.999999987              -0.000154888               0.000746125               0.999999987              -0.000164354               0.000780895               0.999999987              -0.000172249               0.000816491               0.999999987              -0.000178275               0.000852191               0.999999987              -0.000182725               0.000887369               0.999999987              -0.000185180               0.000921469               0.999999987              -0.000185569               0.000954242               0.999999987              -0.000184215               0.000985816               0.999999987              -0.000181112               0.001016360               0.999999987              -0.000176676               0.001046175               0.999999987              -0.000171608               0.001075360               0.999999987              -0.000172198               0.000799378               0.999999987              -0.000110209               0.000743276               0.999999987              -0.000093201               0.000724682               0.999999987              -0.000093420               0.000728437               0.999999987              -0.000100601               0.000745597               0.999999987              -0.000110311               0.000770676               0.999999987              -0.000120174               0.000800274               0.999999987              -0.000129014               0.000832494               0.999999987              -0.000136375               0.000866152               0.999999987              -0.000142018               0.000900405               0.999999987              -0.000146090               0.000934671               0.999999987              -0.000148317               0.000968518               0.999999987              -0.000148315               0.001001623               0.999999987              -0.000146261               0.001033747               0.999999987              -0.000142384               0.001065099               0.999999987              -0.000136684               0.001095870               0.999999987              -0.000129628               0.001126212               0.999999987              -0.000146024               0.000849972               0.999999987              -0.000087023               0.000809002               0.999999987              -0.000068284               0.000792977               0.999999987              -0.000066039               0.000794858               0.999999987              -0.000070970               0.000808736               0.999999987              -0.000078931               0.000830590               0.999999987              -0.000087580               0.000857508               0.999999987              -0.000095529               0.000887503               0.999999987              -0.000102298               0.000919444               0.999999987              -0.000107396               0.000952451               0.999999987              -0.000110846               0.000985799               0.999999987              -0.000112556               0.001019150               0.999999987              -0.000112166               0.001052155               0.999999987              -0.000109369               0.001084578               0.999999987              -0.000104290               0.001116509               0.999999987              -0.000097001               0.001148099               0.999999987              -0.000087463               0.001179394               0.999999987              -0.000118487               0.000892346               0.999999987              -0.000066377               0.000867169               0.999999987              -0.000047556               0.000856104               0.999999987              -0.000043377               0.000858237               0.999999987              -0.000046003               0.000870543               0.999999987              -0.000051903               0.000890225               0.999999987              -0.000058915               0.000915152               0.999999987              -0.000065705               0.000943532               0.999999987              -0.000071597               0.000974156               0.999999987              -0.000076045               0.001006237               0.999999987              -0.000078899               0.001039105               0.999999987              -0.000080074               0.001072176               0.999999987              -0.000079259               0.001105170               0.999999987              -0.000075831               0.001137987               0.999999987              -0.000069678               0.001170522               0.999999987              -0.000060487               0.001202924               0.999999987              -0.000047964               0.001235240               0.999999987              -0.000089852               0.000925871               0.999999987              -0.000047906               0.000915272               0.999999987              -0.000031103               0.000910339               0.999999987              -0.000026068               0.000914336               0.999999987              -0.000026895               0.000926445               0.999999987              -0.000030669               0.000945091               0.999999987              -0.000035835               0.000968831               0.999999987              -0.000041202               0.000996286               0.999999987              -0.000045863               0.001026324               0.999999987              -0.000049442               0.001058032               0.999999987              -0.000051786               0.001090865               0.999999987              -0.000052475               0.001124321               0.999999987              -0.000051340               0.001158063               0.999999987              -0.000047785               0.001191822               0.999999987              -0.000041186               0.001225418               0.999999987              -0.000030885               0.001258887               0.999999987              -0.000016032               0.001292307               0.999999987              -0.000060383               0.000950058               0.999999987              -0.000031064               0.000951136               0.999999987              -0.000018390               0.000952054               0.999999987              -0.000013942               0.000958537               0.999999987              -0.000013713               0.000971381               0.999999987              -0.000015771               0.000989889               0.999999987              -0.000019084               0.001013203               0.999999987              -0.000022679               0.001040320               0.999999987              -0.000025998               0.001070249               0.999999987              -0.000028559               0.001102198               0.999999987              -0.000030175               0.001135590               0.999999987              -0.000030532               0.001170031               0.999999987              -0.000029427               0.001205141               0.999999987              -0.000026391               0.001240596               0.999999987              -0.000020676               0.001276118               0.999999987              -0.000011239               0.001311511               0.999999987               0.000003178               0.001346575               0.999999987              -0.000030334               0.000964701               0.999999987              -0.000015264               0.000973235               0.999999987              -0.000008451               0.000978278               0.999999987              -0.000005884               0.000986842               0.999999987              -0.000005476               0.001000559               0.999999987              -0.000006348               0.001019349               0.999999987              -0.000007876               0.001042616               0.999999987              -0.000009677               0.001069655               0.999999987              -0.000011421               0.001099741               0.999999987              -0.000012821               0.001132146               0.999999987              -0.000013575               0.001166303               0.999999987              -0.000013738               0.001201802               0.999999987              -0.000013002               0.001238359               0.999999987              -0.000011297               0.001275677               0.999999987              -0.000007906               0.001313323               0.999999987              -0.000002076               0.001350867               0.999999987               0.000007180               0.001387730               0.999999987               0.000000000               0.000969612               0.999999987              -0.000000000               0.000980690               0.999999987               0.000000000               0.000987222               0.999999987               0.000000000               0.000996645               0.999999987              -0.000000000               0.001010721               0.999999987               0.000000000               0.001029613               0.999999987               0.000000000               0.001052930               0.999999987              -0.000000000               0.001079980               0.999999987              -0.000000000               0.001110078               0.999999987               0.000000000               0.001142660               0.999999987              -0.000000000               0.001177173               0.999999987              -0.000000000               0.001213235               0.999999987              -0.000000000               0.001250441               0.999999987              -0.000000000               0.001288558               0.999999987              -0.000000000               0.001327143               0.999999987              -0.000000000               0.001365600               0.999999987              -0.000000000               0.001403280               0.999999987              -0.000323330               0.000000000               0.999999987              -0.000360482               0.000000000               0.999999987              -0.000377614               0.000000000               0.999999987              -0.000387539              -0.000000000               0.999999987              -0.000395348               0.000000000               0.999999987              -0.000403191              -0.000000000               0.999999987              -0.000412015               0.000000000               0.999999987              -0.000422260               0.000000000               0.999999987              -0.000433847               0.000000000               0.999999987              -0.000446533               0.000000000               0.999999987              -0.000460104              -0.000000000               0.999999987              -0.000474382              -0.000000000               0.999999987              -0.000489255               0.000000000               0.999999987              -0.000504648              -0.000000000               0.999999987              -0.000520319               0.000000000               0.999999987              -0.000535944               0.000000000               0.999999987              -0.000551067               0.000000000               0.999999987              -0.000321564              -0.000094343               0.999999987              -0.000356445              -0.000079764               0.999999987              -0.000372121              -0.000074273               0.999999987              -0.000381227              -0.000073514               0.999999987              -0.000388604              -0.000075458               0.999999987              -0.000396223              -0.000079062               0.999999987              -0.000404973              -0.000083756               0.999999987              -0.000415076              -0.000089001               0.999999987              -0.000426380              -0.000094363               0.999999987              -0.000438743              -0.000099619               0.999999987              -0.000451962              -0.000104662               0.999999987              -0.000465911              -0.000109353               0.999999987              -0.000480351              -0.000113668               0.999999987              -0.000495118              -0.000117366               0.999999987              -0.000510055              -0.000120060               0.999999987              -0.000524825              -0.000121157               0.999999987              -0.000539126              -0.000120071               0.999999987              -0.000316233              -0.000187745               0.999999987              -0.000344546              -0.000158831               0.999999987              -0.000356323              -0.000148467               0.999999987              -0.000363251              -0.000147577               0.999999987              -0.000369461              -0.000151917               0.999999987              -0.000376535              -0.000159397               0.999999987              -0.000384904              -0.000168896               0.999999987              -0.000394601              -0.000179387               0.999999987              -0.000405452              -0.000190044               0.999999987              -0.000417143              -0.000200488               0.999999987              -0.000429512              -0.000210567               0.999999987              -0.000442444              -0.000220098               0.999999987              -0.000455682              -0.000228768               0.999999987              -0.000469003              -0.000236316               0.999999987              -0.000482138              -0.000242114               0.999999987              -0.000494942              -0.000245455               0.999999987              -0.000507320              -0.000245628               0.999999987              -0.000307399              -0.000279290               0.999999987              -0.000325353              -0.000236658               0.999999987              -0.000331493              -0.000222588               0.999999987              -0.000335557              -0.000222574               0.999999987              -0.000340480              -0.000230019               0.999999987              -0.000346991              -0.000241804               0.999999987              -0.000355080              -0.000256213               0.999999987              -0.000364510              -0.000271892               0.999999987              -0.000374866              -0.000287774               0.999999987              -0.000385875              -0.000303274               0.999999987              -0.000397306              -0.000318391               0.999999987              -0.000409037              -0.000332762               0.999999987              -0.000420761              -0.000345893               0.999999987              -0.000432208              -0.000357318               0.999999987              -0.000443207              -0.000366684               0.999999987              -0.000453656              -0.000373478               0.999999987              -0.000463536              -0.000377203               0.999999987              -0.000295222              -0.000368053               0.999999987              -0.000299797              -0.000312924               0.999999987              -0.000299719              -0.000296639               0.999999987              -0.000301203              -0.000298508               0.999999987              -0.000305270              -0.000309726               0.999999987              -0.000311743              -0.000326160               0.999999987              -0.000320024              -0.000345497               0.999999987              -0.000329376              -0.000366191               0.999999987              -0.000339392              -0.000387063               0.999999987              -0.000349729              -0.000407518               0.999999987              -0.000360194              -0.000427525               0.999999987              -0.000370489              -0.000446641               0.999999987              -0.000380302              -0.000464069               0.999999987              -0.000389473              -0.000479535               0.999999987              -0.000397980              -0.000493069               0.999999987              -0.000405802              -0.000504274               0.999999987              -0.000412963              -0.000513117               0.999999987              -0.000279932              -0.000453098               0.999999987              -0.000269226              -0.000387464               0.999999987              -0.000263482              -0.000370497               0.999999987              -0.000263435              -0.000375057               0.999999987              -0.000267692              -0.000390441               0.999999987              -0.000274908              -0.000411515               0.999999987              -0.000283779              -0.000435617               0.999999987              -0.000293407              -0.000460950               0.999999987              -0.000303318              -0.000486445               0.999999987              -0.000313032              -0.000511618               0.999999987              -0.000322302              -0.000536166               0.999999987              -0.000330856              -0.000559550               0.999999987              -0.000338511              -0.000581126               0.999999987              -0.000345227              -0.000600859               0.999999987              -0.000351108              -0.000618898               0.999999987              -0.000356225              -0.000635154               0.999999987              -0.000360819              -0.000649804               0.999999987              -0.000261752              -0.000533607               0.999999987              -0.000235387              -0.000460089               0.999999987              -0.000225459              -0.000443682               0.999999987              -0.000225314              -0.000451511               0.999999987              -0.000230871              -0.000471043               0.999999987              -0.000239396              -0.000496626               0.999999987              -0.000249268              -0.000525086               0.999999987              -0.000259311              -0.000554620               0.999999987              -0.000268947              -0.000584433               0.999999987              -0.000277883              -0.000613887               0.999999987              -0.000285751              -0.000642417               0.999999987              -0.000292452              -0.000669695               0.999999987              -0.000297897              -0.000695208               0.999999987              -0.000302259              -0.000719008               0.999999987              -0.000305738              -0.000741379               0.999999987              -0.000308479              -0.000762119               0.999999987              -0.000310534              -0.000781822               0.999999987              -0.000241095              -0.000608767               0.999999987              -0.000200046              -0.000530581               0.999999987              -0.000187958              -0.000515655               0.999999987              -0.000189401              -0.000526727               0.999999987              -0.000197044              -0.000550215               0.999999987              -0.000207315              -0.000579849               0.999999987              -0.000218004              -0.000612343               0.999999987              -0.000228142              -0.000645923               0.999999987              -0.000237241              -0.000679710               0.999999987              -0.000245030              -0.000713045               0.999999987              -0.000251325              -0.000745255               0.999999987              -0.000256056              -0.000775978               0.999999987              -0.000259331              -0.000804917               0.999999987              -0.000261436              -0.000832257               0.999999987              -0.000262313              -0.000858283               0.999999987              -0.000262163              -0.000883079               0.999999987              -0.000261219              -0.000906983               0.999999987              -0.000218954              -0.000677222               0.999999987              -0.000164561              -0.000598829               0.999999987              -0.000153182              -0.000585518               0.999999987              -0.000157283              -0.000599501               0.999999987              -0.000167499              -0.000626526               0.999999987              -0.000179252              -0.000659937               0.999999987              -0.000190443              -0.000696203               0.999999987              -0.000200322              -0.000733636               0.999999987              -0.000208502              -0.000771148               0.999999987              -0.000214871              -0.000807990               0.999999987              -0.000219273              -0.000843554               0.999999987              -0.000221666              -0.000877348               0.999999987              -0.000222384              -0.000909374               0.999999987              -0.000221525              -0.000939993               0.999999987              -0.000219213              -0.000969471               0.999999987              -0.000215985              -0.000998043               0.999999987              -0.000212368              -0.001026005               0.999999987              -0.000196712              -0.000741375               0.999999987              -0.000136040              -0.000672549               0.999999987              -0.000121808              -0.000654530               0.999999987              -0.000124284              -0.000662566               0.999999987              -0.000133316              -0.000684254               0.999999987              -0.000144271              -0.000713274               0.999999987              -0.000154888              -0.000746125               0.999999987              -0.000164354              -0.000780895               0.999999987              -0.000172249              -0.000816491               0.999999987              -0.000178275              -0.000852191               0.999999987              -0.000182725              -0.000887369               0.999999987              -0.000185180              -0.000921469               0.999999987              -0.000185569              -0.000954242               0.999999987              -0.000184215              -0.000985816               0.999999987              -0.000181112              -0.001016360               0.999999987              -0.000176676              -0.001046175               0.999999987              -0.000171608              -0.001075360               0.999999987              -0.000172198              -0.000799378               0.999999987              -0.000110209              -0.000743276               0.999999987              -0.000093201              -0.000724682               0.999999987              -0.000093420              -0.000728437               0.999999987              -0.000100601              -0.000745597               0.999999987              -0.000110311              -0.000770676               0.999999987              -0.000120174              -0.000800274               0.999999987              -0.000129014              -0.000832494               0.999999987              -0.000136375              -0.000866152               0.999999987              -0.000142018              -0.000900405               0.999999987              -0.000146090              -0.000934671               0.999999987              -0.000148317              -0.000968518               0.999999987              -0.000148315              -0.001001623               0.999999987              -0.000146261              -0.001033747               0.999999987              -0.000142384              -0.001065099               0.999999987              -0.000136684              -0.001095870               0.999999987              -0.000129628              -0.001126212               0.999999987              -0.000146024              -0.000849972               0.999999987              -0.000087023              -0.000809002               0.999999987              -0.000068284              -0.000792977               0.999999987              -0.000066039              -0.000794858               0.999999987              -0.000070970              -0.000808736               0.999999987              -0.000078931              -0.000830590               0.999999987              -0.000087580              -0.000857508               0.999999987              -0.000095529              -0.000887503               0.999999987              -0.000102298              -0.000919444               0.999999987              -0.000107396              -0.000952451               0.999999987              -0.000110846              -0.000985799               0.999999987              -0.000112556              -0.001019150               0.999999987              -0.000112166              -0.001052155               0.999999987              -0.000109369              -0.001084578               0.999999987              -0.000104290              -0.001116509               0.999999987              -0.000097001              -0.001148099               0.999999987              -0.000087463              -0.001179394               0.999999987              -0.000118487              -0.000892346               0.999999987              -0.000066377              -0.000867169               0.999999987              -0.000047556              -0.000856104               0.999999987              -0.000043377              -0.000858237               0.999999987              -0.000046003              -0.000870543               0.999999987              -0.000051903              -0.000890225               0.999999987              -0.000058915              -0.000915152               0.999999987              -0.000065705              -0.000943532               0.999999987              -0.000071597              -0.000974156               0.999999987              -0.000076045              -0.001006237               0.999999987              -0.000078899              -0.001039105               0.999999987              -0.000080074              -0.001072176               0.999999987              -0.000079259              -0.001105170               0.999999987              -0.000075831              -0.001137987               0.999999987              -0.000069678              -0.001170522               0.999999987              -0.000060487              -0.001202924               0.999999987              -0.000047964              -0.001235240               0.999999987              -0.000089852              -0.000925871               0.999999987              -0.000047906              -0.000915272               0.999999987              -0.000031103              -0.000910339               0.999999987              -0.000026068              -0.000914336               0.999999987              -0.000026895              -0.000926445               0.999999987              -0.000030669              -0.000945091               0.999999987              -0.000035835              -0.000968831               0.999999987              -0.000041202              -0.000996286               0.999999987              -0.000045863              -0.001026324               0.999999987              -0.000049442              -0.001058032               0.999999987              -0.000051786              -0.001090865               0.999999987              -0.000052475              -0.001124321               0.999999987              -0.000051340              -0.001158063               0.999999987              -0.000047785              -0.001191822               0.999999987              -0.000041186              -0.001225418               0.999999987              -0.000030885              -0.001258887               0.999999987              -0.000016032              -0.001292307               0.999999987              -0.000060383              -0.000950058               0.999999987              -0.000031064              -0.000951136               0.999999987              -0.000018390              -0.000952054               0.999999987              -0.000013942              -0.000958537               0.999999987              -0.000013713              -0.000971381               0.999999987              -0.000015771              -0.000989889               0.999999987              -0.000019084              -0.001013203               0.999999987              -0.000022679              -0.001040320               0.999999987              -0.000025998              -0.001070249               0.999999987              -0.000028559              -0.001102198               0.999999987              -0.000030175              -0.001135590               0.999999987              -0.000030532              -0.001170031               0.999999987              -0.000029427              -0.001205141               0.999999987              -0.000026391              -0.001240596               0.999999987              -0.000020676              -0.001276118               0.999999987              -0.000011239              -0.001311511               0.999999987               0.000003178              -0.001346575               0.999999987              -0.000030334              -0.000964701               0.999999987              -0.000015264              -0.000973235               0.999999987              -0.000008451              -0.000978278               0.999999987              -0.000005884              -0.000986842               0.999999987              -0.000005476              -0.001000559               0.999999987              -0.000006348              -0.001019349               0.999999987              -0.000007876              -0.001042616               0.999999987              -0.000009677              -0.001069655               0.999999987              -0.000011421              -0.001099741               0.999999987              -0.000012821              -0.001132146               0.999999987              -0.000013575              -0.001166303               0.999999987              -0.000013738              -0.001201802               0.999999987              -0.000013002              -0.001238359               0.999999987              -0.000011297              -0.001275677               0.999999987              -0.000007906              -0.001313323               0.999999987              -0.000002076              -0.001350867               0.999999987               0.000007180              -0.001387730               0.999999987               0.000000000              -0.000969612               0.999999987               0.000000000              -0.000980690               0.999999987              -0.000000000              -0.000987222               0.999999987              -0.000000000              -0.000996645               0.999999987              -0.000000000              -0.001010721               0.999999987              -0.000000000              -0.001029613               0.999999987              -0.000000000              -0.001052930               0.999999987              -0.000000000              -0.001079980               0.999999987               0.000000000              -0.001110078               0.999999987              -0.000000000              -0.001142660               0.999999987              -0.000000000              -0.001177173               0.999999987              -0.000000000              -0.001213235               0.999999987              -0.000000000              -0.001250441               0.999999987               0.000000000              -0.001288558               0.999999987               0.000000000              -0.001327143               0.999999987              -0.000000000              -0.001365600               0.999999987              -0.000000000              -0.001403280               0.999999987               0.000323330               0.000000000               0.999999987               0.000360482               0.000000000               0.999999987               0.000377614               0.000000000               0.999999987               0.000387539               0.000000000               0.999999987               0.000395348               0.000000000               0.999999987               0.000403191               0.000000000               0.999999987               0.000412015               0.000000000               0.999999987               0.000422260               0.000000000               0.999999987               0.000433847               0.000000000               0.999999987               0.000446533               0.000000000               0.999999987               0.000460104               0.000000000               0.999999987               0.000474382               0.000000000               0.999999987               0.000489255               0.000000000               0.999999987               0.000504648               0.000000000               0.999999987               0.000520319               0.000000000               0.999999987               0.000535944               0.000000000               0.999999987               0.000551067               0.000000000               0.999999987               0.000321564              -0.000094343               0.999999987               0.000356445              -0.000079764               0.999999987               0.000372121              -0.000074273               0.999999987               0.000381227              -0.000073514               0.999999987               0.000388604              -0.000075458               0.999999987               0.000396223              -0.000079062               0.999999987               0.000404973              -0.000083756               0.999999987               0.000415076              -0.000089001               0.999999987               0.000426380              -0.000094363               0.999999987               0.000438743              -0.000099619               0.999999987               0.000451962              -0.000104662               0.999999987               0.000465911              -0.000109353               0.999999987               0.000480351              -0.000113668               0.999999987               0.000495118              -0.000117366               0.999999987               0.000510055              -0.000120060               0.999999987               0.000524825              -0.000121157               0.999999987               0.000539126              -0.000120071               0.999999987               0.000316233              -0.000187745               0.999999987               0.000344546              -0.000158831               0.999999987               0.000356323              -0.000148467               0.999999987               0.000363251              -0.000147577               0.999999987               0.000369461              -0.000151917               0.999999987               0.000376535              -0.000159397               0.999999987               0.000384904              -0.000168896               0.999999987               0.000394601              -0.000179387               0.999999987               0.000405452              -0.000190044               0.999999987               0.000417143              -0.000200488               0.999999987               0.000429512              -0.000210567               0.999999987               0.000442444              -0.000220098               0.999999987               0.000455682              -0.000228768               0.999999987               0.000469003              -0.000236316               0.999999987               0.000482138              -0.000242114               0.999999987               0.000494942              -0.000245455               0.999999987               0.000507320              -0.000245628               0.999999987               0.000307399              -0.000279290               0.999999987               0.000325353              -0.000236658               0.999999987               0.000331493              -0.000222588               0.999999987               0.000335557              -0.000222574               0.999999987               0.000340480              -0.000230019               0.999999987               0.000346991              -0.000241804               0.999999987               0.000355080              -0.000256213               0.999999987               0.000364510              -0.000271892               0.999999987               0.000374866              -0.000287774               0.999999987               0.000385875              -0.000303274               0.999999987               0.000397306              -0.000318391               0.999999987               0.000409037              -0.000332762               0.999999987               0.000420761              -0.000345893               0.999999987               0.000432208              -0.000357318               0.999999987               0.000443207              -0.000366684               0.999999987               0.000453656              -0.000373478               0.999999987               0.000463536              -0.000377203               0.999999987               0.000295222              -0.000368053               0.999999987               0.000299797              -0.000312924               0.999999987               0.000299719              -0.000296639               0.999999987               0.000301203              -0.000298508               0.999999987               0.000305270              -0.000309726               0.999999987               0.000311743              -0.000326160               0.999999987               0.000320024              -0.000345497               0.999999987               0.000329376              -0.000366191               0.999999987               0.000339392              -0.000387063               0.999999987               0.000349729              -0.000407518               0.999999987               0.000360194              -0.000427525               0.999999987               0.000370489              -0.000446641               0.999999987               0.000380302              -0.000464069               0.999999987               0.000389473              -0.000479535               0.999999987               0.000397980              -0.000493069               0.999999987               0.000405802              -0.000504274               0.999999987               0.000412963              -0.000513117               0.999999987               0.000279932              -0.000453098               0.999999987               0.000269226              -0.000387464               0.999999987               0.000263482              -0.000370497               0.999999987               0.000263435              -0.000375057               0.999999987               0.000267692              -0.000390441               0.999999987               0.000274908              -0.000411515               0.999999987               0.000283779              -0.000435617               0.999999987               0.000293407              -0.000460950               0.999999987               0.000303318              -0.000486445               0.999999987               0.000313032              -0.000511618               0.999999987               0.000322302              -0.000536166               0.999999987               0.000330856              -0.000559550               0.999999987               0.000338511              -0.000581126               0.999999987               0.000345227              -0.000600859               0.999999987               0.000351108              -0.000618898               0.999999987               0.000356225              -0.000635154               0.999999987               0.000360819              -0.000649804               0.999999987               0.000261752              -0.000533607               0.999999987               0.000235387              -0.000460089               0.999999987               0.000225459              -0.000443682               0.999999987               0.000225314              -0.000451511               0.999999987               0.000230871              -0.000471043               0.999999987               0.000239396              -0.000496626               0.999999987               0.000249268              -0.000525086               0.999999987               0.000259311              -0.000554620               0.999999987               0.000268947              -0.000584433               0.999999987               0.000277883              -0.000613887               0.999999987               0.000285751              -0.000642417               0.999999987               0.000292452              -0.000669695               0.999999987               0.000297897              -0.000695208               0.999999987               0.000302259              -0.000719008               0.999999987               0.000305738              -0.000741379               0.999999987               0.000308479              -0.000762119               0.999999987               0.000310534              -0.000781822               0.999999987               0.000241095              -0.000608767               0.999999987               0.000200046              -0.000530581               0.999999987               0.000187958              -0.000515655               0.999999987               0.000189401              -0.000526727               0.999999987               0.000197044              -0.000550215               0.999999987               0.000207315              -0.000579849               0.999999987               0.000218004              -0.000612343               0.999999987               0.000228142              -0.000645923               0.999999987               0.000237241              -0.000679710               0.999999987               0.000245030              -0.000713045               0.999999987               0.000251325              -0.000745255               0.999999987               0.000256056              -0.000775978               0.999999987               0.000259331              -0.000804917               0.999999987               0.000261436              -0.000832257               0.999999987               0.000262313              -0.000858283               0.999999987               0.000262163              -0.000883079               0.999999987               0.000261219              -0.000906983               0.999999987               0.000218954              -0.000677222               0.999999987               0.000164561              -0.000598829               0.999999987               0.000153182              -0.000585518               0.999999987               0.000157283              -0.000599501               0.999999987               0.000167499              -0.000626526               0.999999987               0.000179252              -0.000659937               0.999999987               0.000190443              -0.000696203               0.999999987               0.000200322              -0.000733636               0.999999987               0.000208502              -0.000771148               0.999999987               0.000214871              -0.000807990               0.999999987               0.000219273              -0.000843554               0.999999987               0.000221666              -0.000877348               0.999999987               0.000222384              -0.000909374               0.999999987               0.000221525              -0.000939993               0.999999987               0.000219213              -0.000969471               0.999999987               0.000215985              -0.000998043               0.999999987               0.000212368              -0.001026005               0.999999987               0.000196712              -0.000741375               0.999999987               0.000136040              -0.000672549               0.999999987               0.000121808              -0.000654530               0.999999987               0.000124284              -0.000662566               0.999999987               0.000133316              -0.000684254               0.999999987               0.000144271              -0.000713274               0.999999987               0.000154888              -0.000746125               0.999999987               0.000164354              -0.000780895               0.999999987               0.000172249              -0.000816491               0.999999987               0.000178275              -0.000852191               0.999999987               0.000182725              -0.000887369               0.999999987               0.000185180              -0.000921469               0.999999987               0.000185569              -0.000954242               0.999999987               0.000184215              -0.000985816               0.999999987               0.000181112              -0.001016360               0.999999987               0.000176676              -0.001046175               0.999999987               0.000171608              -0.001075360               0.999999987               0.000172198              -0.000799378               0.999999987               0.000110209              -0.000743276               0.999999987               0.000093201              -0.000724682               0.999999987               0.000093420              -0.000728437               0.999999987               0.000100601              -0.000745597               0.999999987               0.000110311              -0.000770676               0.999999987               0.000120174              -0.000800274               0.999999987               0.000129014              -0.000832494               0.999999987               0.000136375              -0.000866152               0.999999987               0.000142018              -0.000900405               0.999999987               0.000146090              -0.000934671               0.999999987               0.000148317              -0.000968518               0.999999987               0.000148315              -0.001001623               0.999999987               0.000146261              -0.001033747               0.999999987               0.000142384              -0.001065099               0.999999987               0.000136684              -0.001095870               0.999999987               0.000129628              -0.001126212               0.999999987               0.000146024              -0.000849972               0.999999987               0.000087023              -0.000809002               0.999999987               0.000068284              -0.000792977               0.999999987               0.000066039              -0.000794858               0.999999987               0.000070970              -0.000808736               0.999999987               0.000078931              -0.000830590               0.999999987               0.000087580              -0.000857508               0.999999987               0.000095529              -0.000887503               0.999999987               0.000102298              -0.000919444               0.999999987               0.000107396              -0.000952451               0.999999987               0.000110846              -0.000985799               0.999999987               0.000112556              -0.001019150               0.999999987               0.000112166              -0.001052155               0.999999987               0.000109369              -0.001084578               0.999999987               0.000104290              -0.001116509               0.999999987               0.000097001              -0.001148099               0.999999987               0.000087463              -0.001179394               0.999999987               0.000118487              -0.000892346               0.999999987               0.000066377              -0.000867169               0.999999987               0.000047556              -0.000856104               0.999999987               0.000043377              -0.000858237               0.999999987               0.000046003              -0.000870543               0.999999987               0.000051903              -0.000890225               0.999999987               0.000058915              -0.000915152               0.999999987               0.000065705              -0.000943532               0.999999987               0.000071597              -0.000974156               0.999999987               0.000076045              -0.001006237               0.999999987               0.000078899              -0.001039105               0.999999987               0.000080074              -0.001072176               0.999999987               0.000079259              -0.001105170               0.999999987               0.000075831              -0.001137987               0.999999987               0.000069678              -0.001170522               0.999999987               0.000060487              -0.001202924               0.999999987               0.000047964              -0.001235240               0.999999987               0.000089852              -0.000925871               0.999999987               0.000047906              -0.000915272               0.999999987               0.000031103              -0.000910339               0.999999987               0.000026068              -0.000914336               0.999999987               0.000026895              -0.000926445               0.999999987               0.000030669              -0.000945091               0.999999987               0.000035835              -0.000968831               0.999999987               0.000041202              -0.000996286               0.999999987               0.000045863              -0.001026324               0.999999987               0.000049442              -0.001058032               0.999999987               0.000051786              -0.001090865               0.999999987               0.000052475              -0.001124321               0.999999987               0.000051340              -0.001158063               0.999999987               0.000047785              -0.001191822               0.999999987               0.000041186              -0.001225418               0.999999987               0.000030885              -0.001258887               0.999999987               0.000016032              -0.001292307               0.999999987               0.000060383              -0.000950058               0.999999987               0.000031064              -0.000951136               0.999999987               0.000018390              -0.000952054               0.999999987               0.000013942              -0.000958537               0.999999987               0.000013713              -0.000971381               0.999999987               0.000015771              -0.000989889               0.999999987               0.000019084              -0.001013203               0.999999987               0.000022679              -0.001040320               0.999999987               0.000025998              -0.001070249               0.999999987               0.000028559              -0.001102198               0.999999987               0.000030175              -0.001135590               0.999999987               0.000030532              -0.001170031               0.999999987               0.000029427              -0.001205141               0.999999987               0.000026391              -0.001240596               0.999999987               0.000020676              -0.001276118               0.999999987               0.000011239              -0.001311511               0.999999987              -0.000003178              -0.001346575               0.999999987               0.000030334              -0.000964701               0.999999987               0.000015264              -0.000973235               0.999999987               0.000008451              -0.000978278               0.999999987               0.000005884              -0.000986842               0.999999987               0.000005476              -0.001000559               0.999999987               0.000006348              -0.001019349               0.999999987               0.000007876              -0.001042616               0.999999987               0.000009677              -0.001069655               0.999999987               0.000011421              -0.001099741               0.999999987               0.000012821              -0.001132146               0.999999987               0.000013575              -0.001166303               0.999999987               0.000013738              -0.001201802               0.999999987               0.000013002              -0.001238359               0.999999987               0.000011297              -0.001275677               0.999999987               0.000007906              -0.001313323               0.999999987               0.000002076              -0.001350867               0.999999987              -0.000007180              -0.001387730               0.999999987               0.000000000              -0.000969612               0.999999987               0.000000000              -0.000980690               0.999999987              -0.000000000              -0.000987222               0.999999987              -0.000000000              -0.000996645               0.999999987              -0.000000000              -0.001010721               0.999999987              -0.000000000              -0.001029613               0.999999987              -0.000000000              -0.001052930               0.999999987              -0.000000000              -0.001079980               0.999999987               0.000000000              -0.001110078               0.999999987              -0.000000000              -0.001142660               0.999999987              -0.000000000              -0.001177173               0.999999987              -0.000000000              -0.001213235               0.999999987              -0.000000000              -0.001250441               0.999999987               0.000000000              -0.001288558               0.999999987               0.000000000              -0.001327143               0.999999987              -0.000000000              -0.001365600               0.999999987              -0.000000000              -0.001403280               0.999999987               0.000323330               0.000000000               0.999999987               0.000360482               0.000000000               0.999999987               0.000377614               0.000000000               0.999999987               0.000387539               0.000000000               0.999999987               0.000395348               0.000000000               0.999999987               0.000403191               0.000000000               0.999999987               0.000412015               0.000000000               0.999999987               0.000422260               0.000000000               0.999999987               0.000433847               0.000000000               0.999999987               0.000446533               0.000000000               0.999999987               0.000460104               0.000000000               0.999999987               0.000474382               0.000000000               0.999999987               0.000489255               0.000000000               0.999999987               0.000504648               0.000000000               0.999999987               0.000520319               0.000000000               0.999999987               0.000535944               0.000000000               0.999999987               0.000551067               0.000000000               0.999999987               0.000321564               0.000094343               0.999999987               0.000356445               0.000079764               0.999999987               0.000372121               0.000074273               0.999999987               0.000381227               0.000073514               0.999999987               0.000388604               0.000075458               0.999999987               0.000396223               0.000079062               0.999999987               0.000404973               0.000083756               0.999999987               0.000415076               0.000089001               0.999999987               0.000426380               0.000094363               0.999999987               0.000438743               0.000099619               0.999999987               0.000451962               0.000104662               0.999999987               0.000465911               0.000109353               0.999999987               0.000480351               0.000113668               0.999999987               0.000495118               0.000117366               0.999999987               0.000510055               0.000120060               0.999999987               0.000524825               0.000121157               0.999999987               0.000539126               0.000120071               0.999999987               0.000316233               0.000187745               0.999999987               0.000344546               0.000158831               0.999999987               0.000356323               0.000148467               0.999999987               0.000363251               0.000147577               0.999999987               0.000369461               0.000151917               0.999999987               0.000376535               0.000159397               0.999999987               0.000384904               0.000168896               0.999999987               0.000394601               0.000179387               0.999999987               0.000405452               0.000190044               0.999999987               0.000417143               0.000200488               0.999999987               0.000429512               0.000210567               0.999999987               0.000442444               0.000220098               0.999999987               0.000455682               0.000228768               0.999999987               0.000469003               0.000236316               0.999999987               0.000482138               0.000242114               0.999999987               0.000494942               0.000245455               0.999999987               0.000507320               0.000245628               0.999999987               0.000307399               0.000279290               0.999999987               0.000325353               0.000236658               0.999999987               0.000331493               0.000222588               0.999999987               0.000335557               0.000222574               0.999999987               0.000340480               0.000230019               0.999999987               0.000346991               0.000241804               0.999999987               0.000355080               0.000256213               0.999999987               0.000364510               0.000271892               0.999999987               0.000374866               0.000287774               0.999999987               0.000385875               0.000303274               0.999999987               0.000397306               0.000318391               0.999999987               0.000409037               0.000332762               0.999999987               0.000420761               0.000345893               0.999999987               0.000432208               0.000357318               0.999999987               0.000443207               0.000366684               0.999999987               0.000453656               0.000373478               0.999999987               0.000463536               0.000377203               0.999999987               0.000295222               0.000368053               0.999999987               0.000299797               0.000312924               0.999999987               0.000299719               0.000296639               0.999999987               0.000301203               0.000298508               0.999999987               0.000305270               0.000309726               0.999999987               0.000311743               0.000326160               0.999999987               0.000320024               0.000345497               0.999999987               0.000329376               0.000366191               0.999999987               0.000339392               0.000387063               0.999999987               0.000349729               0.000407518               0.999999987               0.000360194               0.000427525               0.999999987               0.000370489               0.000446641               0.999999987               0.000380302               0.000464069               0.999999987               0.000389473               0.000479535               0.999999987               0.000397980               0.000493069               0.999999987               0.000405802               0.000504274               0.999999987               0.000412963               0.000513117               0.999999987               0.000279932               0.000453098               0.999999987               0.000269226               0.000387464               0.999999987               0.000263482               0.000370497               0.999999987               0.000263435               0.000375057               0.999999987               0.000267692               0.000390441               0.999999987               0.000274908               0.000411515               0.999999987               0.000283779               0.000435617               0.999999987               0.000293407               0.000460950               0.999999987               0.000303318               0.000486445               0.999999987               0.000313032               0.000511618               0.999999987               0.000322302               0.000536166               0.999999987               0.000330856               0.000559550               0.999999987               0.000338511               0.000581126               0.999999987               0.000345227               0.000600859               0.999999987               0.000351108               0.000618898               0.999999987               0.000356225               0.000635154               0.999999987               0.000360819               0.000649804               0.999999987               0.000261752               0.000533607               0.999999987               0.000235387               0.000460089               0.999999987               0.000225459               0.000443682               0.999999987               0.000225314               0.000451511               0.999999987               0.000230871               0.000471043               0.999999987               0.000239396               0.000496626               0.999999987               0.000249268               0.000525086               0.999999987               0.000259311               0.000554620               0.999999987               0.000268947               0.000584433               0.999999987               0.000277883               0.000613887               0.999999987               0.000285751               0.000642417               0.999999987               0.000292452               0.000669695               0.999999987               0.000297897               0.000695208               0.999999987               0.000302259               0.000719008               0.999999987               0.000305738               0.000741379               0.999999987               0.000308479               0.000762119               0.999999987               0.000310534               0.000781822               0.999999987               0.000241095               0.000608767               0.999999987               0.000200046               0.000530581               0.999999987               0.000187958               0.000515655               0.999999987               0.000189401               0.000526727               0.999999987               0.000197044               0.000550215               0.999999987               0.000207315               0.000579849               0.999999987               0.000218004               0.000612343               0.999999987               0.000228142               0.000645923               0.999999987               0.000237241               0.000679710               0.999999987               0.000245030               0.000713045               0.999999987               0.000251325               0.000745255               0.999999987               0.000256056               0.000775978               0.999999987               0.000259331               0.000804917               0.999999987               0.000261436               0.000832257               0.999999987               0.000262313               0.000858283               0.999999987               0.000262163               0.000883079               0.999999987               0.000261219               0.000906983               0.999999987               0.000218954               0.000677222               0.999999987               0.000164561               0.000598829               0.999999987               0.000153182               0.000585518               0.999999987               0.000157283               0.000599501               0.999999987               0.000167499               0.000626526               0.999999987               0.000179252               0.000659937               0.999999987               0.000190443               0.000696203               0.999999987               0.000200322               0.000733636               0.999999987               0.000208502               0.000771148               0.999999987               0.000214871               0.000807990               0.999999987               0.000219273               0.000843554               0.999999987               0.000221666               0.000877348               0.999999987               0.000222384               0.000909374               0.999999987               0.000221525               0.000939993               0.999999987               0.000219213               0.000969471               0.999999987               0.000215985               0.000998043               0.999999987               0.000212368               0.001026005               0.999999987               0.000196712               0.000741375               0.999999987               0.000136040               0.000672549               0.999999987               0.000121808               0.000654530               0.999999987               0.000124284               0.000662566               0.999999987               0.000133316               0.000684254               0.999999987               0.000144271               0.000713274               0.999999987               0.000154888               0.000746125               0.999999987               0.000164354               0.000780895               0.999999987               0.000172249               0.000816491               0.999999987               0.000178275               0.000852191               0.999999987               0.000182725               0.000887369               0.999999987               0.000185180               0.000921469               0.999999987               0.000185569               0.000954242               0.999999987               0.000184215               0.000985816               0.999999987               0.000181112               0.001016360               0.999999987               0.000176676               0.001046175               0.999999987               0.000171608               0.001075360               0.999999987               0.000172198               0.000799378               0.999999987               0.000110209               0.000743276               0.999999987               0.000093201               0.000724682               0.999999987               0.000093420               0.000728437               0.999999987               0.000100601               0.000745597               0.999999987               0.000110311               0.000770676               0.999999987               0.000120174               0.000800274               0.999999987               0.000129014               0.000832494               0.999999987               0.000136375               0.000866152               0.999999987               0.000142018               0.000900405               0.999999987               0.000146090               0.000934671               0.999999987               0.000148317               0.000968518               0.999999987               0.000148315               0.001001623               0.999999987               0.000146261               0.001033747               0.999999987               0.000142384               0.001065099               0.999999987               0.000136684               0.001095870               0.999999987               0.000129628               0.001126212               0.999999987               0.000146024               0.000849972               0.999999987               0.000087023               0.000809002               0.999999987               0.000068284               0.000792977               0.999999987               0.000066039               0.000794858               0.999999987               0.000070970               0.000808736               0.999999987               0.000078931               0.000830590               0.999999987               0.000087580               0.000857508               0.999999987               0.000095529               0.000887503               0.999999987               0.000102298               0.000919444               0.999999987               0.000107396               0.000952451               0.999999987               0.000110846               0.000985799               0.999999987               0.000112556               0.001019150               0.999999987               0.000112166               0.001052155               0.999999987               0.000109369               0.001084578               0.999999987               0.000104290               0.001116509               0.999999987               0.000097001               0.001148099               0.999999987               0.000087463               0.001179394               0.999999987               0.000118487               0.000892346               0.999999987               0.000066377               0.000867169               0.999999987               0.000047556               0.000856104               0.999999987               0.000043377               0.000858237               0.999999987               0.000046003               0.000870543               0.999999987               0.000051903               0.000890225               0.999999987               0.000058915               0.000915152               0.999999987               0.000065705               0.000943532               0.999999987               0.000071597               0.000974156               0.999999987               0.000076045               0.001006237               0.999999987               0.000078899               0.001039105               0.999999987               0.000080074               0.001072176               0.999999987               0.000079259               0.001105170               0.999999987               0.000075831               0.001137987               0.999999987               0.000069678               0.001170522               0.999999987               0.000060487               0.001202924               0.999999987               0.000047964               0.001235240               0.999999987               0.000089852               0.000925871               0.999999987               0.000047906               0.000915272               0.999999987               0.000031103               0.000910339               0.999999987               0.000026068               0.000914336               0.999999987               0.000026895               0.000926445               0.999999987               0.000030669               0.000945091               0.999999987               0.000035835               0.000968831               0.999999987               0.000041202               0.000996286               0.999999987               0.000045863               0.001026324               0.999999987               0.000049442               0.001058032               0.999999987               0.000051786               0.001090865               0.999999987               0.000052475               0.001124321               0.999999987               0.000051340               0.001158063               0.999999987               0.000047785               0.001191822               0.999999987               0.000041186               0.001225418               0.999999987               0.000030885               0.001258887               0.999999987               0.000016032               0.001292307               0.999999987               0.000060383               0.000950058               0.999999987               0.000031064               0.000951136               0.999999987               0.000018390               0.000952054               0.999999987               0.000013942               0.000958537               0.999999987               0.000013713               0.000971381               0.999999987               0.000015771               0.000989889               0.999999987               0.000019084               0.001013203               0.999999987               0.000022679               0.001040320               0.999999987               0.000025998               0.001070249               0.999999987               0.000028559               0.001102198               0.999999987               0.000030175               0.001135590               0.999999987               0.000030532               0.001170031               0.999999987               0.000029427               0.001205141               0.999999987               0.000026391               0.001240596               0.999999987               0.000020676               0.001276118               0.999999987               0.000011239               0.001311511               0.999999987              -0.000003178               0.001346575               0.999999987               0.000030334               0.000964701               0.999999987               0.000015264               0.000973235               0.999999987               0.000008451               0.000978278               0.999999987               0.000005884               0.000986842               0.999999987               0.000005476               0.001000559               0.999999987               0.000006348               0.001019349               0.999999987               0.000007876               0.001042616               0.999999987               0.000009677               0.001069655               0.999999987               0.000011421               0.001099741               0.999999987               0.000012821               0.001132146               0.999999987               0.000013575               0.001166303               0.999999987               0.000013738               0.001201802               0.999999987               0.000013002               0.001238359               0.999999987               0.000011297               0.001275677               0.999999987               0.000007906               0.001313323               0.999999987               0.000002076               0.001350867               0.999999987              -0.000007180               0.001387730               0.999999987               0.000000000               0.000969612               0.999999987              -0.000000000               0.000980690               0.999999987               0.000000000               0.000987222               0.999999987               0.000000000               0.000996645               0.999999987              -0.000000000               0.001010721               0.999999987               0.000000000               0.001029613               0.999999987               0.000000000               0.001052930               0.999999987              -0.000000000               0.001079980               0.999999987              -0.000000000               0.001110078               0.999999987               0.000000000               0.001142660               0.999999987              -0.000000000               0.001177173               0.999999987              -0.000000000               0.001213235               0.999999987              -0.000000000               0.001250441               0.999999987              -0.000000000               0.001288558               0.999999987              -0.000000000               0.001327143               0.999999987              -0.000000000               0.001365600               0.999999987              -0.000000000               0.001403280               0.999999987 </DataArray>
<DataArray type="Float64"                                    Name="defo"                                                      NumberOfComponents=" 3" format="ascii">
             -0.000323330               0.000000000               0.999999987              -0.000360482               0.000000000               0.999999987              -0.000377614               0.000000000               0.999999987              -0.000387539              -0.000000000               0.999999987              -0.000395348               0.000000000               0.999999987              -0.000403191              -0.000000000               0.999999987              -0.000412015               0.000000000               0.999999987              -0.000422260               0.000000000               0.999999987              -0.000433847               0.000000000               0.999999987              -0.000446533               0.000000000               0.999999987              -0.000460104              -0.000000000               0.999999987              -0.000474382              -0.000000000               0.999999987              -0.000489255               0.000000000               0.999999987              -0.000504648              -0.000000000               0.999999987              -0.000520319               0.000000000               0.999999987              -0.000535944               0.000000000               0.999999987              -0.000551067               0.000000000               0.999999987              -0.000321564               0.000094343               0.999999987              -0.000356445               0.000079764               0.999999987              -0.000372121               0.000074273               0.999999987              -0.000381227               0.000073514               0.999999987              -0.000388604               0.000075458               0.999999987              -0.000396223               0.000079062               0.999999987              -0.000404973               0.000083756               0.999999987              -0.000415076               0.000089001               0.999999987              -0.000426380               0.000094363               0.999999987              -0.000438743               0.000099619               0.999999987              -0.000451962               0.000104662               0.999999987              -0.000465911               0.000109353               0.999999987              -0.000480351               0.000113668               0.999999987              -0.000495118               0.000117366               0.999999987              -0.000510055               0.000120060               0.999999987              -0.000524825               0.000121157               0.999999987              -0.000539126               0.000120071               0.999999987              -0.000316233               0.000187745               0.999999987              -0.000344546               0.000158831               0.999999987              -0.000356323               0.000148467               0.999999987              -0.000363251               0.000147577               0.999999987              -0.000369461               0.000151917               0.999999987              -0.000376535               0.000159397               0.999999987              -0.000384904               0.000168896               0.999999987              -0.000394601               0.000179387               0.999999987              -0.000405452               0.000190044               0.999999987              -0.000417143               0.000200488               0.999999987              -0.000429512               0.000210567               0.999999987              -0.000442444               0.000220098               0.999999987              -0.000455682               0.000228768               0.999999987              -0.000469003               0.000236316               0.999999987              -0.000482138               0.000242114               0.999999987              -0.000494942               0.000245455               0.999999987              -0.000507320               0.000245628               0.999999987              -0.000307399               0.000279290               0.999999987              -0.000325353               0.000236658               0.999999987              -0.000331493               0.000222588               0.999999987              -0.000335557               0.000222574               0.999999987              -0.000340480               0.000230019               0.999999987              -0.000346991               0.000241804               0.999999987              -0.000355080               0.000256213               0.999999987              -0.000364510               0.000271892               0.999999987              -0.000374866               0.000287774               0.999999987              -0.000385875               0.000303274               0.999999987              -0.000397306               0.000318391               0.999999987              -0.000409037               0.000332762               0.999999987              -0.000420761               0.000345893               0.999999987              -0.000432208               0.000357318               0.999999987              -0.000443207               0.000366684               0.999999987              -0.000453656               0.000373478               0.999999987              -0.000463536               0.000377203               0.999999987              -0.000295222               0.000368053               0.999999987              -0.000299797               0.000312924               0.999999987              -0.000299719               0.000296639               0.999999987              -0.000301203               0.000298508               0.999999987              -0.000305270               0.000309726               0.999999987              -0.000311743               0.000326160               0.999999987              -0.000320024               0.000345497               0.999999987              -0.000329376               0.000366191               0.999999987              -0.000339392               0.000387063               0.999999987              -0.000349729               0.000407518               0.999999987              -0.000360194               0.000427525               0.999999987              -0.000370489               0.000446641               0.999999987              -0.000380302               0.000464069               0.999999987              -0.000389473               0.000479535               0.999999987              -0.000397980               0.000493069               0.999999987              -0.000405802               0.000504274               0.999999987              -0.000412963               0.000513117               0.999999987              -0.000279932               0.000453098               0.999999987              -0.000269226               0.000387464               0.999999987              -0.000263482               0.000370497               0.999999987              -0.000263435               0.000375057               0.999999987              -0.000267692               0.000390441               0.999999987              -0.000274908               0.000411515               0.999999987              -0.000283779               0.000435617               0.999999987              -0.000293407               0.000460950               0.999999987              -0.000303318               0.000486445               0.999999987              -0.000313032               0.000511618               0.999999987              -0.000322302               0.000536166               0.999999987              -0.000330856               0.000559550               0.999999987              -0.000338511               0.000581126               0.999999987              -0.000345227               0.000600859               0.999999987              -0.000351108               0.000618898               0.999999987              -0.000356225               0.000635154               0.999999987              -0.000360819               0.000649804               0.999999987              -0.000261752               0.000533607               0.999999987              -0.000235387               0.000460089               0.999999987              -0.000225459               0.000443682               0.999999987              -0.000225314               0.000451511               0.999999987              -0.000230871               0.000471043               0.999999987              -0.000239396               0.000496626               0.999999987              -0.000249268               0.000525086               0.999999987              -0.000259311               0.000554620               0.999999987              -0.000268947               0.000584433               0.999999987              -0.000277883               0.000613887               0.999999987              -0.000285751               0.000642417               0.999999987              -0.000292452               0.000669695               0.999999987              -0.000297897               0.000695208               0.999999987              -0.000302259               0.000719008               0.999999987              -0.000305738               0.000741379               0.999999987              -0.000308479               0.000762119               0.999999987              -0.000310534               0.000781822               0.999999987              -0.000241095               0.000608767               0.999999987              -0.000200046               0.000530581               0.999999987              -0.000187958               0.000515655               0.999999987              -0.000189401               0.000526727               0.999999987              -0.000197044               0.000550215               0.999999987              -0.000207315               0.000579849               0.999999987              -0.000218004               0.000612343               0.999999987              -0.000228142               0.000645923               0.999999987              -0.000237241               0.000679710               0.999999987              -0.000245030               0.000713045               0.999999987              -0.000251325               0.000745255               0.999999987              -0.000256056               0.000775978               0.999999987              -0.000259331               0.000804917               0.999999987              -0.000261436               0.000832257               0.999999987              -0.000262313               0.000858283               0.999999987              -0.000262163               0.000883079               0.999999987              -0.000261219               0.000906983               0.999999987              -0.000218954               0.000677222               0.999999987              -0.000164561               0.000598829               0.999999987              -0.000153182               0.000585518               0.999999987              -0.000157283               0.000599501               0.999999987              -0.000167499               0.000626526               0.999999987              -0.000179252               0.000659937               0.999999987              -0.000190443               0.000696203               0.999999987              -0.000200322               0.000733636               0.999999987              -0.000208502               0.000771148               0.999999987              -0.000214871               0.000807990               0.999999987              -0.000219273               0.000843554               0.999999987              -0.000221666               0.000877348               0.999999987              -0.000222384               0.000909374               0.999999987              -0.000221525               0.000939993               0.999999987              -0.000219213               0.000969471               0.999999987              -0.000215985               0.000998043               0.999999987              -0.000212368               0.001026005               0.999999987              -0.000196712               0.000741375               0.999999987              -0.000136040               0.000672549               0.999999987              -0.000121808               0.000654530               0.999999987              -0.000124284               0.000662566               0.999999987              -0.000133316               0.000684254               0.999999987              -0.000144271               0.000713274               0.999999987              -0.000154888               0.000746125               0.999999987              -0.000164354               0.000780895               0.999999987              -0.000172249               0.000816491               0.999999987              -0.000178275               0.000852191               0.999999987              -0.000182725               0.000887369               0.999999987              -0.000185180               0.000921469               0.999999987              -0.000185569               0.000954242               0.999999987              -0.000184215               0.000985816               0.999999987              -0.000181112               0.001016360               0.999999987              -0.000176676               0.001046175               0.999999987              -0.000171608               0.001075360               0.999999987              -0.000172198               0.000799378               0.999999987              -0.000110209               0.000743276               0.999999987              -0.000093201               0.000724682               0.999999987              -0.000093420               0.000728437               0.999999987              -0.000100601               0.000745597               0.999999987              -0.000110311               0.000770676               0.999999987              -0.000120174               0.000800274               0.999999987              -0.000129014               0.000832494               0.999999987              -0.000136375               0.000866152               0.999999987              -0.000142018               0.000900405               0.999999987              -0.000146090               0.000934671               0.999999987              -0.000148317               0.000968518               0.999999987              -0.000148315               0.001001623               0.999999987              -0.000146261               0.001033747               0.999999987              -0.000142384               0.001065099               0.999999987              -0.000136684               0.001095870               0.999999987              -0.000129628               0.001126212               0.999999987              -0.000146024               0.000849972               0.999999987              -0.000087023               0.000809002               0.999999987              -0.000068284               0.000792977               0.999999987              -0.000066039               0.000794858               0.999999987              -0.000070970               0.000808736               0.999999987              -0.000078931               0.000830590               0.999999987              -0.000087580               0.000857508               0.999999987              -0.000095529               0.000887503               0.999999987              -0.000102298               0.000919444               0.999999987              -0.000107396               0.000952451               0.999999987              -0.000110846               0.000985799               0.999999987              -0.000112556               0.001019150               0.999999987              -0.000112166               0.001052155               0.999999987              -0.000109369               0.001084578               0.999999987              -0.000104290               0.001116509               0.999999987              -0.000097001               0.001148099               0.999999987              -0.000087463               0.001179394               0.999999987              -0.000118487               0.000892346               0.999999987              -0.000066377               0.000867169               0.999999987              -0.000047556               0.000856104               0.999999987              -0.000043377               0.000858237               0.999999987              -0.000046003               0.000870543               0.999999987              -0.000051903               0.000890225               0.999999987              -0.000058915               0.000915152               0.999999987              -0.000065705               0.000943532               0.999999987              -0.000071597               0.000974156               0.999999987              -0.000076045               0.001006237               0.999999987              -0.000078899               0.001039105               0.999999987              -0.000080074               0.001072176               0.999999987              -0.000079259               0.001105170               0.999999987              -0.000075831               0.001137987               0.999999987              -0.000069678               0.001170522               0.999999987              -0.000060487               0.001202924               0.999999987              -0.000047964               0.001235240               0.999999987              -0.000089852               0.000925871               0.999999987              -0.000047906               0.000915272               0.999999987              -0.000031103               0.000910339               0.999999987              -0.000026068               0.000914336               0.999999987              -0.000026895               0.000926445               0.999999987              -0.000030669               0.000945091               0.999999987              -0.000035835               0.000968831               0.999999987              -0.000041202               0.000996286               0.999999987              -0.000045863               0.001026324               0.999999987              -0.000049442               0.001058032               0.999999987              -0.000051786               0.001090865               0.999999987              -0.000052475               0.001124321               0.999999987              -0.000051340               0.001158063               0.999999987              -0.000047785               0.001191822               0.999999987              -0.000041186               0.001225418               0.999999987              -0.000030885               0.001258887               0.999999987              -0.000016032               0.001292307               0.999999987              -0.000060383               0.000950058               0.999999987              -0.000031064               0.000951136               0.999999987              -0.000018390               0.000952054               0.999999987              -0.000013942               0.000958537               0.999999987              -0.000013713               0.000971381               0.999999987              -0.000015771               0.000989889               0.999999987              -0.000019084               0.001013203               0.999999987              -0.000022679               0.001040320               0.999999987              -0.000025998               0.001070249               0.999999987              -0.000028559               0.001102198               0.999999987              -0.000030175               0.001135590               0.999999987              -0.000030532               0.001170031               0.999999987              -0.000029427               0.001205141               0.999999987              -0.000026391               0.001240596               0.999999987              -0.000020676               0.001276118               0.999999987              -0.000011239               0.001311511               0.999999987               0.000003178               0.001346575               0.999999987              -0.000030334               0.000964701               0.999999987              -0.000015264               0.000973235               0.999999987              -0.000008451               0.000978278               0.999999987              -0.000005884               0.000986842               0.999999987              -0.000005476               0.001000559               0.999999987              -0.000006348               0.001019349               0.999999987              -0.000007876               0.001042616               0.999999987              -0.000009677               0.001069655               0.999999987              -0.000011421               0.001099741               0.999999987              -0.000012821               0.001132146               0.999999987              -0.000013575               0.001166303               0.999999987              -0.000013738               0.001201802               0.999999987              -0.000013002               0.001238359               0.999999987              -0.000011297               0.001275677               0.999999987              -0.000007906               0.001313323               0.999999987              -0.000002076               0.001350867               0.999999987               0.000007180               0.001387730               0.999999987               0.000000000               0.000969612               0.999999987              -0.000000000               0.000980690               0.999999987               0.000000000               0.000987222               0.999999987               0.000000000               0.000996645               0.999999987              -0.000000000               0.001010721               0.999999987               0.000000000               0.001029613               0.999999987               0.000000000               0.001052930               0.999999987              -0.000000000               0.001079980               0.999999987              -0.000000000               0.001110078               0.999999987               0.000000000               0.001142660               0.999999987              -0.000000000               0.001177173               0.999999987              -0.000000000               0.001213235               0.999999987              -0.000000000               0.001250441               0.999999987              -0.000000000               0.001288558               0.999999987              -0.000000000               0.001327143               0.999999987              -0.000000000               0.001365600               0.999999987              -0.000000000               0.001403280               0.999999987              -0.000323330               0.000000000               0.999999987              -0.000360482               0.000000000               0.999999987              -0.000377614               0.000000000               0.999999987              -0.000387539              -0.000000000               0.999999987              -0.000395348               0.000000000               0.999999987              -0.000403191              -0.000000000               0.999999987              -0.000412015               0.000000000               0.999999987              -0.000422260               0.000000000               0.999999987              -0.000433847               0.000000000               0.999999987              -0.000446533               0.000000000               0.999999987              -0.000460104              -0.000000000               0.999999987              -0.000474382              -0.000000000               0.999999987              -0.000489255               0.000000000               0.999999987              -0.000504648              -0.000000000               0.999999987              -0.000520319               0.000000000               0.999999987              -0.000535944               0.000000000               0.999999987              -0.000551067               0.000000000               0.999999987              -0.000321564              -0.000094343               0.999999987              -0.000356445              -0.000079764               0.999999987              -0.000372121              -0.000074273               0.999999987              -0.000381227              -0.000073514               0.999999987              -0.000388604              -0.000075458               0.999999987              -0.000396223              -0.000079062               0.999999987              -0.000404973              -0.000083756               0.999999987              -0.000415076              -0.000089001               0.999999987              -0.000426380              -0.000094363               0.999999987              -0.000438743              -0.000099619               0.999999987              -0.000451962              -0.000104662               0.999999987              -0.000465911              -0.000109353               0.999999987              -0.000480351              -0.000113668               0.999999987              -0.000495118              -0.000117366               0.999999987              -0.000510055              -0.000120060               0.999999987              -0.000524825              -0.000121157               0.999999987              -0.000539126              -0.000120071               0.999999987              -0.000316233              -0.000187745               0.999999987              -0.000344546              -0.000158831               0.999999987              -0.000356323              -0.000148467               0.999999987              -0.000363251              -0.000147577               0.999999987              -0.000369461              -0.000151917               0.999999987              -0.000376535              -0.000159397               0.999999987              -0.000384904              -0.000168896               0.999999987              -0.000394601              -0.000179387               0.999999987              -0.000405452              -0.000190044               0.999999987              -0.000417143              -0.000200488               0.999999987              -0.000429512              -0.000210567               0.999999987              -0.000442444              -0.000220098               0.999999987              -0.000455682              -0.000228768               0.999999987              -0.000469003              -0.000236316               0.999999987              -0.000482138              -0.000242114               0.999999987              -0.000494942              -0.000245455               0.999999987              -0.000507320              -0.000245628               0.999999987              -0.000307399              -0.000279290               0.999999987              -0.000325353              -0.000236658               0.999999987              -0.000331493              -0.000222588               0.999999987              -0.000335557              -0.000222574               0.999999987              -0.000340480              -0.000230019               0.999999987              -0.000346991              -0.000241804               0.999999987              -0.000355080              -0.000256213               0.999999987              -0.000364510              -0.000271892               0.999999987              -0.000374866              -0.000287774               0.999999987              -0.000385875              -0.000303274               0.999999987              -0.000397306              -0.000318391               0.999999987              -0.000409037              -0.000332762               0.999999987              -0.000420761              -0.000345893               0.999999987              -0.000432208              -0.000357318               0.999999987              -0.000443207              -0.000366684               0.999999987              -0.000453656              -0.000373478               0.999999987              -0.000463536              -0.000377203               0.999999987              -0.000295222              -0.000368053               0.999999987              -0.000299797              -0.000312924               0.999999987              -0.000299719              -0.000296639               0.999999987              -0.000301203              -0.000298508               0.999999987              -0.000305270              -0.000309726               0.999999987              -0.000311743              -0.000326160               0.999999987              -0.000320024              -0.000345497               0.999999987              -0.000329376              -0.000366191               0.999999987              -0.000339392              -0.000387063               0.999999987              -0.000349729              -0.000407518               0.999999987              -0.000360194              -0.000427525               0.999999987              -0.000370489              -0.000446641               0.999999987              -0.000380302              -0.000464069               0.999999987              -0.000389473              -0.000479535               0.999999987              -0.000397980              -0.000493069               0.999999987              -0.000405802              -0.000504274               0.999999987              -0.000412963              -0.000513117               0.999999987              -0.000279932              -0.000453098               0.999999987              -0.000269226              -0.000387464               0.999999987              -0.000263482              -0.000370497               0.999999987              -0.000263435              -0.000375057               0.999999987              -0.000267692              -0.000390441               0.999999987              -0.000274908              -0.000411515               0.999999987              -0.000283779              -0.000435617               0.999999987              -0.000293407              -0.000460950               0.999999987              -0.000303318              -0.000486445               0.999999987              -0.000313032              -0.000511618               0.999999987              -0.000322302              -0.000536166               0.999999987              -0.000330856              -0.000559550               0.999999987              -0.000338511              -0.000581126               0.999999987              -0.000345227              -0.000600859               0.999999987              -0.000351108              -0.000618898               0.999999987              -0.000356225              -0.000635154               0.999999987              -0.000360819              -0.000649804               0.999999987              -0.000261752              -0.000533607               0.999999987              -0.000235387              -0.000460089               0.999999987              -0.000225459              -0.000443682               0.999999987              -0.000225314              -0.000451511               0.999999987              -0.000230871              -0.000471043               0.999999987              -0.000239396              -0.000496626               0.999999987              -0.000249268              -0.000525086               0.999999987              -0.000259311              -0.000554620               0.999999987              -0.000268947              -0.000584433               0.999999987              -0.000277883              -0.000613887               0.999999987              -0.000285751              -0.000642417               0.999999987              -0.000292452              -0.000669695               0.999999987              -0.000297897              -0.000695208               0.999999987              -0.000302259              -0.000719008               0.999999987              -0.000305738              -0.000741379               0.999999987              -0.000308479              -0.000762119               0.999999987              -0.000310534              -0.000781822               0.999999987              -0.000241095              -0.000608767               0.999999987              -0.000200046              -0.000530581               0.999999987              -0.000187958              -0.000515655               0.999999987              -0.000189401              -0.000526727               0.999999987              -0.000197044              -0.000550215               0.999999987              -0.000207315              -0.000579849               0.999999987              -0.000218004              -0.000612343               0.999999987              -0.000228142              -0.000645923               0.999999987              -0.000237241              -0.000679710               0.999999987              -0.000245030              -0.000713045               0.999999987              -0.000251325              -0.000745255               0.999999987              -0.000256056              -0.000775978               0.999999987              -0.000259331              -0.000804917               0.999999987              -0.000261436              -0.000832257               0.999999987              -0.000262313              -0.000858283               0.999999987              -0.000262163              -0.000883079               0.999999987              -0.000261219              -0.000906983               0.999999987              -0.000218954              -0.000677222               0.999999987              -0.000164561              -0.000598829               0.999999987              -0.000153182              -0.000585518               0.999999987              -0.000157283              -0.000599501               0.999999987              -0.000167499              -0.000626526               0.999999987              -0.000179252              -0.000659937               0.999999987              -0.000190443              -0.000696203               0.999999987              -0.000200322              -0.000733636               0.999999987              -0.000208502              -0.000771148               0.999999987              -0.000214871              -0.000807990               0.999999987              -0.000219273              -0.000843554               0.999999987              -0.000221666              -0.000877348               0.999999987              -0.000222384              -0.000909374               0.999999987              -0.000221525              -0.000939993               0.999999987              -0.000219213              -0.000969471               0.999999987              -0.000215985              -0.000998043               0.999999987              -0.000212368              -0.001026005               0.999999987              -0.000196712              -0.000741375               0.999999987              -0.000136040              -0.000672549               0.999999987              -0.000121808              -0.000654530               0.999999987              -0.000124284              -0.000662566               0.999999987              -0.000133316              -0.000684254               0.999999987              -0.000144271              -0.000713274               0.999999987              -0.000154888              -0.000746125               0.999999987              -0.000164354              -0.000780895               0.999999987              -0.000172249              -0.000816491               0.999999987              -0.000178275              -0.000852191               0.999999987              -0.000182725              -0.000887369               0.999999987              -0.000185180              -0.000921469               0.999999987              -0.000185569              -0.000954242               0.999999987              -0.000184215              -0.000985816               0.999999987              -0.000181112              -0.001016360               0.999999987              -0.000176676              -0.001046175               0.999999987              -0.000171608              -0.001075360               0.999999987              -0.000172198              -0.000799378               0.999999987              -0.000110209              -0.000743276               0.999999987              -0.000093201              -0.000724682               0.999999987              -0.000093420              -0.000728437               0.999999987              -0.000100601              -0.000745597               0.999999987              -0.000110311              -0.000770676               0.999999987              -0.000120174              -0.000800274               0.999999987              -0.000129014              -0.000832494               0.999999987              -0.000136375              -0.000866152               0.999999987              -0.000142018              -0.000900405               0.999999987              -0.000146090              -0.000934671               0.999999987              -0.000148317              -0.000968518               0.999999987              -0.000148315              -0.001001623               0.999999987              -0.000146261              -0.001033747               0.999999987              -0.000142384              -0.001065099               0.999999987              -0.000136684              -0.001095870               0.999999987              -0.000129628              -0.001126212               0.999999987              -0.000146024              -0.000849972               0.999999987              -0.000087023              -0.000809002               0.999999987              -0.000068284              -0.000792977               0.999999987              -0.000066039              -0.000794858               0.999999987              -0.000070970              -0.000808736               0.999999987              -0.000078931              -0.000830590               0.999999987              -0.000087580              -0.000857508               0.999999987              -0.000095529              -0.000887503               0.999999987              -0.000102298              -0.000919444               0.999999987              -0.000107396              -0.000952451               0.999999987              -0.000110846              -0.000985799               0.999999987              -0.000112556              -0.001019150               0.999999987              -0.000112166              -0.001052155               0.999999987              -0.000109369              -0.001084578               0.999999987              -0.000104290              -0.001116509               0.999999987              -0.000097001              -0.001148099               0.999999987              -0.000087463              -0.001179394               0.999999987              -0.000118487              -0.000892346               0.999999987              -0.000066377              -0.000867169               0.999999987              -0.000047556              -0.000856104               0.999999987              -0.000043377              -0.000858237               0.999999987              -0.000046003              -0.000870543               0.999999987              -0.000051903              -0.000890225               0.999999987              -0.000058915              -0.000915152               0.999999987              -0.000065705              -0.000943532               0.999999987              -0.000071597              -0.000974156               0.999999987              -0.000076045              -0.001006237               0.999999987              -0.000078899              -0.001039105               0.999999987              -0.000080074              -0.001072176               0.999999987              -0.000079259              -0.001105170               0.999999987              -0.000075831              -0.001137987               0.999999987              -0.000069678              -0.001170522               0.999999987              -0.000060487              -0.001202924               0.999999987              -0.000047964              -0.001235240               0.999999987              -0.000089852              -0.000925871               0.999999987              -0.000047906              -0.000915272               0.999999987              -0.000031103              -0.000910339               0.999999987              -0.000026068              -0.000914336               0.999999987              -0.000026895              -0.000926445               0.999999987              -0.000030669              -0.000945091               0.999999987              -0.000035835              -0.000968831               0.999999987              -0.000041202              -0.000996286               0.999999987              -0.000045863              -0.001026324               0.999999987              -0.000049442              -0.001058032               0.999999987              -0.000051786              -0.001090865               0.999999987              -0.000052475              -0.001124321               0.999999987              -0.000051340              -0.001158063               0.999999987              -0.000047785              -0.001191822               0.999999987              -0.000041186              -0.001225418               0.999999987              -0.000030885              -0.001258887               0.999999987              -0.000016032              -0.001292307               0.999999987              -0.000060383              -0.000950058               0.999999987              -0.000031064              -0.000951136               0.999999987              -0.000018390              -0.000952054               0.999999987              -0.000013942              -0.000958537               0.999999987              -0.000013713              -0.000971381               0.999999987              -0.000015771              -0.000989889               0.999999987              -0.000019084              -0.001013203               0.999999987              -0.000022679              -0.001040320               0.999999987              -0.000025998              -0.001070249               0.999999987              -0.000028559              -0.001102198               0.999999987              -0.000030175              -0.001135590               0.999999987              -0.000030532              -0.001170031               0.999999987              -0.000029427              -0.001205141               0.999999987              -0.000026391              -0.001240596               0.999999987              -0.000020676              -0.001276118               0.999999987              -0.000011239              -0.001311511               0.999999987               0.000003178              -0.001346575               0.999999987              -0.000030334              -0.000964701               0.999999987              -0.000015264              -0.000973235               0.999999987              -0.000008451              -0.000978278               0.999999987              -0.000005884              -0.000986842               0.999999987              -0.000005476              -0.001000559               0.999999987              -0.000006348              -0.001019349               0.999999987              -0.000007876              -0.001042616               0.999999987              -0.000009677              -0.001069655               0.999999987              -0.000011421              -0.001099741               0.999999987              -0.000012821              -0.001132146               0.999999987              -0.000013575              -0.001166303               0.999999987              -0.000013738              -0.001201802               0.999999987              -0.000013002              -0.001238359               0.999999987              -0.000011297              -0.001275677               0.999999987              -0.000007906              -0.001313323               0.999999987              -0.000002076              -0.001350867               0.999999987               0.000007180              -0.001387730               0.999999987               0.000000000              -0.000969612               0.999999987               0.000000000              -0.000980690               0.999999987              -0.000000000              -0.000987222               0.999999987              -0.000000000              -0.000996645               0.999999987              -0.000000000              -0.001010721               0.999999987              -0.000000000              -0.001029613               0.999999987              -0.000000000              -0.001052930               0.999999987              -0.000000000              -0.001079980               0.999999987               0.000000000              -0.001110078               0.999999987              -0.000000000              -0.001142660               0.999999987              -0.000000000              -0.001177173               0.999999987              -0.000000000              -0.001213235               0.999999987              -0.000000000              -0.001250441               0.999999987               0.000000000              -0.001288558               0.999999987               0.000000000              -0.001327143               0.999999987              -0.000000000              -0.001365600               0.999999987              -0.000000000              -0.001403280               0.999999987               0.000323330               0.000000000               0.999999987               0.000360482               0.000000000               0.999999987               0.000377614               0.000000000               0.999999987               0.000387539               0.000000000               0.999999987               0.000395348               0.000000000               0.999999987               0.000403191               0.000000000               0.999999987               0.000412015               0.000000000               0.999999987               0.000422260               0.000000000               0.999999987               0.000433847               0.000000000               0.999999987               0.000446533               0.000000000               0.999999987               0.000460104               0.000000000               0.999999987               0.000474382               0.000000000               0.999999987               0.000489255               0.000000000               0.999999987               0.000504648               0.000000000               0.999999987               0.000520319               0.000000000               0.999999987               0.000535944               0.000000000               0.999999987               0.000551067               0.000000000               0.999999987               0.000321564              -0.000094343               0.999999987               0.000356445              -0.000079764               0.999999987               0.000372121              -0.000074273               0.999999987               0.000381227              -0.000073514               0.999999987               0.000388604              -0.000075458               0.999999987               0.000396223              -0.000079062               0.999999987               0.000404973              -0.000083756               0.999999987               0.000415076              -0.000089001               0.999999987               0.000426380              -0.000094363               0.999999987               0.000438743              -0.000099619               0.999999987               0.000451962              -0.000104662               0.999999987               0.000465911              -0.000109353               0.999999987               0.000480351              -0.000113668               0.999999987               0.000495118              -0.000117366               0.999999987               0.000510055              -0.000120060               0.999999987               0.000524825              -0.000121157               0.999999987               0.000539126              -0.000120071               0.999999987               0.000316233              -0.000187745               0.999999987               0.000344546              -0.000158831               0.999999987               0.000356323              -0.000148467               0.999999987               0.000363251              -0.000147577               0.999999987               0.000369461              -0.000151917               0.999999987               0.000376535              -0.000159397               0.999999987               0.000384904              -0.000168896               0.999999987               0.000394601              -0.000179387               0.999999987               0.000405452              -0.000190044               0.999999987               0.000417143              -0.000200488               0.999999987               0.000429512              -0.000210567               0.999999987               0.000442444              -0.000220098               0.999999987               0.000455682              -0.000228768               0.999999987               0.000469003              -0.000236316               0.999999987               0.000482138              -0.000242114               0.999999987               0.000494942              -0.000245455               0.999999987               0.000507320              -0.000245628               0.999999987               0.000307399              -0.000279290               0.999999987               0.000325353              -0.000236658               0.999999987               0.000331493              -0.000222588               0.999999987               0.000335557              -0.000222574               0.999999987               0.000340480              -0.000230019               0.999999987               0.000346991              -0.000241804               0.999999987               0.000355080              -0.000256213               0.999999987               0.000364510              -0.000271892               0.999999987               0.000374866              -0.000287774               0.999999987               0.000385875              -0.000303274               0.999999987               0.000397306              -0.000318391               0.999999987               0.000409037              -0.000332762               0.999999987               0.000420761              -0.000345893               0.999999987               0.000432208              -0.000357318               0.999999987               0.000443207              -0.000366684               0.999999987               0.000453656              -0.000373478               0.999999987               0.000463536              -0.000377203               0.999999987               0.000295222              -0.000368053               0.999999987               0.000299797              -0.000312924               0.999999987               0.000299719              -0.000296639               0.999999987               0.000301203              -0.000298508               0.999999987               0.000305270              -0.000309726               0.999999987               0.000311743              -0.000326160               0.999999987               0.000320024              -0.000345497               0.999999987               0.000329376              -0.000366191               0.999999987               0.000339392              -0.000387063               0.999999987               0.000349729              -0.000407518               0.999999987               0.000360194              -0.000427525               0.999999987               0.000370489              -0.000446641               0.999999987               0.000380302              -0.000464069               0.999999987               0.000389473              -0.000479535               0.999999987               0.000397980              -0.000493069               0.999999987               0.000405802              -0.000504274               0.999999987               0.000412963              -0.000513117               0.999999987               0.000279932              -0.000453098               0.999999987               0.000269226              -0.000387464               0.999999987               0.000263482              -0.000370497               0.999999987               0.000263435              -0.000375057               0.999999987               0.000267692              -0.000390441               0.999999987               0.000274908              -0.000411515               0.999999987               0.000283779              -0.000435617               0.999999987               0.000293407              -0.000460950               0.999999987               0.000303318              -0.000486445               0.999999987               0.000313032              -0.000511618               0.999999987               0.000322302              -0.000536166               0.999999987               0.000330856              -0.000559550               0.999999987               0.000338511              -0.000581126               0.999999987               0.000345227              -0.000600859               0.999999987               0.000351108              -0.000618898               0.999999987               0.000356225              -0.000635154               0.999999987               0.000360819              -0.000649804               0.999999987               0.000261752              -0.000533607               0.999999987               0.000235387              -0.000460089               0.999999987               0.000225459              -0.000443682               0.999999987               0.000225314              -0.000451511               0.999999987               0.000230871              -0.000471043               0.999999987               0.000239396              -0.000496626               0.999999987               0.000249268              -0.000525086               0.999999987               0.000259311              -0.000554620               0.999999987               0.000268947              -0.000584433               0.999999987               0.000277883              -0.000613887               0.999999987               0.000285751              -0.000642417               0.999999987               0.000292452              -0.000669695               0.999999987               0.000297897              -0.000695208               0.999999987               0.000302259              -0.000719008               0.999999987               0.000305738              -0.000741379               0.999999987               0.000308479              -0.000762119               0.999999987               0.000310534              -0.000781822               0.999999987               0.000241095              -0.000608767               0.999999987               0.000200046              -0.000530581               0.999999987               0.000187958              -0.000515655               0.999999987               0.000189401              -0.000526727               0.999999987               0.000197044              -0.000550215               0.999999987               0.000207315              -0.000579849               0.999999987               0.000218004              -0.000612343               0.999999987               0.000228142              -0.000645923               0.999999987               0.000237241              -0.000679710               0.999999987               0.000245030              -0.000713045               0.999999987               0.000251325              -0.000745255               0.999999987               0.000256056              -0.000775978               0.999999987               0.000259331              -0.000804917               0.999999987               0.000261436              -0.000832257               0.999999987               0.000262313              -0.000858283               0.999999987               0.000262163              -0.000883079               0.999999987               0.000261219              -0.000906983               0.999999987               0.000218954              -0.000677222               0.999999987               0.000164561              -0.000598829               0.999999987               0.000153182              -0.000585518               0.999999987               0.000157283              -0.000599501               0.999999987               0.000167499              -0.000626526               0.999999987               0.000179252              -0.000659937               0.999999987               0.000190443              -0.000696203               0.999999987               0.000200322              -0.000733636               0.999999987               0.000208502              -0.000771148               0.999999987               0.000214871              -0.000807990               0.999999987               0.000219273              -0.000843554               0.999999987               0.000221666              -0.000877348               0.999999987               0.000222384              -0.000909374               0.999999987               0.000221525              -0.000939993               0.999999987               0.000219213              -0.000969471               0.999999987               0.000215985              -0.000998043               0.999999987               0.000212368              -0.001026005               0.999999987               0.000196712              -0.000741375               0.999999987               0.000136040              -0.000672549               0.999999987               0.000121808              -0.000654530               0.999999987               0.000124284              -0.000662566               0.999999987               0.000133316              -0.000684254               0.999999987               0.000144271              -0.000713274               0.999999987               0.000154888              -0.000746125               0.999999987               0.000164354              -0.000780895               0.999999987               0.000172249              -0.000816491               0.999999987               0.000178275              -0.000852191               0.999999987               0.000182725              -0.000887369               0.999999987               0.000185180              -0.000921469               0.999999987               0.000185569              -0.000954242               0.999999987               0.000184215              -0.000985816               0.999999987               0.000181112              -0.001016360               0.999999987               0.000176676              -0.001046175               0.999999987               0.000171608              -0.001075360               0.999999987               0.000172198              -0.000799378               0.999999987               0.000110209              -0.000743276               0.999999987               0.000093201              -0.000724682               0.999999987               0.000093420              -0.000728437               0.999999987               0.000100601              -0.000745597               0.999999987               0.000110311              -0.000770676               0.999999987               0.000120174              -0.000800274               0.999999987               0.000129014              -0.000832494               0.999999987               0.000136375              -0.000866152               0.999999987               0.000142018              -0.000900405               0.999999987               0.000146090              -0.000934671               0.999999987               0.000148317              -0.000968518               0.999999987               0.000148315              -0.001001623               0.999999987               0.000146261              -0.001033747               0.999999987               0.000142384              -0.001065099               0.999999987               0.000136684              -0.001095870               0.999999987               0.000129628              -0.001126212               0.999999987               0.000146024              -0.000849972               0.999999987               0.000087023              -0.000809002               0.999999987               0.000068284              -0.000792977               0.999999987               0.000066039              -0.000794858               0.999999987               0.000070970              -0.000808736               0.999999987               0.000078931              -0.000830590               0.999999987               0.000087580              -0.000857508               0.999999987               0.000095529              -0.000887503               0.999999987               0.000102298              -0.000919444               0.999999987               0.000107396              -0.000952451               0.999999987               0.000110846              -0.000985799               0.999999987               0.000112556              -0.001019150               0.999999987               0.000112166              -0.001052155               0.999999987               0.000109369              -0.001084578               0.999999987               0.000104290              -0.001116509               0.999999987               0.000097001              -0.001148099               0.999999987               0.000087463              -0.001179394               0.999999987               0.000118487              -0.000892346               0.999999987               0.000066377              -0.000867169               0.999999987               0.000047556              -0.000856104               0.999999987               0.000043377              -0.000858237               0.999999987               0.000046003              -0.000870543               0.999999987               0.000051903              -0.000890225               0.999999987               0.000058915              -0.000915152               0.999999987               0.000065705              -0.000943532               0.999999987               0.000071597              -0.000974156               0.999999987               0.000076045              -0.001006237               0.999999987               0.000078899              -0.001039105               0.999999987               0.000080074              -0.001072176               0.999999987               0.000079259              -0.001105170               0.999999987               0.000075831              -0.001137987               0.999999987               0.000069678              -0.001170522               0.999999987               0.000060487              -0.001202924               0.999999987               0.000047964              -0.001235240               0.999999987               0.000089852              -0.000925871               0.999999987               0.000047906              -0.000915272               0.999999987               0.000031103              -0.000910339               0.999999987               0.000026068              -0.000914336               0.999999987               0.000026895              -0.000926445               0.999999987               0.000030669              -0.000945091               0.999999987               0.000035835              -0.000968831               0.999999987               0.000041202              -0.000996286               0.999999987               0.000045863              -0.001026324               0.999999987               0.000049442              -0.001058032               0.999999987               0.000051786              -0.001090865               0.999999987               0.000052475              -0.001124321               0.999999987               0.000051340              -0.001158063               0.999999987               0.000047785              -0.001191822               0.999999987               0.000041186              -0.001225418               0.999999987               0.000030885              -0.001258887               0.999999987               0.000016032              -0.001292307               0.999999987               0.000060383              -0.000950058               0.999999987               0.000031064              -0.000951136               0.999999987               0.000018390              -0.000952054               0.999999987               0.000013942              -0.000958537               0.999999987               0.000013713              -0.000971381               0.999999987               0.000015771              -0.000989889               0.999999987               0.000019084              -0.001013203               0.999999987               0.000022679              -0.001040320               0.999999987               0.000025998              -0.001070249               0.999999987               0.000028559              -0.001102198               0.999999987               0.000030175              -0.001135590               0.999999987               0.000030532              -0.001170031               0.999999987               0.000029427              -0.001205141               0.999999987               0.000026391              -0.001240596               0.999999987               0.000020676              -0.001276118               0.999999987               0.000011239              -0.001311511               0.999999987              -0.000003178              -0.001346575               0.999999987               0.000030334              -0.000964701               0.999999987               0.000015264              -0.000973235               0.999999987               0.000008451              -0.000978278               0.999999987               0.000005884              -0.000986842               0.999999987               0.000005476              -0.001000559               0.999999987               0.000006348              -0.001019349               0.999999987               0.000007876              -0.001042616               0.999999987               0.000009677              -0.001069655               0.999999987               0.000011421              -0.001099741               0.999999987               0.000012821              -0.001132146               0.999999987               0.000013575              -0.001166303               0.999999987               0.000013738              -0.001201802               0.999999987               0.000013002              -0.001238359               0.999999987               0.000011297              -0.001275677               0.999999987               0.000007906              -0.001313323               0.999999987               0.000002076              -0.001350867               0.999999987              -0.000007180              -0.001387730               0.999999987               0.000000000              -0.000969612               0.999999987               0.000000000              -0.000980690               0.999999987              -0.000000000              -0.000987222               0.999999987              -0.000000000              -0.000996645               0.999999987              -0.000000000              -0.001010721               0.999999987              -0.000000000              -0.001029613               0.999999987              -0.000000000              -0.001052930               0.999999987              -0.000000000              -0.001079980               0.999999987               0.000000000              -0.001110078               0.999999987              -0.000000000              -0.001142660               0.999999987              -0.000000000              -0.001177173               0.999999987              -0.000000000              -0.001213235               0.999999987              -0.000000000              -0.001250441               0.999999987               0.000000000              -0.001288558               0.999999987               0.000000000              -0.001327143               0.999999987              -0.000000000              -0.001365600               0.999999987              -0.000000000              -0.001403280               0.999999987               0.000323330               0.000000000               0.999999987               0.000360482               0.000000000               0.999999987               0.000377614               0.000000000               0.999999987               0.000387539               0.000000000               0.999999987               0.000395348               0.000000000               0.999999987               0.000403191               0.000000000               0.999999987               0.000412015               0.000000000               0.999999987               0.000422260               0.000000000               0.999999987               0.000433847               0.000000000               0.999999987               0.000446533               0.000000000               0.999999987               0.000460104               0.000000000               0.999999987               0.000474382               0.000000000               0.999999987               0.000489255               0.000000000               0.999999987               0.000504648               0.000000000               0.999999987               0.000520319               0.000000000               0.999999987               0.000535944               0.000000000               0.999999987               0.000551067               0.000000000               0.999999987               0.000321564               0.000094343               0.999999987               0.000356445               0.000079764               0.999999987               0.000372121               0.000074273               0.999999987               0.000381227               0.000073514               0.999999987               0.000388604               0.000075458               0.999999987               0.000396223               0.000079062               0.999999987               0.000404973               0.000083756               0.999999987               0.000415076               0.000089001               0.999999987               0.000426380               0.000094363               0.999999987               0.000438743               0.000099619               0.999999987               0.000451962               0.000104662               0.999999987               0.000465911               0.000109353               0.999999987               0.000480351               0.000113668               0.999999987               0.000495118               0.000117366               0.999999987               0.000510055               0.000120060               0.999999987               0.000524825               0.000121157               0.999999987               0.000539126               0.000120071               0.999999987               0.000316233               0.000187745               0.999999987               0.000344546               0.000158831               0.999999987               0.000356323               0.000148467               0.999999987               0.000363251               0.000147577               0.999999987               0.000369461               0.000151917               0.999999987               0.000376535               0.000159397               0.999999987               0.000384904               0.000168896               0.999999987               0.000394601               0.000179387               0.999999987               0.000405452               0.000190044               0.999999987               0.000417143               0.000200488               0.999999987               0.000429512               0.000210567               0.999999987               0.000442444               0.000220098               0.999999987               0.000455682               0.000228768               0.999999987               0.000469003               0.000236316               0.999999987               0.000482138               0.000242114               0.999999987               0.000494942               0.000245455               0.999999987               0.000507320               0.000245628               0.999999987               0.000307399               0.000279290               0.999999987               0.000325353               0.000236658               0.999999987               0.000331493               0.000222588               0.999999987               0.000335557               0.000222574               0.999999987               0.000340480               0.000230019               0.999999987               0.000346991               0.000241804               0.999999987               0.000355080               0.000256213               0.999999987               0.000364510               0.000271892               0.999999987               0.000374866               0.000287774               0.999999987               0.000385875               0.000303274               0.999999987               0.000397306               0.000318391               0.999999987               0.000409037               0.000332762               0.999999987               0.000420761               0.000345893               0.999999987               0.000432208               0.000357318               0.999999987               0.000443207               0.000366684               0.999999987               0.000453656               0.000373478               0.999999987               0.000463536               0.000377203               0.999999987               0.000295222               0.000368053               0.999999987               0.000299797               0.000312924               0.999999987               0.000299719               0.000296639               0.999999987               0.000301203               0.000298508               0.999999987               0.000305270               0.000309726               0.999999987               0.000311743               0.000326160               0.999999987               0.000320024               0.000345497               0.999999987               0.000329376               0.000366191               0.999999987               0.000339392               0.000387063               0.999999987               0.000349729               0.000407518               0.999999987               0.000360194               0.000427525               0.999999987               0.000370489               0.000446641               0.999999987               0.000380302               0.000464069               0.999999987               0.000389473               0.000479535               0.999999987               0.000397980               0.000493069               0.999999987               0.000405802               0.000504274               0.999999987               0.000412963               0.000513117               0.999999987               0.000279932               0.000453098               0.999999987               0.000269226               0.000387464               0.999999987               0.000263482               0.000370497               0.999999987               0.000263435               0.000375057               0.999999987               0.000267692               0.000390441               0.999999987               0.000274908               0.000411515               0.999999987               0.000283779               0.000435617               0.999999987               0.000293407               0.000460950               0.999999987               0.000303318               0.000486445               0.999999987               0.000313032               0.000511618               0.999999987               0.000322302               0.000536166               0.999999987               0.000330856               0.000559550               0.999999987               0.000338511               0.000581126               0.999999987               0.000345227               0.000600859               0.999999987               0.000351108               0.000618898               0.999999987               0.000356225               0.000635154               0.999999987               0.000360819               0.000649804               0.999999987               0.000261752               0.000533607               0.999999987               0.000235387               0.000460089               0.999999987               0.000225459               0.000443682               0.999999987               0.000225314               0.000451511               0.999999987               0.000230871               0.000471043               0.999999987               0.000239396               0.000496626               0.999999987               0.000249268               0.000525086               0.999999987               0.000259311               0.000554620               0.999999987               0.000268947               0.000584433               0.999999987               0.000277883               0.000613887               0.999999987               0.000285751               0.000642417               0.999999987               0.000292452               0.000669695               0.999999987               0.000297897               0.000695208               0.999999987               0.000302259               0.000719008               0.999999987               0.000305738               0.000741379               0.999999987               0.000308479               0.000762119               0.999999987               0.000310534               0.000781822               0.999999987               0.000241095               0.000608767               0.999999987               0.000200046               0.000530581               0.999999987               0.000187958               0.000515655               0.999999987               0.000189401               0.000526727               0.999999987               0.000197044               0.000550215               0.999999987               0.000207315               0.000579849               0.999999987               0.000218004               0.000612343               0.999999987               0.000228142               0.000645923               0.999999987               0.000237241               0.000679710               0.999999987               0.000245030               0.000713045               0.999999987               0.000251325               0.000745255               0.999999987               0.000256056               0.000775978               0.999999987               0.000259331               0.000804917               0.999999987               0.000261436               0.000832257               0.999999987               0.000262313               0.000858283               0.999999987               0.000262163               0.000883079               0.999999987               0.000261219               0.000906983               0.999999987               0.000218954               0.000677222               0.999999987               0.000164561               0.000598829               0.999999987               0.000153182               0.000585518               0.999999987               0.000157283               0.000599501               0.999999987               0.000167499               0.000626526               0.999999987               0.000179252               0.000659937               0.999999987               0.000190443               0.000696203               0.999999987               0.000200322               0.000733636               0.999999987               0.000208502               0.000771148               0.999999987               0.000214871               0.000807990               0.999999987               0.000219273               0.000843554               0.999999987               0.000221666               0.000877348               0.999999987               0.000222384               0.000909374               0.999999987               0.000221525               0.000939993               0.999999987               0.000219213               0.000969471               0.999999987               0.000215985               0.000998043               0.999999987               0.000212368               0.001026005               0.999999987               0.000196712               0.000741375               0.999999987               0.000136040               0.000672549               0.999999987               0.000121808               0.000654530               0.999999987               0.000124284               0.000662566               0.999999987               0.000133316               0.000684254               0.999999987               0.000144271               0.000713274               0.999999987               0.000154888               0.000746125               0.999999987               0.000164354               0.000780895               0.999999987               0.000172249               0.000816491               0.999999987               0.000178275               0.000852191               0.999999987               0.000182725               0.000887369               0.999999987               0.000185180               0.000921469               0.999999987               0.000185569               0.000954242               0.999999987               0.000184215               0.000985816               0.999999987               0.000181112               0.001016360               0.999999987               0.000176676               0.001046175               0.999999987               0.000171608               0.001075360               0.999999987               0.000172198               0.000799378               0.999999987               0.000110209               0.000743276               0.999999987               0.000093201               0.000724682               0.999999987               0.000093420               0.000728437               0.999999987               0.000100601               0.000745597               0.999999987               0.000110311               0.000770676               0.999999987               0.000120174               0.000800274               0.999999987               0.000129014               0.000832494               0.999999987               0.000136375               0.000866152               0.999999987               0.000142018               0.000900405               0.999999987               0.000146090               0.000934671               0.999999987               0.000148317               0.000968518               0.999999987               0.000148315               0.001001623               0.999999987               0.000146261               0.001033747               0.999999987               0.000142384               0.001065099               0.999999987               0.000136684               0.001095870               0.999999987               0.000129628               0.001126212               0.999999987               0.000146024               0.000849972               0.999999987               0.000087023               0.000809002               0.999999987               0.000068284               0.000792977               0.999999987               0.000066039               0.000794858               0.999999987               0.000070970               0.000808736               0.999999987               0.000078931               0.000830590               0.999999987               0.000087580               0.000857508               0.999999987               0.000095529               0.000887503               0.999999987               0.000102298               0.000919444               0.999999987               0.000107396               0.000952451               0.999999987               0.000110846               0.000985799               0.999999987               0.000112556               0.001019150               0.999999987               0.000112166               0.001052155               0.999999987               0.000109369               0.001084578               0.999999987               0.000104290               0.001116509               0.999999987               0.000097001               0.001148099               0.999999987               0.000087463               0.001179394               0.999999987               0.000118487               0.000892346               0.999999987               0.000066377               0.000867169               0.999999987               0.000047556               0.000856104               0.999999987               0.000043377               0.000858237               0.999999987               0.000046003               0.000870543               0.999999987               0.000051903               0.000890225               0.999999987               0.000058915               0.000915152               0.999999987               0.000065705               0.000943532               0.999999987               0.000071597               0.000974156               0.999999987               0.000076045               0.001006237               0.999999987               0.000078899               0.001039105               0.999999987               0.000080074               0.001072176               0.999999987               0.000079259               0.001105170               0.999999987               0.000075831               0.001137987               0.999999987               0.000069678               0.001170522               0.999999987               0.000060487               0.001202924               0.999999987               0.000047964               0.001235240               0.999999987               0.000089852               0.000925871               0.999999987               0.000047906               0.000915272               0.999999987               0.000031103               0.000910339               0.999999987               0.000026068               0.000914336               0.999999987               0.000026895               0.000926445               0.999999987               0.000030669               0.000945091               0.999999987               0.000035835               0.000968831               0.999999987               0.000041202               0.000996286               0.999999987               0.000045863               0.001026324               0.999999987               0.000049442               0.001058032               0.999999987               0.000051786               0.001090865               0.999999987               0.000052475               0.001124321               0.999999987               0.000051340               0.001158063               0.999999987               0.000047785               0.001191822               0.999999987               0.000041186               0.001225418               0.999999987               0.000030885               0.001258887               0.999999987               0.000016032               0.001292307               0.999999987               0.000060383               0.000950058               0.999999987               0.000031064               0.000951136               0.999999987               0.000018390               0.000952054               0.999999987               0.000013942               0.000958537               0.999999987               0.000013713               0.000971381               0.999999987               0.000015771               0.000989889               0.999999987               0.000019084               0.001013203               0.999999987               0.000022679               0.001040320               0.999999987               0.000025998               0.001070249               0.999999987               0.000028559               0.001102198               0.999999987               0.000030175               0.001135590               0.999999987               0.000030532               0.001170031               0.999999987               0.000029427               0.001205141               0.999999987               0.000026391               0.001240596               0.999999987               0.000020676               0.001276118               0.999999987               0.000011239               0.001311511               0.999999987              -0.000003178               0.001346575               0.999999987               0.000030334               0.000964701               0.999999987               0.000015264               0.000973235               0.999999987               0.000008451               0.000978278               0.999999987               0.000005884               0.000986842               0.999999987               0.000005476               0.001000559               0.999999987               0.000006348               0.001019349               0.999999987               0.000007876               0.001042616               0.999999987               0.000009677               0.001069655               0.999999987               0.000011421               0.001099741               0.999999987               0.000012821               0.001132146               0.999999987               0.000013575               0.001166303               0.999999987               0.000013738               0.001201802               0.999999987               0.000013002               0.001238359               0.999999987               0.000011297               0.001275677               0.999999987               0.000007906               0.001313323               0.999999987               0.000002076               0.001350867               0.999999987              -0.000007180               0.001387730               0.999999987               0.000000000               0.000969612               0.999999987              -0.000000000               0.000980690               0.999999987               0.000000000               0.000987222               0.999999987               0.000000000               0.000996645               0.999999987              -0.000000000               0.001010721               0.999999987               0.000000000               0.001029613               0.999999987               0.000000000               0.001052930               0.999999987              -0.000000000               0.001079980               0.999999987              -0.000000000               0.001110078               0.999999987               0.000000000               0.001142660               0.999999987              -0.000000000               0.001177173               0.999999987              -0.000000000               0.001213235               0.999999987              -0.000000000               0.001250441               0.999999987              -0.000000000               0.001288558               0.999999987              -0.000000000               0.001327143               0.999999987              -0.000000000               0.001365600               0.999999987              -0.000000000               0.001403280               0.999999987 </DataArray>
<DataArray type="Float64"                                    Name="stress"                                                      NumberOfComponents="10" format="ascii">
              0.001567268               0.017427162               0.000000000              -0.001590666               0.006339218               0.004748552               0.000000000               0.000000000               0.000000000               0.000000000               0.001614793               0.013940559               0.000000000              -0.001137020               0.005025813               0.003888793               0.000000000               0.000000000               0.000000000               0.000000000               0.002169380               0.011120818              -0.000000000              -0.000576583               0.003899097               0.003322513               0.000000000               0.000000000               0.000000000               0.000000000               0.002149646               0.009548411               0.000000000              -0.000387433               0.003311916               0.002924483               0.000000000               0.000000000               0.000000000               0.000000000               0.001935990               0.008591128               0.000000000              -0.000347894               0.002979645               0.002631751               0.000000000               0.000000000               0.000000000               0.000000000               0.001662810               0.007967941              -0.000000000              -0.000372438               0.002780100               0.002407662               0.000000000               0.000000000               0.000000000               0.000000000               0.001380179               0.007537638               0.000000000              -0.000424636               0.002654066               0.002229430               0.000000000               0.000000000               0.000000000               0.000000000               0.001119333               0.007217888              -0.000000000              -0.000482485               0.002566767               0.002084282               0.000000000               0.000000000               0.000000000               0.000000000               0.000896535               0.006959475              -0.000000000              -0.000533732               0.002497713               0.001963980               0.000000000               0.000000000               0.000000000               0.000000000               0.000708988               0.006734967              -0.000000000              -0.000575999               0.002436966               0.001860967               0.000000000               0.000000000               0.000000000               0.000000000               0.000548945               0.006529156              -0.000000000              -0.000610289               0.002379793               0.001769505               0.000000000               0.000000000               0.000000000               0.000000000               0.000409724               0.006331456               0.000000000              -0.000637784               0.002323059               0.001685275               0.000000000               0.000000000               0.000000000               0.000000000               0.000285732               0.006135558               0.000000000              -0.000659793               0.002265097               0.001605303               0.000000000               0.000000000               0.000000000               0.000000000               0.000176945               0.005930517              -0.000000000              -0.000674959               0.002201805               0.001526847               0.000000000               0.000000000               0.000000000               0.000000000               0.000091912               0.005702807               0.000000000              -0.000678382               0.002127044               0.001448662               0.000000000               0.000000000               0.000000000               0.000000000               0.000035579               0.005433805               0.000000000              -0.000665882               0.002033211               0.001367329               0.000000000               0.000000000               0.000000000               0.000000000              -0.000007304               0.005222184              -0.000000000              -0.000655510               0.001959214               0.001303704               0.000000000               0.000000000               0.000000000               0.000000000               0.001642048               0.017096111              -0.001239196              -0.001521242               0.006205727               0.004684485               0.000000000               0.000000000               0.000000000               0.000000000               0.001610474               0.013717152              -0.000689701              -0.001110714               0.004942576               0.003831863               0.000000000               0.000000000               0.000000000               0.000000000               0.002077798               0.011013471              -0.000135445              -0.000597508               0.003870290               0.003272782               0.000000000               0.000000000               0.000000000               0.000000000               0.002020480               0.009505190               0.000107084              -0.000430468               0.003311854               0.002881387               0.000000000               0.000000000               0.000000000               0.000000000               0.001795471               0.008582056               0.000214158              -0.000399454               0.002993808               0.002594354               0.000000000               0.000000000               0.000000000               0.000000000               0.001523790               0.007975252               0.000259695              -0.000425484               0.002800219               0.002374735               0.000000000               0.000000000               0.000000000               0.000000000               0.001253053               0.007552121               0.000274257              -0.000474119               0.002675388               0.002201269               0.000000000               0.000000000               0.000000000               0.000000000               0.001010514               0.007234976               0.000270636              -0.000525428               0.002586777               0.002061349               0.000000000               0.000000000               0.000000000               0.000000000               0.000803534               0.006975742               0.000258555              -0.000570641               0.002515438               0.001944797               0.000000000               0.000000000               0.000000000               0.000000000               0.000627063               0.006749357               0.000245183              -0.000608519               0.002452603               0.001844084               0.000000000               0.000000000               0.000000000               0.000000000               0.000474309               0.006543072               0.000231031              -0.000640017               0.002394341               0.001754324               0.000000000               0.000000000               0.000000000               0.000000000               0.000344555               0.006348662               0.000215928              -0.000664373               0.002337657               0.001673284               0.000000000               0.000000000               0.000000000               0.000000000               0.000236148               0.006157330               0.000198936              -0.000681109               0.002279459               0.001598350               0.000000000               0.000000000               0.000000000               0.000000000               0.000144274               0.005959903               0.000174488              -0.000690883               0.002216909               0.001526025               0.000000000               0.000000000               0.000000000               0.000000000               0.000074145               0.005746393               0.000135737              -0.000690493               0.002145609               0.001455116               0.000000000               0.000000000               0.000000000               0.000000000               0.000028955               0.005506127               0.000077898              -0.000677406               0.002061159               0.001383753               0.000000000               0.000000000               0.000000000               0.000000000              -0.000006584               0.005324341               0.000047658              -0.000668010               0.001997433               0.001329423               0.000000000               0.000000000               0.000000000               0.000000000               0.001830703               0.016145561              -0.002321384              -0.001331679               0.005825693               0.004494014               0.000000000               0.000000000               0.000000000               0.000000000               0.001578577               0.013081309              -0.001295274              -0.001043195               0.004708124               0.003664929               0.000000000               0.000000000               0.000000000               0.000000000               0.001808523               0.010712352              -0.000267570              -0.000660846               0.003791030               0.003130184               0.000000000               0.000000000               0.000000000               0.000000000               0.001659451               0.009381897               0.000170305              -0.000550442               0.003310748               0.002760307               0.000000000               0.000000000               0.000000000               0.000000000               0.001411488               0.008551516               0.000358537              -0.000539630               0.003030354               0.002490723               0.000000000               0.000000000               0.000000000               0.000000000               0.001154047               0.007990873               0.000438060              -0.000566090               0.002852294               0.002286204               0.000000000               0.000000000               0.000000000               0.000000000               0.000918333               0.007585800               0.000463736              -0.000603849               0.002729858               0.002126009               0.000000000               0.000000000               0.000000000               0.000000000               0.000714780               0.007271276               0.000455469              -0.000640866               0.002637356               0.001996491               0.000000000               0.000000000               0.000000000               0.000000000               0.000547204               0.007010148               0.000431009              -0.000671065               0.002560381               0.001889316               0.000000000               0.000000000               0.000000000               0.000000000               0.000408124               0.006781908               0.000405286              -0.000694690               0.002492177               0.001797487               0.000000000               0.000000000               0.000000000               0.000000000               0.000287100               0.006577974               0.000380241              -0.000714583               0.002430830               0.001716248               0.000000000               0.000000000               0.000000000               0.000000000               0.000187647               0.006390026               0.000351278              -0.000728384               0.002372782               0.001644398               0.000000000               0.000000000               0.000000000               0.000000000               0.000112469               0.006207271               0.000316920              -0.000733731               0.002313647               0.001579915               0.000000000               0.000000000               0.000000000               0.000000000               0.000058579               0.006023891               0.000271682              -0.000731017               0.002251616               0.001520599               0.000000000               0.000000000               0.000000000               0.000000000               0.000024241               0.005840786               0.000206194              -0.000721006               0.002187244               0.001466238               0.000000000               0.000000000               0.000000000               0.000000000               0.000005025               0.005659688               0.000115082              -0.000705575               0.002121735               0.001416161               0.000000000               0.000000000               0.000000000               0.000000000              -0.000013225               0.005537765               0.000067710              -0.000697178               0.002078296               0.001381118               0.000000000               0.000000000               0.000000000               0.000000000               0.002053485               0.014693660              -0.003127507              -0.001066650               0.005253387               0.004186737               0.000000000               0.000000000               0.000000000               0.000000000               0.001491821               0.012128574              -0.001755521              -0.000956637               0.004361696               0.003405059               0.000000000               0.000000000               0.000000000               0.000000000               0.001391867               0.010268810              -0.000396773              -0.000761649               0.003676785               0.002915136               0.000000000               0.000000000               0.000000000               0.000000000               0.001132031               0.009186460               0.000158020              -0.000723794               0.003303388               0.002579593               0.000000000               0.000000000               0.000000000               0.000000000               0.000872793               0.008482341               0.000388112              -0.000732994               0.003071750               0.002338756               0.000000000               0.000000000               0.000000000               0.000000000               0.000650821               0.007984015               0.000481611              -0.000753942               0.002912626               0.002158684               0.000000000               0.000000000               0.000000000               0.000000000               0.000469339               0.007601386               0.000509907              -0.000774169               0.002791826               0.002017657               0.000000000               0.000000000               0.000000000               0.000000000               0.000325413               0.007290249               0.000500265              -0.000789249               0.002693142               0.001903892               0.000000000               0.000000000               0.000000000               0.000000000               0.000213760               0.007027129               0.000470987              -0.000798229               0.002608429               0.001810200               0.000000000               0.000000000               0.000000000               0.000000000               0.000125255               0.006798830               0.000441230              -0.000802881               0.002533881               0.001731000               0.000000000               0.000000000               0.000000000               0.000000000               0.000052705               0.006598415               0.000412761              -0.000805036               0.002467795               0.001662759               0.000000000               0.000000000               0.000000000               0.000000000              -0.000000971               0.006415560               0.000375865              -0.000802307               0.002405934               0.001603627               0.000000000               0.000000000               0.000000000               0.000000000              -0.000032129               0.006240331               0.000329568              -0.000792088               0.002344119               0.001552031               0.000000000               0.000000000               0.000000000               0.000000000              -0.000045743               0.006072433               0.000274742              -0.000776206               0.002282859               0.001506654               0.000000000               0.000000000               0.000000000               0.000000000              -0.000043151               0.005923222               0.000203666              -0.000756583               0.002226582               0.001469999               0.000000000               0.000000000               0.000000000               0.000000000              -0.000027772               0.005799672               0.000110735              -0.000735372               0.002178328               0.001442957               0.000000000               0.000000000               0.000000000               0.000000000              -0.000024062               0.005730443               0.000062925              -0.000725327               0.002151904               0.001426577               0.000000000               0.000000000               0.000000000               0.000000000               0.002217781               0.012905113              -0.003593931              -0.000781472               0.004562151               0.003780679               0.000000000               0.000000000               0.000000000               0.000000000               0.001324563               0.010980728              -0.002049874              -0.000875879               0.003952165               0.003076286               0.000000000               0.000000000               0.000000000               0.000000000               0.000871535               0.009736158              -0.000540311              -0.000890192               0.003542084               0.002651892               0.000000000               0.000000000               0.000000000               0.000000000               0.000529478               0.008928346               0.000048066              -0.000917487               0.003281914               0.002364428               0.000000000               0.000000000               0.000000000               0.000000000               0.000291060               0.008355621               0.000285185              -0.000935303               0.003096947               0.002161644               0.000000000               0.000000000               0.000000000               0.000000000               0.000127309               0.007915937               0.000379495              -0.000941749               0.002952536               0.002010787               0.000000000               0.000000000               0.000000000               0.000000000               0.000021504               0.007556314               0.000410745              -0.000936473               0.002830904               0.001894431               0.000000000               0.000000000               0.000000000               0.000000000              -0.000048220               0.007248112               0.000407543              -0.000924094               0.002724045               0.001799950               0.000000000               0.000000000               0.000000000               0.000000000              -0.000094569               0.006983274               0.000385686              -0.000908370               0.002630525               0.001722154               0.000000000               0.000000000               0.000000000               0.000000000              -0.000125403               0.006757400               0.000364011              -0.000891699               0.002549677               0.001657978               0.000000000               0.000000000               0.000000000               0.000000000              -0.000144791               0.006557103               0.000343588              -0.000873933               0.002476990               0.001603058               0.000000000               0.000000000               0.000000000               0.000000000              -0.000147262               0.006374068               0.000310302              -0.000851980               0.002408661               0.001556682               0.000000000               0.000000000               0.000000000               0.000000000              -0.000134364               0.006205685               0.000264804              -0.000826095               0.002343906               0.001517811               0.000000000               0.000000000               0.000000000               0.000000000              -0.000113213               0.006058272               0.000216161              -0.000799737               0.002285983               0.001486246               0.000000000               0.000000000               0.000000000               0.000000000              -0.000084031               0.005940373               0.000157054              -0.000774056               0.002238123               0.001464067               0.000000000               0.000000000               0.000000000               0.000000000              -0.000045705               0.005859284               0.000082876              -0.000749548               0.002202925               0.001453377               0.000000000               0.000000000               0.000000000               0.000000000              -0.000027695               0.005823321               0.000045331              -0.000738299               0.002187187               0.001448888               0.000000000               0.000000000               0.000000000               0.000000000               0.002237285               0.010960079              -0.003718882              -0.000531030               0.003830332               0.003299302               0.000000000               0.000000000               0.000000000               0.000000000               0.001069724               0.009752844              -0.002194207              -0.000817959               0.003523568               0.002705609               0.000000000               0.000000000               0.000000000               0.000000000               0.000311765               0.009152123              -0.000713375              -0.001027101               0.003393044               0.002365943               0.000000000               0.000000000               0.000000000               0.000000000              -0.000058869               0.008612438              -0.000156035              -0.001098628               0.003236993               0.002138365               0.000000000               0.000000000               0.000000000               0.000000000              -0.000238296               0.008157856               0.000069872              -0.001109090               0.003088955               0.001979865               0.000000000               0.000000000               0.000000000               0.000000000              -0.000318943               0.007770122               0.000167153              -0.001090866               0.002953637               0.001862771               0.000000000               0.000000000               0.000000000               0.000000000              -0.000340602               0.007428731               0.000209197              -0.001056314               0.002828324               0.001772009               0.000000000               0.000000000               0.000000000               0.000000000              -0.000337010               0.007123557               0.000222989              -0.001016821               0.002713435               0.001696614               0.000000000               0.000000000               0.000000000               0.000000000              -0.000318987               0.006861832               0.000223555              -0.000977347               0.002613037               0.001635690               0.000000000               0.000000000               0.000000000               0.000000000              -0.000289194               0.006637857               0.000220840              -0.000938178               0.002525323               0.001587145               0.000000000               0.000000000               0.000000000               0.000000000              -0.000256229               0.006433285               0.000215155              -0.000900244               0.002444488               0.001544244               0.000000000               0.000000000               0.000000000               0.000000000              -0.000215163               0.006247733               0.000194604              -0.000861651               0.002369774               0.001508123               0.000000000               0.000000000               0.000000000               0.000000000              -0.000168103               0.006086603               0.000161990              -0.000823862               0.002303468               0.001479606               0.000000000               0.000000000               0.000000000               0.000000000              -0.000122426               0.005953214               0.000128135              -0.000790060               0.002247738               0.001457678               0.000000000               0.000000000               0.000000000               0.000000000              -0.000078047               0.005849105               0.000087869              -0.000760404               0.002203150               0.001442746               0.000000000               0.000000000               0.000000000               0.000000000              -0.000036567               0.005775458               0.000040964              -0.000735643               0.002170348               0.001434705               0.000000000               0.000000000               0.000000000               0.000000000              -0.000021144               0.005740993               0.000019698              -0.000725551               0.002155495               0.001429944               0.000000000               0.000000000               0.000000000               0.000000000               0.002053085               0.009016631              -0.003555255              -0.000357175               0.003124571               0.002767396               0.000000000               0.000000000               0.000000000               0.000000000               0.000736312               0.008537468              -0.002224919              -0.000791066               0.003109482               0.002318416               0.000000000               0.000000000               0.000000000               0.000000000              -0.000217996               0.008544794              -0.000921413              -0.001149845               0.003231518               0.002081673               0.000000000               0.000000000               0.000000000               0.000000000              -0.000551022               0.008238540              -0.000430009              -0.001236448               0.003158302               0.001921854               0.000000000               0.000000000               0.000000000               0.000000000              -0.000641414               0.007884816              -0.000212535              -0.001226129               0.003036955               0.001810826               0.000000000               0.000000000               0.000000000               0.000000000              -0.000630793               0.007541552              -0.000100542              -0.001179238               0.002906905               0.001727667               0.000000000               0.000000000               0.000000000               0.000000000              -0.000577975               0.007219668              -0.000035061              -0.001119196               0.002779597               0.001660401               0.000000000               0.000000000               0.000000000               0.000000000              -0.000508468               0.006930709               0.000008872              -0.001057012               0.002662551               0.001605539               0.000000000               0.000000000               0.000000000               0.000000000              -0.000438682               0.006677659               0.000041015              -0.000999211               0.002558934               0.001559724               0.000000000               0.000000000               0.000000000               0.000000000              -0.000365738               0.006453441               0.000061522              -0.000943829               0.002465735               0.001521906               0.000000000               0.000000000               0.000000000               0.000000000              -0.000292340               0.006247327               0.000072621              -0.000890541               0.002379269               0.001488727               0.000000000               0.000000000               0.000000000               0.000000000              -0.000221054               0.006059979               0.000069536              -0.000840391               0.002300103               0.001459712               0.000000000               0.000000000               0.000000000               0.000000000              -0.000156131               0.005896427               0.000054803              -0.000795601               0.002230656               0.001435055               0.000000000               0.000000000               0.000000000               0.000000000              -0.000102268               0.005758296               0.000039917              -0.000758135               0.002172125               0.001413989               0.000000000               0.000000000               0.000000000               0.000000000              -0.000059798               0.005644198               0.000021219              -0.000727947               0.002124029               0.001396082               0.000000000               0.000000000               0.000000000               0.000000000              -0.000025847               0.005554549               0.000003082              -0.000704010               0.002086168               0.001382158               0.000000000               0.000000000               0.000000000               0.000000000              -0.000018257               0.005503540               0.000001925              -0.000694787               0.002066091               0.001371304               0.000000000               0.000000000               0.000000000               0.000000000               0.001684351               0.007190762              -0.003172987              -0.000267217               0.002485968               0.002218751               0.000000000               0.000000000               0.000000000               0.000000000               0.000350565               0.007405841              -0.002177065              -0.000794268               0.002733344               0.001939076               0.000000000               0.000000000               0.000000000               0.000000000              -0.000661483               0.007927740              -0.001161904              -0.001239021               0.003055560               0.001816540               0.000000000               0.000000000               0.000000000               0.000000000              -0.000898383               0.007808204              -0.000735939              -0.001312916               0.003040347               0.001727431               0.000000000               0.000000000               0.000000000               0.000000000              -0.000886547               0.007541319              -0.000510900              -0.001275117               0.002938787               0.001663670               0.000000000               0.000000000               0.000000000               0.000000000              -0.000791986               0.007243042              -0.000368004              -0.001202372               0.002815114               0.001612742               0.000000000               0.000000000               0.000000000               0.000000000              -0.000677331               0.006951720              -0.000265279              -0.001122962               0.002691537               0.001568576               0.000000000               0.000000000               0.000000000               0.000000000              -0.000564677               0.006686555              -0.000187448              -0.001047571               0.002578020               0.001530449               0.000000000               0.000000000               0.000000000               0.000000000              -0.000461371               0.006444630              -0.000126079              -0.000978590               0.002474385               0.001495795               0.000000000               0.000000000               0.000000000               0.000000000              -0.000364464               0.006221975              -0.000082393              -0.000914418               0.002378777               0.001464359               0.000000000               0.000000000               0.000000000               0.000000000              -0.000271453               0.006016739              -0.000055036              -0.000853885               0.002290188               0.001436303               0.000000000               0.000000000               0.000000000               0.000000000              -0.000192123               0.005824336              -0.000040182              -0.000800086               0.002208121               0.001408035               0.000000000               0.000000000               0.000000000               0.000000000              -0.000130782               0.005652314              -0.000033241              -0.000755580               0.002135946               0.001380365               0.000000000               0.000000000               0.000000000               0.000000000              -0.000079312               0.005507458              -0.000024619              -0.000718173               0.002075192               0.001357019               0.000000000               0.000000000               0.000000000               0.000000000              -0.000038921               0.005386664              -0.000016369              -0.000687927               0.002024846               0.001336919               0.000000000               0.000000000               0.000000000               0.000000000              -0.000015109               0.005288982              -0.000009678              -0.000666787               0.001985239               0.001318452               0.000000000               0.000000000               0.000000000               0.000000000              -0.000014688               0.005230471               0.000000083              -0.000659315               0.001963245               0.001303929               0.000000000               0.000000000               0.000000000               0.000000000               0.001217729               0.005617721              -0.002655892              -0.000245569               0.001954410               0.001708841               0.000000000               0.000000000               0.000000000               0.000000000              -0.000007437               0.006389310              -0.002097189              -0.000801452               0.002396899               0.001595446               0.000000000               0.000000000               0.000000000               0.000000000              -0.000970601               0.007328428              -0.001441964              -0.001280026               0.002869460               0.001589434               0.000000000               0.000000000               0.000000000               0.000000000              -0.001103943               0.007396119              -0.001059549              -0.001338491               0.002911512               0.001573021               0.000000000               0.000000000               0.000000000               0.000000000              -0.001010365               0.007230405              -0.000810158              -0.001282685               0.002837672               0.001554988               0.000000000               0.000000000               0.000000000               0.000000000              -0.000854043               0.006992866              -0.000627425              -0.001194371               0.002729056               0.001534684               0.000000000               0.000000000               0.000000000               0.000000000              -0.000695822               0.006741753              -0.000487406              -0.001103650               0.002615112               0.001511462               0.000000000               0.000000000               0.000000000               0.000000000              -0.000553255               0.006501748              -0.000378002              -0.001020187               0.002507290               0.001487103               0.000000000               0.000000000               0.000000000               0.000000000              -0.000430431               0.006273644              -0.000290891              -0.000945615               0.002406398               0.001460784               0.000000000               0.000000000               0.000000000               0.000000000              -0.000325277               0.006055369              -0.000223925              -0.000878898               0.002311402               0.001432504               0.000000000               0.000000000               0.000000000               0.000000000              -0.000228002               0.005846531              -0.000175547              -0.000816315               0.002220929               0.001404614               0.000000000               0.000000000               0.000000000               0.000000000              -0.000151805               0.005646895              -0.000138113              -0.000762787               0.002136542               0.001373755               0.000000000               0.000000000               0.000000000               0.000000000              -0.000098893               0.005471526              -0.000104708              -0.000721024               0.002064165               0.001343141               0.000000000               0.000000000               0.000000000               0.000000000              -0.000058806               0.005326926              -0.000069684              -0.000687916               0.002004930               0.001317014               0.000000000               0.000000000               0.000000000               0.000000000              -0.000036842               0.005206338              -0.000037490              -0.000664606               0.001956964               0.001292358               0.000000000               0.000000000               0.000000000               0.000000000              -0.000036226               0.005108170              -0.000015098              -0.000652104               0.001920074               0.001267970               0.000000000               0.000000000               0.000000000               0.000000000              -0.000042750               0.005056569              -0.000003893              -0.000648101               0.001901540               0.001253439               0.000000000               0.000000000               0.000000000               0.000000000               0.000630804               0.004134391              -0.002084209              -0.000280249               0.001471532               0.001191283               0.000000000               0.000000000               0.000000000               0.000000000              -0.000276808               0.005217608              -0.001999804              -0.000756004               0.001991186               0.001235182               0.000000000               0.000000000               0.000000000               0.000000000              -0.001093898               0.006452865              -0.001747966              -0.001216817               0.002556539               0.001339721               0.000000000               0.000000000               0.000000000               0.000000000              -0.001178256               0.006778156              -0.001418063              -0.001289113               0.002689067               0.001399954               0.000000000               0.000000000               0.000000000               0.000000000              -0.001067863               0.006783770              -0.001145128              -0.001248417               0.002677373               0.001428956               0.000000000               0.000000000               0.000000000               0.000000000              -0.000897220               0.006665830              -0.000926397              -0.001169684               0.002611816               0.001442132               0.000000000               0.000000000               0.000000000               0.000000000              -0.000721823               0.006500775              -0.000751797              -0.001083278               0.002527996               0.001444718               0.000000000               0.000000000               0.000000000               0.000000000              -0.000566560               0.006322973              -0.000610532              -0.001002829               0.002441913               0.001439084               0.000000000               0.000000000               0.000000000               0.000000000              -0.000434815               0.006144281              -0.000492490              -0.000931089               0.002358436               0.001427347               0.000000000               0.000000000               0.000000000               0.000000000              -0.000328392               0.005961948              -0.000397961              -0.000868388               0.002276759               0.001408370               0.000000000               0.000000000               0.000000000               0.000000000              -0.000239544               0.005773280              -0.000320835              -0.000811487               0.002194903               0.001383416               0.000000000               0.000000000               0.000000000               0.000000000              -0.000168626               0.005585989              -0.000249643              -0.000761482               0.002115805               0.001354323               0.000000000               0.000000000               0.000000000               0.000000000              -0.000122955               0.005414082              -0.000185061              -0.000722867               0.002045631               0.001322765               0.000000000               0.000000000               0.000000000               0.000000000              -0.000096071               0.005265983              -0.000123836              -0.000694273               0.001986734               0.001292462               0.000000000               0.000000000               0.000000000               0.000000000              -0.000081701               0.005147849              -0.000067594              -0.000674117               0.001940638               0.001266521               0.000000000               0.000000000               0.000000000               0.000000000              -0.000086503               0.005052619              -0.000025755              -0.000664014               0.001905527               0.001241513               0.000000000               0.000000000               0.000000000               0.000000000              -0.000097080               0.005005260              -0.000008129              -0.000662061               0.001889090               0.001227030               0.000000000               0.000000000               0.000000000               0.000000000              -0.000178738               0.002776768              -0.001488493              -0.000414123               0.001063621               0.000649497               0.000000000               0.000000000               0.000000000               0.000000000              -0.000582864               0.004045999              -0.001839018              -0.000724323               0.001590093               0.000865770               0.000000000               0.000000000               0.000000000               0.000000000              -0.001133056               0.005454552              -0.001984844              -0.001106713               0.002187069               0.001080356               0.000000000               0.000000000               0.000000000               0.000000000              -0.001175075               0.006024916              -0.001757235              -0.001193765               0.002406206               0.001212441               0.000000000               0.000000000               0.000000000               0.000000000              -0.001066410               0.006227750              -0.001489485              -0.001178370               0.002468686               0.001290315               0.000000000               0.000000000               0.000000000               0.000000000              -0.000903377               0.006258561              -0.001252692              -0.001121084               0.002459861               0.001338776               0.000000000               0.000000000               0.000000000               0.000000000              -0.000726809               0.006206727              -0.001051992              -0.001048392               0.002418352               0.001369960               0.000000000               0.000000000               0.000000000               0.000000000              -0.000565386               0.006116144              -0.000882298              -0.000976536               0.002364206               0.001387670               0.000000000               0.000000000               0.000000000               0.000000000              -0.000426191               0.006003262              -0.000738140              -0.000910227               0.002304476               0.001394249               0.000000000               0.000000000               0.000000000               0.000000000              -0.000315440               0.005868918              -0.000617409              -0.000851903               0.002240254               0.001388351               0.000000000               0.000000000               0.000000000               0.000000000              -0.000232478               0.005718091              -0.000511769              -0.000801939               0.002173324               0.001371385               0.000000000               0.000000000               0.000000000               0.000000000              -0.000164763               0.005562736              -0.000409924              -0.000757126               0.002106602               0.001349476               0.000000000               0.000000000               0.000000000               0.000000000              -0.000117109               0.005405250              -0.000313476              -0.000719570               0.002041589               0.001322018               0.000000000               0.000000000               0.000000000               0.000000000              -0.000093611               0.005260199              -0.000224560              -0.000692627               0.001984258               0.001291631               0.000000000               0.000000000               0.000000000               0.000000000              -0.000085389               0.005145171              -0.000140425              -0.000675165               0.001940095               0.001264930               0.000000000               0.000000000               0.000000000               0.000000000              -0.000099002               0.005051078              -0.000063389              -0.000668509               0.001906512               0.001238003               0.000000000               0.000000000               0.000000000               0.000000000              -0.000121873               0.005001049              -0.000024529              -0.000670832               0.001890610               0.001219778               0.000000000               0.000000000               0.000000000               0.000000000              -0.001150616               0.001635479              -0.000908372              -0.000635915               0.000757125               0.000121210               0.000000000               0.000000000               0.000000000               0.000000000              -0.000974483               0.002936917              -0.001586246              -0.000732545               0.001223143               0.000490599               0.000000000               0.000000000               0.000000000               0.000000000              -0.001130221               0.004346452              -0.002058489              -0.000967138               0.001771181               0.000804043               0.000000000               0.000000000               0.000000000               0.000000000              -0.001079193               0.005088804              -0.001967073              -0.001040796               0.002043182               0.001002386               0.000000000               0.000000000               0.000000000               0.000000000              -0.000960177               0.005476093              -0.001746513              -0.001044576               0.002173538               0.001128961               0.000000000               0.000000000               0.000000000               0.000000000              -0.000811251               0.005669420              -0.001518134              -0.001012895               0.002227419               0.001214524               0.000000000               0.000000000               0.000000000               0.000000000              -0.000650811               0.005748135              -0.001309808              -0.000962569               0.002236882               0.001274313               0.000000000               0.000000000               0.000000000               0.000000000              -0.000495258               0.005760202              -0.001127768              -0.000905745               0.002221963               0.001316218               0.000000000               0.000000000               0.000000000               0.000000000              -0.000354680               0.005731240              -0.000968229              -0.000849408               0.002193530               0.001344122               0.000000000               0.000000000               0.000000000               0.000000000              -0.000240315               0.005664173              -0.000828695              -0.000798138               0.002154085               0.001355947               0.000000000               0.000000000               0.000000000               0.000000000              -0.000154290               0.005569243              -0.000706031              -0.000754012               0.002107733               0.001353721               0.000000000               0.000000000               0.000000000               0.000000000              -0.000085791               0.005458734              -0.000587807              -0.000714512               0.002057730               0.001343219               0.000000000               0.000000000               0.000000000               0.000000000              -0.000032668               0.005337822              -0.000467709              -0.000679477               0.002005748               0.001326272               0.000000000               0.000000000               0.000000000               0.000000000              -0.000003280               0.005222528              -0.000349728              -0.000654044               0.001958840               0.001304796               0.000000000               0.000000000               0.000000000               0.000000000               0.000000692               0.005126241              -0.000234223              -0.000640519               0.001922236               0.001281717               0.000000000               0.000000000               0.000000000               0.000000000              -0.000026751               0.005042628              -0.000116311              -0.000640359               0.001894312               0.001253954               0.000000000               0.000000000               0.000000000               0.000000000              -0.000064235               0.004992812              -0.000051841              -0.000648188               0.001880317               0.001232129               0.000000000               0.000000000               0.000000000               0.000000000              -0.002204506               0.000771930              -0.000412981              -0.000923180               0.000565032              -0.000358147               0.000000000               0.000000000               0.000000000               0.000000000              -0.001424880               0.001951129              -0.001266869              -0.000778220               0.000909776               0.000131556               0.000000000               0.000000000               0.000000000               0.000000000              -0.001105483               0.003215500              -0.001946886              -0.000816493               0.001343986               0.000527493               0.000000000               0.000000000               0.000000000               0.000000000              -0.000904858               0.004044080              -0.001986202              -0.000844831               0.001629623               0.000784792               0.000000000               0.000000000               0.000000000               0.000000000              -0.000750225               0.004576663              -0.001837799              -0.000853416               0.001810011               0.000956594               0.000000000               0.000000000               0.000000000               0.000000000              -0.000612401               0.004918570              -0.001645403              -0.000844471               0.001920997               0.001076526               0.000000000               0.000000000               0.000000000               0.000000000              -0.000473303               0.005133147              -0.001454080              -0.000819131               0.001984075               0.001164944               0.000000000               0.000000000               0.000000000               0.000000000              -0.000335785               0.005257952              -0.001279461              -0.000783162               0.002013687               0.001230525               0.000000000               0.000000000               0.000000000               0.000000000              -0.000210812               0.005321392              -0.001120422              -0.000744227               0.002021855               0.001277628               0.000000000               0.000000000               0.000000000               0.000000000              -0.000098905               0.005338659              -0.000977817              -0.000704420               0.002014342               0.001309922               0.000000000               0.000000000               0.000000000               0.000000000              -0.000004580               0.005316411              -0.000851979              -0.000666267               0.001994208               0.001327941               0.000000000               0.000000000               0.000000000               0.000000000               0.000070650               0.005265702              -0.000732323              -0.000631718               0.001965789               0.001334071               0.000000000               0.000000000               0.000000000               0.000000000               0.000135550               0.005205327              -0.000606396              -0.000599833               0.001935036               0.001335203               0.000000000               0.000000000               0.000000000               0.000000000               0.000185335               0.005141623              -0.000472855              -0.000573201               0.001904924               0.001331723               0.000000000               0.000000000               0.000000000               0.000000000               0.000207833               0.005081389              -0.000330583              -0.000557235               0.001879524               0.001322290               0.000000000               0.000000000               0.000000000               0.000000000               0.000190473               0.005025148              -0.000171127              -0.000556715               0.001860604               0.001303889               0.000000000               0.000000000               0.000000000               0.000000000               0.000153786               0.004986794              -0.000082267              -0.000565678               0.001850807               0.001285129               0.000000000               0.000000000               0.000000000               0.000000000              -0.003231483               0.000185007              -0.000065213              -0.001234931               0.000473310              -0.000761621               0.000000000               0.000000000               0.000000000               0.000000000              -0.001892127               0.001143953              -0.000918654              -0.000852541               0.000665493              -0.000187048               0.000000000               0.000000000               0.000000000               0.000000000              -0.001081287               0.002169402              -0.001647848              -0.000676657               0.000948678               0.000272021               0.000000000               0.000000000               0.000000000               0.000000000              -0.000693587               0.003003530              -0.001776410              -0.000635536               0.001213011               0.000577475               0.000000000               0.000000000               0.000000000               0.000000000              -0.000477825               0.003627947              -0.001700062              -0.000632677               0.001420195               0.000787518               0.000000000               0.000000000               0.000000000               0.000000000              -0.000335281               0.004089630              -0.001561501              -0.000636934               0.001575507               0.000938573               0.000000000               0.000000000               0.000000000               0.000000000              -0.000215509               0.004428644              -0.001410268              -0.000634396               0.001687665               0.001053269               0.000000000               0.000000000               0.000000000               0.000000000              -0.000104810               0.004666832              -0.001261470              -0.000622657               0.001763147               0.001140490               0.000000000               0.000000000               0.000000000               0.000000000              -0.000001102               0.004825435              -0.001122605              -0.000603592               0.001809659               0.001206068               0.000000000               0.000000000               0.000000000               0.000000000               0.000098167               0.004927809              -0.000998871              -0.000579162               0.001835640               0.001256478               0.000000000               0.000000000               0.000000000               0.000000000               0.000193084               0.004989756              -0.000885934              -0.000551312               0.001847006               0.001295694               0.000000000               0.000000000               0.000000000               0.000000000               0.000280673               0.005020660              -0.000779045              -0.000522329               0.001847646               0.001325317               0.000000000               0.000000000               0.000000000               0.000000000               0.000365375               0.005031407              -0.000668906              -0.000491909               0.001841088               0.001349179               0.000000000               0.000000000               0.000000000               0.000000000               0.000447977               0.005026126              -0.000543558              -0.000460273               0.001828783               0.001368510               0.000000000               0.000000000               0.000000000               0.000000000               0.000517564               0.005012972              -0.000395591              -0.000432534               0.001815152               0.001382618               0.000000000               0.000000000               0.000000000               0.000000000               0.000559198               0.004995268              -0.000213444              -0.000414708               0.001803309               0.001388601               0.000000000               0.000000000               0.000000000               0.000000000               0.000565887               0.004979764              -0.000110611              -0.000410262               0.001796659               0.001386397               0.000000000               0.000000000               0.000000000               0.000000000              -0.004102102              -0.000165206               0.000100725              -0.001517636               0.000450807              -0.001066829               0.000000000               0.000000000               0.000000000               0.000000000              -0.002310470               0.000554513              -0.000580493              -0.000935739               0.000496747              -0.000438992               0.000000000               0.000000000               0.000000000               0.000000000              -0.001070683               0.001322534              -0.001188810              -0.000566822               0.000629780               0.000062958               0.000000000               0.000000000               0.000000000               0.000000000              -0.000495592               0.002112312              -0.001337271              -0.000449886               0.000854058               0.000404172               0.000000000               0.000000000               0.000000000               0.000000000              -0.000205774               0.002783106              -0.001313676              -0.000425053               0.001069377               0.000644323               0.000000000               0.000000000               0.000000000               0.000000000              -0.000042849               0.003326873              -0.001232010              -0.000431927               0.001252922               0.000820995               0.000000000               0.000000000               0.000000000               0.000000000               0.000062453               0.003758501              -0.001130076              -0.000446392               0.001401618               0.000955226               0.000000000               0.000000000               0.000000000               0.000000000               0.000146454               0.004088692              -0.001023860              -0.000456166               0.001514939               0.001058773               0.000000000               0.000000000               0.000000000               0.000000000               0.000228561               0.004334813              -0.000923224              -0.000456140               0.001596970               0.001140829               0.000000000               0.000000000               0.000000000               0.000000000               0.000312985               0.004518393              -0.000832075              -0.000447429               0.001655259               0.001207830               0.000000000               0.000000000               0.000000000               0.000000000               0.000400508               0.004658489              -0.000748672              -0.000432120               0.001696854               0.001264734               0.000000000               0.000000000               0.000000000               0.000000000               0.000499335               0.004768035              -0.000670357              -0.000408753               0.001725580               0.001316827               0.000000000               0.000000000               0.000000000               0.000000000               0.000608607               0.004850938              -0.000591254              -0.000378139               0.001743009               0.001364870               0.000000000               0.000000000               0.000000000               0.000000000               0.000733996               0.004910987              -0.000498163              -0.000338624               0.001749854               0.001411230               0.000000000               0.000000000               0.000000000               0.000000000               0.000872465               0.004951294              -0.000375953              -0.000291737               0.001747660               0.001455924               0.000000000               0.000000000               0.000000000               0.000000000               0.001017402               0.004970135              -0.000209914              -0.000239741               0.001736609               0.001496868               0.000000000               0.000000000               0.000000000               0.000000000               0.001117196               0.004981131              -0.000116407              -0.000203692               0.001728258               0.001524565               0.000000000               0.000000000               0.000000000               0.000000000              -0.004688230              -0.000342360               0.000099422              -0.001715290               0.000457641              -0.001257650               0.000000000               0.000000000               0.000000000               0.000000000              -0.002601036               0.000198784              -0.000276409              -0.001000235               0.000399670              -0.000600565               0.000000000               0.000000000               0.000000000               0.000000000              -0.001068304               0.000775536              -0.000621324              -0.000497555               0.000424360              -0.000073195               0.000000000               0.000000000               0.000000000               0.000000000              -0.000358212               0.001512516              -0.000718677              -0.000323394               0.000611965               0.000288571               0.000000000               0.000000000               0.000000000               0.000000000              -0.000005994               0.002197656              -0.000717438              -0.000276954               0.000824863               0.000547908               0.000000000               0.000000000               0.000000000               0.000000000               0.000177343               0.002784022              -0.000680542              -0.000281499               0.001021831               0.000740332               0.000000000               0.000000000               0.000000000               0.000000000               0.000278236               0.003268634              -0.000629998              -0.000304240               0.001190947               0.000886707               0.000000000               0.000000000               0.000000000               0.000000000               0.000346653               0.003660105              -0.000576041              -0.000327518               0.001329195               0.001001677               0.000000000               0.000000000               0.000000000               0.000000000               0.000407838               0.003969539              -0.000523410              -0.000343253               0.001437584               0.001094331               0.000000000               0.000000000               0.000000000               0.000000000               0.000476772               0.004212955              -0.000473624              -0.000347829               0.001520247               0.001172418               0.000000000               0.000000000               0.000000000               0.000000000               0.000561103               0.004409749              -0.000430088              -0.000340804               0.001583503               0.001242699               0.000000000               0.000000000               0.000000000               0.000000000               0.000667612               0.004575456              -0.000390539              -0.000321577               0.001632329               0.001310752               0.000000000               0.000000000               0.000000000               0.000000000               0.000799679               0.004717121              -0.000351206              -0.000289760               0.001668945               0.001379185               0.000000000               0.000000000               0.000000000               0.000000000               0.000961824               0.004830436              -0.000303346              -0.000243120               0.001691169               0.001448049               0.000000000               0.000000000               0.000000000               0.000000000               0.001163512               0.004910304              -0.000233158              -0.000177471               0.001695908               0.001518438               0.000000000               0.000000000               0.000000000               0.000000000               0.001418315               0.004952800              -0.000131749              -0.000087232               0.001679994               0.001592762               0.000000000               0.000000000               0.000000000               0.000000000               0.001627050               0.004986315              -0.000075448              -0.000013146               0.001666470               0.001653325               0.000000000               0.000000000               0.000000000               0.000000000              -0.004894742              -0.000396345              -0.000000000              -0.001785984               0.000463210              -0.001322774               0.000000000               0.000000000               0.000000000               0.000000000              -0.002704102               0.000080446               0.000000000              -0.001024093               0.000368177              -0.000655916               0.000000000               0.000000000               0.000000000               0.000000000              -0.001067430               0.000589101               0.000000000              -0.000473923               0.000354339              -0.000119584               0.000000000               0.000000000               0.000000000               0.000000000              -0.000310230               0.001301818              -0.000000000              -0.000279063               0.000526956               0.000247893               0.000000000               0.000000000               0.000000000               0.000000000               0.000064957               0.001985608              -0.000000000              -0.000223842               0.000736477               0.000512635               0.000000000               0.000000000               0.000000000               0.000000000               0.000257226               0.002585631              -0.000000000              -0.000226744               0.000937449               0.000710706               0.000000000               0.000000000               0.000000000               0.000000000               0.000360642               0.003089651              -0.000000000              -0.000250965               0.001113528               0.000862563               0.000000000               0.000000000               0.000000000               0.000000000               0.000422822               0.003499918              -0.000000000              -0.000278931               0.001259605               0.000980674               0.000000000               0.000000000               0.000000000               0.000000000               0.000474505               0.003831225               0.000000000              -0.000300963               0.001377383               0.001076420               0.000000000               0.000000000               0.000000000               0.000000000               0.000536526               0.004098872               0.000000000              -0.000311161               0.001469997               0.001158836               0.000000000               0.000000000               0.000000000               0.000000000               0.000622599               0.004320560              -0.000000000              -0.000306595               0.001542370               0.001235776               0.000000000               0.000000000               0.000000000               0.000000000               0.000732206               0.004506884              -0.000000000              -0.000288783               0.001598541               0.001309758               0.000000000               0.000000000               0.000000000               0.000000000               0.000873353               0.004668357              -0.000000000              -0.000256037               0.001641449               0.001385412               0.000000000               0.000000000               0.000000000               0.000000000               0.001048695               0.004801048              -0.000000000              -0.000206870               0.001669290               0.001462420               0.000000000               0.000000000               0.000000000               0.000000000               0.001276642               0.004894434              -0.000000000              -0.000133063               0.001675816               0.001542753               0.000000000               0.000000000               0.000000000               0.000000000               0.001581169               0.004945574              -0.000000000              -0.000025258               0.001656927               0.001631669               0.000000000               0.000000000               0.000000000               0.000000000               0.001841017               0.004989898               0.000000000               0.000066643               0.001641068               0.001707712               0.000000000               0.000000000               0.000000000               0.000000000               0.000000000               0.000000000               0.000000000               0.000000000               0.000000000               0.000000000               0.000000000               0.000000000               0.000000000               0.000000000               0.000000000               0.000000000               0.000000000               0.000000000               0.000000000               0.000000000               0.000000000               0.000000000               0.000000000               0.000000000               0.000000000               0.000000000               0.000000000               0.000000000               0.000000000               0.000000000               0.000000000               0.000000000               0.000000000               0.000000000               0.000000000               0.000000000               0.000000000               0.000000000               0.000000000               0.000000000               0.000000000               0.000000000               0.000000000               0.000000000               0.000000000               0.000000000               0.000000000               0.000000000               0.000000000               0.000000000               0.000000000               0.000000000               0.000000000               0.000000000               0.000000000               0.000000000               0.000000000               0.000000000               0.000000000               0.000000000               0.000000000               0.000000000               0.000000000               0.000000000               0.000000000               0.000000000               0.000000000               0.000000000               0.000000000               0.000000000               0.000000000               0.000000000               0.000000000               0.000000000               0.000000000               0.000000000               0.000000000               0.000000000               0.000000000               0.000000000               0.000000000               0.000000000               0.000000000               0.000000000               0.000000000               0.000000000               0.000000000               0.000000000               0.000000000               0.000000000               0.000000000               0.000000000               0.000000000               0.000000000               0.000000000               0.000000000               0.000000000               0.000000000               0.000000000               0.000000000               0.000000000               0.000000000               0.000000000               0.000000000               0.000000000               0.000000000               0.000000000               0.000000000               0.000000000               0.000000000               0.000000000               0.000000000               0.000000000               0.000000000               0.000000000               0.000000000               0.000000000               0.000000000               0.000000000               0.000000000               0.000000000               0.000000000               0.000000000               0.000000000               0.000000000               0.000000000               0.000000000               0.000000000               0.000000000               0.000000000               0.000000000               0.000000000               0.000000000               0.000000000               0.000000000               0.000000000               0.000000000               0.000000000               0.000000000               0.000000000               0.000000000               0.000000000               0.000000000               0.000000000               0.000000000               0.000000000               0.000000000               0.000000000               0.000000000               0.000000000               0.000000000               0.000000000               0.000000000               0.000000000               0.000000000               0.000000000               0.000000000               0.000000000               0.000000000               0.000000000               0.000000000               0.000000000               0.000000000               0.000000000               0.000000000               0.000000000               0.000000000               0.000000000               0.000000000               0.000000000               0.000000000               0.000000000               0.000000000               0.000000000               0.001642048               0.017096111               0.001239196              -0.001521242               0.006205727               0.004684485               0.000000000               0.000000000               0.000000000               0.000000000               0.001610474               0.013717152               0.000689701              -0.001110714               0.004942576               0.003831863               0.000000000               0.000000000               0.000000000               0.000000000               0.002077798               0.011013471               0.000135445              -0.000597508               0.003870290               0.003272782               0.000000000               0.000000000               0.000000000               0.000000000               0.002020480               0.009505190              -0.000107084              -0.000430468               0.003311854               0.002881387               0.000000000               0.000000000               0.000000000               0.000000000               0.001795471               0.008582056              -0.000214158              -0.000399454               0.002993808               0.002594354               0.000000000               0.000000000               0.000000000               0.000000000               0.001523790               0.007975252              -0.000259695              -0.000425484               0.002800219               0.002374735               0.000000000               0.000000000               0.000000000               0.000000000               0.001253053               0.007552121              -0.000274257              -0.000474119               0.002675388               0.002201269               0.000000000               0.000000000               0.000000000               0.000000000               0.001010514               0.007234976              -0.000270636              -0.000525428               0.002586777               0.002061349               0.000000000               0.000000000               0.000000000               0.000000000               0.000803534               0.006975742              -0.000258555              -0.000570641               0.002515438               0.001944797               0.000000000               0.000000000               0.000000000               0.000000000               0.000627063               0.006749357              -0.000245183              -0.000608519               0.002452603               0.001844084               0.000000000               0.000000000               0.000000000               0.000000000               0.000474309               0.006543072              -0.000231031              -0.000640017               0.002394341               0.001754324               0.000000000               0.000000000               0.000000000               0.000000000               0.000344555               0.006348662              -0.000215928              -0.000664373               0.002337657               0.001673284               0.000000000               0.000000000               0.000000000               0.000000000               0.000236148               0.006157330              -0.000198936              -0.000681109               0.002279459               0.001598350               0.000000000               0.000000000               0.000000000               0.000000000               0.000144274               0.005959903              -0.000174488              -0.000690883               0.002216909               0.001526025               0.000000000               0.000000000               0.000000000               0.000000000               0.000074145               0.005746393              -0.000135737              -0.000690493               0.002145609               0.001455116               0.000000000               0.000000000               0.000000000               0.000000000               0.000028955               0.005506127              -0.000077898              -0.000677406               0.002061159               0.001383753               0.000000000               0.000000000               0.000000000               0.000000000              -0.000006584               0.005324341              -0.000047658              -0.000668010               0.001997433               0.001329423               0.000000000               0.000000000               0.000000000               0.000000000               0.001830703               0.016145561               0.002321384              -0.001331679               0.005825693               0.004494014               0.000000000               0.000000000               0.000000000               0.000000000               0.001578577               0.013081309               0.001295274              -0.001043195               0.004708124               0.003664929               0.000000000               0.000000000               0.000000000               0.000000000               0.001808523               0.010712352               0.000267570              -0.000660846               0.003791030               0.003130184               0.000000000               0.000000000               0.000000000               0.000000000               0.001659451               0.009381897              -0.000170305              -0.000550442               0.003310748               0.002760307               0.000000000               0.000000000               0.000000000               0.000000000               0.001411488               0.008551516              -0.000358537              -0.000539630               0.003030354               0.002490723               0.000000000               0.000000000               0.000000000               0.000000000               0.001154047               0.007990873              -0.000438060              -0.000566090               0.002852294               0.002286204               0.000000000               0.000000000               0.000000000               0.000000000               0.000918333               0.007585800              -0.000463736              -0.000603849               0.002729858               0.002126009               0.000000000               0.000000000               0.000000000               0.000000000               0.000714780               0.007271276              -0.000455469              -0.000640866               0.002637356               0.001996491               0.000000000               0.000000000               0.000000000               0.000000000               0.000547204               0.007010148              -0.000431009              -0.000671065               0.002560381               0.001889316               0.000000000               0.000000000               0.000000000               0.000000000               0.000408124               0.006781908              -0.000405286              -0.000694690               0.002492177               0.001797487               0.000000000               0.000000000               0.000000000               0.000000000               0.000287100               0.006577974              -0.000380241              -0.000714583               0.002430830               0.001716248               0.000000000               0.000000000               0.000000000               0.000000000               0.000187647               0.006390026              -0.000351278              -0.000728384               0.002372782               0.001644398               0.000000000               0.000000000               0.000000000               0.000000000               0.000112469               0.006207271              -0.000316920              -0.000733731               0.002313647               0.001579915               0.000000000               0.000000000               0.000000000               0.000000000               0.000058579               0.006023891              -0.000271682              -0.000731017               0.002251616               0.001520599               0.000000000               0.000000000               0.000000000               0.000000000               0.000024241               0.005840786              -0.000206194              -0.000721006               0.002187244               0.001466238               0.000000000               0.000000000               0.000000000               0.000000000               0.000005025               0.005659688              -0.000115082              -0.000705575               0.002121735               0.001416161               0.000000000               0.000000000               0.000000000               0.000000000              -0.000013225               0.005537765              -0.000067710              -0.000697178               0.002078296               0.001381118               0.000000000               0.000000000               0.000000000               0.000000000               0.002053485               0.014693660               0.003127507              -0.001066650               0.005253387               0.004186737               0.000000000               0.000000000               0.000000000               0.000000000               0.001491821               0.012128574               0.001755521              -0.000956637               0.004361696               0.003405059               0.000000000               0.000000000               0.000000000               0.000000000               0.001391867               0.010268810               0.000396773              -0.000761649               0.003676785               0.002915136               0.000000000               0.000000000               0.000000000               0.000000000               0.001132031               0.009186460              -0.000158020              -0.000723794               0.003303388               0.002579593               0.000000000               0.000000000               0.000000000               0.000000000               0.000872793               0.008482341              -0.000388112              -0.000732994               0.003071750               0.002338756               0.000000000               0.000000000               0.000000000               0.000000000               0.000650821               0.007984015              -0.000481611              -0.000753942               0.002912626               0.002158684               0.000000000               0.000000000               0.000000000               0.000000000               0.000469339               0.007601386              -0.000509907              -0.000774169               0.002791826               0.002017657               0.000000000               0.000000000               0.000000000               0.000000000               0.000325413               0.007290249              -0.000500265              -0.000789249               0.002693142               0.001903892               0.000000000               0.000000000               0.000000000               0.000000000               0.000213760               0.007027129              -0.000470987              -0.000798229               0.002608429               0.001810200               0.000000000               0.000000000               0.000000000               0.000000000               0.000125255               0.006798830              -0.000441230              -0.000802881               0.002533881               0.001731000               0.000000000               0.000000000               0.000000000               0.000000000               0.000052705               0.006598415              -0.000412761              -0.000805036               0.002467795               0.001662759               0.000000000               0.000000000               0.000000000               0.000000000              -0.000000971               0.006415560              -0.000375865              -0.000802307               0.002405934               0.001603627               0.000000000               0.000000000               0.000000000               0.000000000              -0.000032129               0.006240331              -0.000329568              -0.000792088               0.002344119               0.001552031               0.000000000               0.000000000               0.000000000               0.000000000              -0.000045743               0.006072433              -0.000274742              -0.000776206               0.002282859               0.001506654               0.000000000               0.000000000               0.000000000               0.000000000              -0.000043151               0.005923222              -0.000203666              -0.000756583               0.002226582               0.001469999               0.000000000               0.000000000               0.000000000               0.000000000              -0.000027772               0.005799672              -0.000110735              -0.000735372               0.002178328               0.001442957               0.000000000               0.000000000               0.000000000               0.000000000              -0.000024062               0.005730443              -0.000062925              -0.000725327               0.002151904               0.001426577               0.000000000               0.000000000               0.000000000               0.000000000               0.002217781               0.012905113               0.003593931              -0.000781472               0.004562151               0.003780679               0.000000000               0.000000000               0.000000000               0.000000000               0.001324563               0.010980728               0.002049874              -0.000875879               0.003952165               0.003076286               0.000000000               0.000000000               0.000000000               0.000000000               0.000871535               0.009736158               0.000540311              -0.000890192               0.003542084               0.002651892               0.000000000               0.000000000               0.000000000               0.000000000               0.000529478               0.008928346              -0.000048066              -0.000917487               0.003281914               0.002364428               0.000000000               0.000000000               0.000000000               0.000000000               0.000291060               0.008355621              -0.000285185              -0.000935303               0.003096947               0.002161644               0.000000000               0.000000000               0.000000000               0.000000000               0.000127309               0.007915937              -0.000379495              -0.000941749               0.002952536               0.002010787               0.000000000               0.000000000               0.000000000               0.000000000               0.000021504               0.007556314              -0.000410745              -0.000936473               0.002830904               0.001894431               0.000000000               0.000000000               0.000000000               0.000000000              -0.000048220               0.007248112              -0.000407543              -0.000924094               0.002724045               0.001799950               0.000000000               0.000000000               0.000000000               0.000000000              -0.000094569               0.006983274              -0.000385686              -0.000908370               0.002630525               0.001722154               0.000000000               0.000000000               0.000000000               0.000000000              -0.000125403               0.006757400              -0.000364011              -0.000891699               0.002549677               0.001657978               0.000000000               0.000000000               0.000000000               0.000000000              -0.000144791               0.006557103              -0.000343588              -0.000873933               0.002476990               0.001603058               0.000000000               0.000000000               0.000000000               0.000000000              -0.000147262               0.006374068              -0.000310302              -0.000851980               0.002408661               0.001556682               0.000000000               0.000000000               0.000000000               0.000000000              -0.000134364               0.006205685              -0.000264804              -0.000826095               0.002343906               0.001517811               0.000000000               0.000000000               0.000000000               0.000000000              -0.000113213               0.006058272              -0.000216161              -0.000799737               0.002285983               0.001486246               0.000000000               0.000000000               0.000000000               0.000000000              -0.000084031               0.005940373              -0.000157054              -0.000774056               0.002238123               0.001464067               0.000000000               0.000000000               0.000000000               0.000000000              -0.000045705               0.005859284              -0.000082876              -0.000749548               0.002202925               0.001453377               0.000000000               0.000000000               0.000000000               0.000000000              -0.000027695               0.005823321              -0.000045331              -0.000738299               0.002187187               0.001448888               0.000000000               0.000000000               0.000000000               0.000000000               0.002237285               0.010960079               0.003718882              -0.000531030               0.003830332               0.003299302               0.000000000               0.000000000               0.000000000               0.000000000               0.001069724               0.009752844               0.002194207              -0.000817959               0.003523568               0.002705609               0.000000000               0.000000000               0.000000000               0.000000000               0.000311765               0.009152123               0.000713375              -0.001027101               0.003393044               0.002365943               0.000000000               0.000000000               0.000000000               0.000000000              -0.000058869               0.008612438               0.000156035              -0.001098628               0.003236993               0.002138365               0.000000000               0.000000000               0.000000000               0.000000000              -0.000238296               0.008157856              -0.000069872              -0.001109090               0.003088955               0.001979865               0.000000000               0.000000000               0.000000000               0.000000000              -0.000318943               0.007770122              -0.000167153              -0.001090866               0.002953637               0.001862771               0.000000000               0.000000000               0.000000000               0.000000000              -0.000340602               0.007428731              -0.000209197              -0.001056314               0.002828324               0.001772009               0.000000000               0.000000000               0.000000000               0.000000000              -0.000337010               0.007123557              -0.000222989              -0.001016821               0.002713435               0.001696614               0.000000000               0.000000000               0.000000000               0.000000000              -0.000318987               0.006861832              -0.000223555              -0.000977347               0.002613037               0.001635690               0.000000000               0.000000000               0.000000000               0.000000000              -0.000289194               0.006637857              -0.000220840              -0.000938178               0.002525323               0.001587145               0.000000000               0.000000000               0.000000000               0.000000000              -0.000256229               0.006433285              -0.000215155              -0.000900244               0.002444488               0.001544244               0.000000000               0.000000000               0.000000000               0.000000000              -0.000215163               0.006247733              -0.000194604              -0.000861651               0.002369774               0.001508123               0.000000000               0.000000000               0.000000000               0.000000000              -0.000168103               0.006086603              -0.000161990              -0.000823862               0.002303468               0.001479606               0.000000000               0.000000000               0.000000000               0.000000000              -0.000122426               0.005953214              -0.000128135              -0.000790060               0.002247738               0.001457678               0.000000000               0.000000000               0.000000000               0.000000000              -0.000078047               0.005849105              -0.000087869              -0.000760404               0.002203150               0.001442746               0.000000000               0.000000000               0.000000000               0.000000000              -0.000036567               0.005775458              -0.000040964              -0.000735643               0.002170348               0.001434705               0.000000000               0.000000000               0.000000000               0.000000000              -0.000021144               0.005740993              -0.000019698              -0.000725551               0.002155495               0.001429944               0.000000000               0.000000000               0.000000000               0.000000000               0.002053085               0.009016631               0.003555255              -0.000357175               0.003124571               0.002767396               0.000000000               0.000000000               0.000000000               0.000000000               0.000736312               0.008537468               0.002224919              -0.000791066               0.003109482               0.002318416               0.000000000               0.000000000               0.000000000               0.000000000              -0.000217996               0.008544794               0.000921413              -0.001149845               0.003231518               0.002081673               0.000000000               0.000000000               0.000000000               0.000000000              -0.000551022               0.008238540               0.000430009              -0.001236448               0.003158302               0.001921854               0.000000000               0.000000000               0.000000000               0.000000000              -0.000641414               0.007884816               0.000212535              -0.001226129               0.003036955               0.001810826               0.000000000               0.000000000               0.000000000               0.000000000              -0.000630793               0.007541552               0.000100542              -0.001179238               0.002906905               0.001727667               0.000000000               0.000000000               0.000000000               0.000000000              -0.000577975               0.007219668               0.000035061              -0.001119196               0.002779597               0.001660401               0.000000000               0.000000000               0.000000000               0.000000000              -0.000508468               0.006930709              -0.000008872              -0.001057012               0.002662551               0.001605539               0.000000000               0.000000000               0.000000000               0.000000000              -0.000438682               0.006677659              -0.000041015              -0.000999211               0.002558934               0.001559724               0.000000000               0.000000000               0.000000000               0.000000000              -0.000365738               0.006453441              -0.000061522              -0.000943829               0.002465735               0.001521906               0.000000000               0.000000000               0.000000000               0.000000000              -0.000292340               0.006247327              -0.000072621              -0.000890541               0.002379269               0.001488727               0.000000000               0.000000000               0.000000000               0.000000000              -0.000221054               0.006059979              -0.000069536              -0.000840391               0.002300103               0.001459712               0.000000000               0.000000000               0.000000000               0.000000000              -0.000156131               0.005896427              -0.000054803              -0.000795601               0.002230656               0.001435055               0.000000000               0.000000000               0.000000000               0.000000000              -0.000102268               0.005758296              -0.000039917              -0.000758135               0.002172125               0.001413989               0.000000000               0.000000000               0.000000000               0.000000000              -0.000059798               0.005644198              -0.000021219              -0.000727947               0.002124029               0.001396082               0.000000000               0.000000000               0.000000000               0.000000000              -0.000025847               0.005554549              -0.000003082              -0.000704010               0.002086168               0.001382158               0.000000000               0.000000000               0.000000000               0.000000000              -0.000018257               0.005503540              -0.000001925              -0.000694787               0.002066091               0.001371304               0.000000000               0.000000000               0.000000000               0.000000000               0.001684351               0.007190762               0.003172987              -0.000267217               0.002485968               0.002218751               0.000000000               0.000000000               0.000000000               0.000000000               0.000350565               0.007405841               0.002177065              -0.000794268               0.002733344               0.001939076               0.000000000               0.000000000               0.000000000               0.000000000              -0.000661483               0.007927740               0.001161904              -0.001239021               0.003055560               0.001816540               0.000000000               0.000000000               0.000000000               0.000000000              -0.000898383               0.007808204               0.000735939              -0.001312916               0.003040347               0.001727431               0.000000000               0.000000000               0.000000000               0.000000000              -0.000886547               0.007541319               0.000510900              -0.001275117               0.002938787               0.001663670               0.000000000               0.000000000               0.000000000               0.000000000              -0.000791986               0.007243042               0.000368004              -0.001202372               0.002815114               0.001612742               0.000000000               0.000000000               0.000000000               0.000000000              -0.000677331               0.006951720               0.000265279              -0.001122962               0.002691537               0.001568576               0.000000000               0.000000000               0.000000000               0.000000000              -0.000564677               0.006686555               0.000187448              -0.001047571               0.002578020               0.001530449               0.000000000               0.000000000               0.000000000               0.000000000              -0.000461371               0.006444630               0.000126079              -0.000978590               0.002474385               0.001495795               0.000000000               0.000000000               0.000000000               0.000000000              -0.000364464               0.006221975               0.000082393              -0.000914418               0.002378777               0.001464359               0.000000000               0.000000000               0.000000000               0.000000000              -0.000271453               0.006016739               0.000055036              -0.000853885               0.002290188               0.001436303               0.000000000               0.000000000               0.000000000               0.000000000              -0.000192123               0.005824336               0.000040182              -0.000800086               0.002208121               0.001408035               0.000000000               0.000000000               0.000000000               0.000000000              -0.000130782               0.005652314               0.000033241              -0.000755580               0.002135946               0.001380365               0.000000000               0.000000000               0.000000000               0.000000000              -0.000079312               0.005507458               0.000024619              -0.000718173               0.002075192               0.001357019               0.000000000               0.000000000               0.000000000               0.000000000              -0.000038921               0.005386664               0.000016369              -0.000687927               0.002024846               0.001336919               0.000000000               0.000000000               0.000000000               0.000000000              -0.000015109               0.005288982               0.000009678              -0.000666787               0.001985239               0.001318452               0.000000000               0.000000000               0.000000000               0.000000000              -0.000014688               0.005230471              -0.000000083              -0.000659315               0.001963245               0.001303929               0.000000000               0.000000000               0.000000000               0.000000000               0.001217729               0.005617721               0.002655892              -0.000245569               0.001954410               0.001708841               0.000000000               0.000000000               0.000000000               0.000000000              -0.000007437               0.006389310               0.002097189              -0.000801452               0.002396899               0.001595446               0.000000000               0.000000000               0.000000000               0.000000000              -0.000970601               0.007328428               0.001441964              -0.001280026               0.002869460               0.001589434               0.000000000               0.000000000               0.000000000               0.000000000              -0.001103943               0.007396119               0.001059549              -0.001338491               0.002911512               0.001573021               0.000000000               0.000000000               0.000000000               0.000000000              -0.001010365               0.007230405               0.000810158              -0.001282685               0.002837672               0.001554988               0.000000000               0.000000000               0.000000000               0.000000000              -0.000854043               0.006992866               0.000627425              -0.001194371               0.002729056               0.001534684               0.000000000               0.000000000               0.000000000               0.000000000              -0.000695822               0.006741753               0.000487406              -0.001103650               0.002615112               0.001511462               0.000000000               0.000000000               0.000000000               0.000000000              -0.000553255               0.006501748               0.000378002              -0.001020187               0.002507290               0.001487103               0.000000000               0.000000000               0.000000000               0.000000000              -0.000430431               0.006273644               0.000290891              -0.000945615               0.002406398               0.001460784               0.000000000               0.000000000               0.000000000               0.000000000              -0.000325277               0.006055369               0.000223925              -0.000878898               0.002311402               0.001432504               0.000000000               0.000000000               0.000000000               0.000000000              -0.000228002               0.005846531               0.000175547              -0.000816315               0.002220929               0.001404614               0.000000000               0.000000000               0.000000000               0.000000000              -0.000151805               0.005646895               0.000138113              -0.000762787               0.002136542               0.001373755               0.000000000               0.000000000               0.000000000               0.000000000              -0.000098893               0.005471526               0.000104708              -0.000721024               0.002064165               0.001343141               0.000000000               0.000000000               0.000000000               0.000000000              -0.000058806               0.005326926               0.000069684              -0.000687916               0.002004930               0.001317014               0.000000000               0.000000000               0.000000000               0.000000000              -0.000036842               0.005206338               0.000037490              -0.000664606               0.001956964               0.001292358               0.000000000               0.000000000               0.000000000               0.000000000              -0.000036226               0.005108170               0.000015098              -0.000652104               0.001920074               0.001267970               0.000000000               0.000000000               0.000000000               0.000000000              -0.000042750               0.005056569               0.000003893              -0.000648101               0.001901540               0.001253439               0.000000000               0.000000000               0.000000000               0.000000000               0.000630804               0.004134391               0.002084209              -0.000280249               0.001471532               0.001191283               0.000000000               0.000000000               0.000000000               0.000000000              -0.000276808               0.005217608               0.001999804              -0.000756004               0.001991186               0.001235182               0.000000000               0.000000000               0.000000000               0.000000000              -0.001093898               0.006452865               0.001747966              -0.001216817               0.002556539               0.001339721               0.000000000               0.000000000               0.000000000               0.000000000              -0.001178256               0.006778156               0.001418063              -0.001289113               0.002689067               0.001399954               0.000000000               0.000000000               0.000000000               0.000000000              -0.001067863               0.006783770               0.001145128              -0.001248417               0.002677373               0.001428956               0.000000000               0.000000000               0.000000000               0.000000000              -0.000897220               0.006665830               0.000926397              -0.001169684               0.002611816               0.001442132               0.000000000               0.000000000               0.000000000               0.000000000              -0.000721823               0.006500775               0.000751797              -0.001083278               0.002527996               0.001444718               0.000000000               0.000000000               0.000000000               0.000000000              -0.000566560               0.006322973               0.000610532              -0.001002829               0.002441913               0.001439084               0.000000000               0.000000000               0.000000000               0.000000000              -0.000434815               0.006144281               0.000492490              -0.000931089               0.002358436               0.001427347               0.000000000               0.000000000               0.000000000               0.000000000              -0.000328392               0.005961948               0.000397961              -0.000868388               0.002276759               0.001408370               0.000000000               0.000000000               0.000000000               0.000000000              -0.000239544               0.005773280               0.000320835              -0.000811487               0.002194903               0.001383416               0.000000000               0.000000000               0.000000000               0.000000000              -0.000168626               0.005585989               0.000249643              -0.000761482               0.002115805               0.001354323               0.000000000               0.000000000               0.000000000               0.000000000              -0.000122955               0.005414082               0.000185061              -0.000722867               0.002045631               0.001322765               0.000000000               0.000000000               0.000000000               0.000000000              -0.000096071               0.005265983               0.000123836              -0.000694273               0.001986734               0.001292462               0.000000000               0.000000000               0.000000000               0.000000000              -0.000081701               0.005147849               0.000067594              -0.000674117               0.001940638               0.001266521               0.000000000               0.000000000               0.000000000               0.000000000              -0.000086503               0.005052619               0.000025755              -0.000664014               0.001905527               0.001241513               0.000000000               0.000000000               0.000000000               0.000000000              -0.000097080               0.005005260               0.000008129              -0.000662061               0.001889090               0.001227030               0.000000000               0.000000000               0.000000000               0.000000000              -0.000178738               0.002776768               0.001488493              -0.000414123               0.001063621               0.000649497               0.000000000               0.000000000               0.000000000               0.000000000              -0.000582864               0.004045999               0.001839018              -0.000724323               0.001590093               0.000865770               0.000000000               0.000000000               0.000000000               0.000000000              -0.001133056               0.005454552               0.001984844              -0.001106713               0.002187069               0.001080356               0.000000000               0.000000000               0.000000000               0.000000000              -0.001175075               0.006024916               0.001757235              -0.001193765               0.002406206               0.001212441               0.000000000               0.000000000               0.000000000               0.000000000              -0.001066410               0.006227750               0.001489485              -0.001178370               0.002468686               0.001290315               0.000000000               0.000000000               0.000000000               0.000000000              -0.000903377               0.006258561               0.001252692              -0.001121084               0.002459861               0.001338776               0.000000000               0.000000000               0.000000000               0.000000000              -0.000726809               0.006206727               0.001051992              -0.001048392               0.002418352               0.001369960               0.000000000               0.000000000               0.000000000               0.000000000              -0.000565386               0.006116144               0.000882298              -0.000976536               0.002364206               0.001387670               0.000000000               0.000000000               0.000000000               0.000000000              -0.000426191               0.006003262               0.000738140              -0.000910227               0.002304476               0.001394249               0.000000000               0.000000000               0.000000000               0.000000000              -0.000315440               0.005868918               0.000617409              -0.000851903               0.002240254               0.001388351               0.000000000               0.000000000               0.000000000               0.000000000              -0.000232478               0.005718091               0.000511769              -0.000801939               0.002173324               0.001371385               0.000000000               0.000000000               0.000000000               0.000000000              -0.000164763               0.005562736               0.000409924              -0.000757126               0.002106602               0.001349476               0.000000000               0.000000000               0.000000000               0.000000000              -0.000117109               0.005405250               0.000313476              -0.000719570               0.002041589               0.001322018               0.000000000               0.000000000               0.000000000               0.000000000              -0.000093611               0.005260199               0.000224560              -0.000692627               0.001984258               0.001291631               0.000000000               0.000000000               0.000000000               0.000000000              -0.000085389               0.005145171               0.000140425              -0.000675165               0.001940095               0.001264930               0.000000000               0.000000000               0.000000000               0.000000000              -0.000099002               0.005051078               0.000063389              -0.000668509               0.001906512               0.001238003               0.000000000               0.000000000               0.000000000               0.000000000              -0.000121873               0.005001049               0.000024529              -0.000670832               0.001890610               0.001219778               0.000000000               0.000000000               0.000000000               0.000000000              -0.001150616               0.001635479               0.000908372              -0.000635915               0.000757125               0.000121210               0.000000000               0.000000000               0.000000000               0.000000000              -0.000974483               0.002936917               0.001586246              -0.000732545               0.001223143               0.000490599               0.000000000               0.000000000               0.000000000               0.000000000              -0.001130221               0.004346452               0.002058489              -0.000967138               0.001771181               0.000804043               0.000000000               0.000000000               0.000000000               0.000000000              -0.001079193               0.005088804               0.001967073              -0.001040796               0.002043182               0.001002386               0.000000000               0.000000000               0.000000000               0.000000000              -0.000960177               0.005476093               0.001746513              -0.001044576               0.002173538               0.001128961               0.000000000               0.000000000               0.000000000               0.000000000              -0.000811251               0.005669420               0.001518134              -0.001012895               0.002227419               0.001214524               0.000000000               0.000000000               0.000000000               0.000000000              -0.000650811               0.005748135               0.001309808              -0.000962569               0.002236882               0.001274313               0.000000000               0.000000000               0.000000000               0.000000000              -0.000495258               0.005760202               0.001127768              -0.000905745               0.002221963               0.001316218               0.000000000               0.000000000               0.000000000               0.000000000              -0.000354680               0.005731240               0.000968229              -0.000849408               0.002193530               0.001344122               0.000000000               0.000000000               0.000000000               0.000000000              -0.000240315               0.005664173               0.000828695              -0.000798138               0.002154085               0.001355947               0.000000000               0.000000000               0.000000000               0.000000000              -0.000154290               0.005569243               0.000706031              -0.000754012               0.002107733               0.001353721               0.000000000               0.000000000               0.000000000               0.000000000              -0.000085791               0.005458734               0.000587807              -0.000714512               0.002057730               0.001343219               0.000000000               0.000000000               0.000000000               0.000000000              -0.000032668               0.005337822               0.000467709              -0.000679477               0.002005748               0.001326272               0.000000000               0.000000000               0.000000000               0.000000000              -0.000003280               0.005222528               0.000349728              -0.000654044               0.001958840               0.001304796               0.000000000               0.000000000               0.000000000               0.000000000               0.000000692               0.005126241               0.000234223              -0.000640519               0.001922236               0.001281717               0.000000000               0.000000000               0.000000000               0.000000000              -0.000026751               0.005042628               0.000116311              -0.000640359               0.001894312               0.001253954               0.000000000               0.000000000               0.000000000               0.000000000              -0.000064235               0.004992812               0.000051841              -0.000648188               0.001880317               0.001232129               0.000000000               0.000000000               0.000000000               0.000000000              -0.002204506               0.000771930               0.000412981              -0.000923180               0.000565032              -0.000358147               0.000000000               0.000000000               0.000000000               0.000000000              -0.001424880               0.001951129               0.001266869              -0.000778220               0.000909776               0.000131556               0.000000000               0.000000000               0.000000000               0.000000000              -0.001105483               0.003215500               0.001946886              -0.000816493               0.001343986               0.000527493               0.000000000               0.000000000               0.000000000               0.000000000              -0.000904858               0.004044080               0.001986202              -0.000844831               0.001629623               0.000784792               0.000000000               0.000000000               0.000000000               0.000000000              -0.000750225               0.004576663               0.001837799              -0.000853416               0.001810011               0.000956594               0.000000000               0.000000000               0.000000000               0.000000000              -0.000612401               0.004918570               0.001645403              -0.000844471               0.001920997               0.001076526               0.000000000               0.000000000               0.000000000               0.000000000              -0.000473303               0.005133147               0.001454080              -0.000819131               0.001984075               0.001164944               0.000000000               0.000000000               0.000000000               0.000000000              -0.000335785               0.005257952               0.001279461              -0.000783162               0.002013687               0.001230525               0.000000000               0.000000000               0.000000000               0.000000000              -0.000210812               0.005321392               0.001120422              -0.000744227               0.002021855               0.001277628               0.000000000               0.000000000               0.000000000               0.000000000              -0.000098905               0.005338659               0.000977817              -0.000704420               0.002014342               0.001309922               0.000000000               0.000000000               0.000000000               0.000000000              -0.000004580               0.005316411               0.000851979              -0.000666267               0.001994208               0.001327941               0.000000000               0.000000000               0.000000000               0.000000000               0.000070650               0.005265702               0.000732323              -0.000631718               0.001965789               0.001334071               0.000000000               0.000000000               0.000000000               0.000000000               0.000135550               0.005205327               0.000606396              -0.000599833               0.001935036               0.001335203               0.000000000               0.000000000               0.000000000               0.000000000               0.000185335               0.005141623               0.000472855              -0.000573201               0.001904924               0.001331723               0.000000000               0.000000000               0.000000000               0.000000000               0.000207833               0.005081389               0.000330583              -0.000557235               0.001879524               0.001322290               0.000000000               0.000000000               0.000000000               0.000000000               0.000190473               0.005025148               0.000171127              -0.000556715               0.001860604               0.001303889               0.000000000               0.000000000               0.000000000               0.000000000               0.000153786               0.004986794               0.000082267              -0.000565678               0.001850807               0.001285129               0.000000000               0.000000000               0.000000000               0.000000000              -0.003231483               0.000185007               0.000065213              -0.001234931               0.000473310              -0.000761621               0.000000000               0.000000000               0.000000000               0.000000000              -0.001892127               0.001143953               0.000918654              -0.000852541               0.000665493              -0.000187048               0.000000000               0.000000000               0.000000000               0.000000000              -0.001081287               0.002169402               0.001647848              -0.000676657               0.000948678               0.000272021               0.000000000               0.000000000               0.000000000               0.000000000              -0.000693587               0.003003530               0.001776410              -0.000635536               0.001213011               0.000577475               0.000000000               0.000000000               0.000000000               0.000000000              -0.000477825               0.003627947               0.001700062              -0.000632677               0.001420195               0.000787518               0.000000000               0.000000000               0.000000000               0.000000000              -0.000335281               0.004089630               0.001561501              -0.000636934               0.001575507               0.000938573               0.000000000               0.000000000               0.000000000               0.000000000              -0.000215509               0.004428644               0.001410268              -0.000634396               0.001687665               0.001053269               0.000000000               0.000000000               0.000000000               0.000000000              -0.000104810               0.004666832               0.001261470              -0.000622657               0.001763147               0.001140490               0.000000000               0.000000000               0.000000000               0.000000000              -0.000001102               0.004825435               0.001122605              -0.000603592               0.001809659               0.001206068               0.000000000               0.000000000               0.000000000               0.000000000               0.000098167               0.004927809               0.000998871              -0.000579162               0.001835640               0.001256478               0.000000000               0.000000000               0.000000000               0.000000000               0.000193084               0.004989756               0.000885934              -0.000551312               0.001847006               0.001295694               0.000000000               0.000000000               0.000000000               0.000000000               0.000280673               0.005020660               0.000779045              -0.000522329               0.001847646               0.001325317               0.000000000               0.000000000               0.000000000               0.000000000               0.000365375               0.005031407               0.000668906              -0.000491909               0.001841088               0.001349179               0.000000000               0.000000000               0.000000000               0.000000000               0.000447977               0.005026126               0.000543558              -0.000460273               0.001828783               0.001368510               0.000000000               0.000000000               0.000000000               0.000000000               0.000517564               0.005012972               0.000395591              -0.000432534               0.001815152               0.001382618               0.000000000               0.000000000               0.000000000               0.000000000               0.000559198               0.004995268               0.000213444              -0.000414708               0.001803309               0.001388601               0.000000000               0.000000000               0.000000000               0.000000000               0.000565887               0.004979764               0.000110611              -0.000410262               0.001796659               0.001386397               0.000000000               0.000000000               0.000000000               0.000000000              -0.004102102              -0.000165206              -0.000100725              -0.001517636               0.000450807              -0.001066829               0.000000000               0.000000000               0.000000000               0.000000000              -0.002310470               0.000554513               0.000580493              -0.000935739               0.000496747              -0.000438992               0.000000000               0.000000000               0.000000000               0.000000000              -0.001070683               0.001322534               0.001188810              -0.000566822               0.000629780               0.000062958               0.000000000               0.000000000               0.000000000               0.000000000              -0.000495592               0.002112312               0.001337271              -0.000449886               0.000854058               0.000404172               0.000000000               0.000000000               0.000000000               0.000000000              -0.000205774               0.002783106               0.001313676              -0.000425053               0.001069377               0.000644323               0.000000000               0.000000000               0.000000000               0.000000000              -0.000042849               0.003326873               0.001232010              -0.000431927               0.001252922               0.000820995               0.000000000               0.000000000               0.000000000               0.000000000               0.000062453               0.003758501               0.001130076              -0.000446392               0.001401618               0.000955226               0.000000000               0.000000000               0.000000000               0.000000000               0.000146454               0.004088692               0.001023860              -0.000456166               0.001514939               0.001058773               0.000000000               0.000000000               0.000000000               0.000000000               0.000228561               0.004334813               0.000923224              -0.000456140               0.001596970               0.001140829               0.000000000               0.000000000               0.000000000               0.000000000               0.000312985               0.004518393               0.000832075              -0.000447429               0.001655259               0.001207830               0.000000000               0.000000000               0.000000000               0.000000000               0.000400508               0.004658489               0.000748672              -0.000432120               0.001696854               0.001264734               0.000000000               0.000000000               0.000000000               0.000000000               0.000499335               0.004768035               0.000670357              -0.000408753               0.001725580               0.001316827               0.000000000               0.000000000               0.000000000               0.000000000               0.000608607               0.004850938               0.000591254              -0.000378139               0.001743009               0.001364870               0.000000000               0.000000000               0.000000000               0.000000000               0.000733996               0.004910987               0.000498163              -0.000338624               0.001749854               0.001411230               0.000000000               0.000000000               0.000000000               0.000000000               0.000872465               0.004951294               0.000375953              -0.000291737               0.001747660               0.001455924               0.000000000               0.000000000               0.000000000               0.000000000               0.001017402               0.004970135               0.000209914              -0.000239741               0.001736609               0.001496868               0.000000000               0.000000000               0.000000000               0.000000000               0.001117196               0.004981131               0.000116407              -0.000203692               0.001728258               0.001524565               0.000000000               0.000000000               0.000000000               0.000000000              -0.004688230              -0.000342360              -0.000099422              -0.001715290               0.000457641              -0.001257650               0.000000000               0.000000000               0.000000000               0.000000000              -0.002601036               0.000198784               0.000276409              -0.001000235               0.000399670              -0.000600565               0.000000000               0.000000000               0.000000000               0.000000000              -0.001068304               0.000775536               0.000621324              -0.000497555               0.000424360              -0.000073195               0.000000000               0.000000000               0.000000000               0.000000000              -0.000358212               0.001512516               0.000718677              -0.000323394               0.000611965               0.000288571               0.000000000               0.000000000               0.000000000               0.000000000              -0.000005994               0.002197656               0.000717438              -0.000276954               0.000824863               0.000547908               0.000000000               0.000000000               0.000000000               0.000000000               0.000177343               0.002784022               0.000680542              -0.000281499               0.001021831               0.000740332               0.000000000               0.000000000               0.000000000               0.000000000               0.000278236               0.003268634               0.000629998              -0.000304240               0.001190947               0.000886707               0.000000000               0.000000000               0.000000000               0.000000000               0.000346653               0.003660105               0.000576041              -0.000327518               0.001329195               0.001001677               0.000000000               0.000000000               0.000000000               0.000000000               0.000407838               0.003969539               0.000523410              -0.000343253               0.001437584               0.001094331               0.000000000               0.000000000               0.000000000               0.000000000               0.000476772               0.004212955               0.000473624              -0.000347829               0.001520247               0.001172418               0.000000000               0.000000000               0.000000000               0.000000000               0.000561103               0.004409749               0.000430088              -0.000340804               0.001583503               0.001242699               0.000000000               0.000000000               0.000000000               0.000000000               0.000667612               0.004575456               0.000390539              -0.000321577               0.001632329               0.001310752               0.000000000               0.000000000               0.000000000               0.000000000               0.000799679               0.004717121               0.000351206              -0.000289760               0.001668945               0.001379185               0.000000000               0.000000000               0.000000000               0.000000000               0.000961824               0.004830436               0.000303346              -0.000243120               0.001691169               0.001448049               0.000000000               0.000000000               0.000000000               0.000000000               0.001163512               0.004910304               0.000233158              -0.000177471               0.001695908               0.001518438               0.000000000               0.000000000               0.000000000               0.000000000               0.001418315               0.004952800               0.000131749              -0.000087232               0.001679994               0.001592762               0.000000000               0.000000000               0.000000000               0.000000000               0.001627050               0.004986315               0.000075448              -0.000013146               0.001666470               0.001653325               0.000000000               0.000000000               0.000000000               0.000000000              -0.004894742              -0.000396345              -0.000000000              -0.001785984               0.000463210              -0.001322774               0.000000000               0.000000000               0.000000000               0.000000000              -0.002704102               0.000080446              -0.000000000              -0.001024093               0.000368177              -0.000655916               0.000000000               0.000000000               0.000000000               0.000000000              -0.001067430               0.000589101              -0.000000000              -0.000473923               0.000354339              -0.000119584               0.000000000               0.000000000               0.000000000               0.000000000              -0.000310230               0.001301818              -0.000000000              -0.000279063               0.000526956               0.000247893               0.000000000               0.000000000               0.000000000               0.000000000               0.000064957               0.001985608               0.000000000              -0.000223842               0.000736477               0.000512635               0.000000000               0.000000000               0.000000000               0.000000000               0.000257226               0.002585631              -0.000000000              -0.000226744               0.000937449               0.000710706               0.000000000               0.000000000               0.000000000               0.000000000               0.000360642               0.003089651               0.000000000              -0.000250965               0.001113528               0.000862563               0.000000000               0.000000000               0.000000000               0.000000000               0.000422822               0.003499918               0.000000000              -0.000278931               0.001259605               0.000980674               0.000000000               0.000000000               0.000000000               0.000000000               0.000474505               0.003831225               0.000000000              -0.000300963               0.001377383               0.001076420               0.000000000               0.000000000               0.000000000               0.000000000               0.000536526               0.004098872               0.000000000              -0.000311161               0.001469997               0.001158836               0.000000000               0.000000000               0.000000000               0.000000000               0.000622599               0.004320560              -0.000000000              -0.000306595               0.001542370               0.001235776               0.000000000               0.000000000               0.000000000               0.000000000               0.000732206               0.004506884               0.000000000              -0.000288783               0.001598541               0.001309758               0.000000000               0.000000000               0.000000000               0.000000000               0.000873353               0.004668357              -0.000000000              -0.000256037               0.001641449               0.001385412               0.000000000               0.000000000               0.000000000               0.000000000               0.001048695               0.004801048              -0.000000000              -0.000206870               0.001669290               0.001462420               0.000000000               0.000000000               0.000000000               0.000000000               0.001276642               0.004894434              -0.000000000              -0.000133063               0.001675816               0.001542753               0.000000000               0.000000000               0.000000000               0.000000000               0.001581169               0.004945574              -0.000000000              -0.000025258               0.001656927               0.001631669               0.000000000               0.000000000               0.000000000               0.000000000               0.001841017               0.004989898               0.000000000               0.000066643               0.001641068               0.001707712               0.000000000               0.000000000               0.000000000               0.000000000               0.001567268               0.017427162               0.000000000              -0.001590666               0.006339218               0.004748552               0.000000000               0.000000000               0.000000000               0.000000000               0.001614793               0.013940559               0.000000000              -0.001137020               0.005025813               0.003888793               0.000000000               0.000000000               0.000000000               0.000000000               0.002169380               0.011120818               0.000000000              -0.000576583               0.003899097               0.003322513               0.000000000               0.000000000               0.000000000               0.000000000               0.002149646               0.009548411              -0.000000000              -0.000387433               0.003311916               0.002924483               0.000000000               0.000000000               0.000000000               0.000000000               0.001935990               0.008591128              -0.000000000              -0.000347894               0.002979645               0.002631751               0.000000000               0.000000000               0.000000000               0.000000000               0.001662810               0.007967941              -0.000000000              -0.000372438               0.002780100               0.002407662               0.000000000               0.000000000               0.000000000               0.000000000               0.001380179               0.007537638              -0.000000000              -0.000424636               0.002654066               0.002229430               0.000000000               0.000000000               0.000000000               0.000000000               0.001119333               0.007217888               0.000000000              -0.000482485               0.002566767               0.002084282               0.000000000               0.000000000               0.000000000               0.000000000               0.000896535               0.006959475              -0.000000000              -0.000533732               0.002497713               0.001963980               0.000000000               0.000000000               0.000000000               0.000000000               0.000708988               0.006734967               0.000000000              -0.000575999               0.002436966               0.001860967               0.000000000               0.000000000               0.000000000               0.000000000               0.000548945               0.006529156               0.000000000              -0.000610289               0.002379793               0.001769505               0.000000000               0.000000000               0.000000000               0.000000000               0.000409724               0.006331456               0.000000000              -0.000637784               0.002323059               0.001685275               0.000000000               0.000000000               0.000000000               0.000000000               0.000285732               0.006135558               0.000000000              -0.000659793               0.002265097               0.001605303               0.000000000               0.000000000               0.000000000               0.000000000               0.000176945               0.005930517              -0.000000000              -0.000674959               0.002201805               0.001526847               0.000000000               0.000000000               0.000000000               0.000000000               0.000091912               0.005702807              -0.000000000              -0.000678382               0.002127044               0.001448662               0.000000000               0.000000000               0.000000000               0.000000000               0.000035579               0.005433805              -0.000000000              -0.000665882               0.002033211               0.001367329               0.000000000               0.000000000               0.000000000               0.000000000              -0.000007304               0.005222184              -0.000000000              -0.000655510               0.001959214               0.001303704               0.000000000               0.000000000               0.000000000               0.000000000               0.001642048               0.017096111              -0.001239196              -0.001521242               0.006205727               0.004684485               0.000000000               0.000000000               0.000000000               0.000000000               0.001610474               0.013717152              -0.000689701              -0.001110714               0.004942576               0.003831863               0.000000000               0.000000000               0.000000000               0.000000000               0.002077798               0.011013471              -0.000135445              -0.000597508               0.003870290               0.003272782               0.000000000               0.000000000               0.000000000               0.000000000               0.002020480               0.009505190               0.000107084              -0.000430468               0.003311854               0.002881387               0.000000000               0.000000000               0.000000000               0.000000000               0.001795471               0.008582056               0.000214158              -0.000399454               0.002993808               0.002594354               0.000000000               0.000000000               0.000000000               0.000000000               0.001523790               0.007975252               0.000259695              -0.000425484               0.002800219               0.002374735               0.000000000               0.000000000               0.000000000               0.000000000               0.001253053               0.007552121               0.000274257              -0.000474119               0.002675388               0.002201269               0.000000000               0.000000000               0.000000000               0.000000000               0.001010514               0.007234976               0.000270636              -0.000525428               0.002586777               0.002061349               0.000000000               0.000000000               0.000000000               0.000000000               0.000803534               0.006975742               0.000258555              -0.000570641               0.002515438               0.001944797               0.000000000               0.000000000               0.000000000               0.000000000               0.000627063               0.006749357               0.000245183              -0.000608519               0.002452603               0.001844084               0.000000000               0.000000000               0.000000000               0.000000000               0.000474309               0.006543072               0.000231031              -0.000640017               0.002394341               0.001754324               0.000000000               0.000000000               0.000000000               0.000000000               0.000344555               0.006348662               0.000215928              -0.000664373               0.002337657               0.001673284               0.000000000               0.000000000               0.000000000               0.000000000               0.000236148               0.006157330               0.000198936              -0.000681109               0.002279459               0.001598350               0.000000000               0.000000000               0.000000000               0.000000000               0.000144274               0.005959903               0.000174488              -0.000690883               0.002216909               0.001526025               0.000000000               0.000000000               0.000000000               0.000000000               0.000074145               0.005746393               0.000135737              -0.000690493               0.002145609               0.001455116               0.000000000               0.000000000               0.000000000               0.000000000               0.000028955               0.005506127               0.000077898              -0.000677406               0.002061159               0.001383753               0.000000000               0.000000000               0.000000000               0.000000000              -0.000006584               0.005324341               0.000047658              -0.000668010               0.001997433               0.001329423               0.000000000               0.000000000               0.000000000               0.000000000               0.001830703               0.016145561              -0.002321384              -0.001331679               0.005825693               0.004494014               0.000000000               0.000000000               0.000000000               0.000000000               0.001578577               0.013081309              -0.001295274              -0.001043195               0.004708124               0.003664929               0.000000000               0.000000000               0.000000000               0.000000000               0.001808523               0.010712352              -0.000267570              -0.000660846               0.003791030               0.003130184               0.000000000               0.000000000               0.000000000               0.000000000               0.001659451               0.009381897               0.000170305              -0.000550442               0.003310748               0.002760307               0.000000000               0.000000000               0.000000000               0.000000000               0.001411488               0.008551516               0.000358537              -0.000539630               0.003030354               0.002490723               0.000000000               0.000000000               0.000000000               0.000000000               0.001154047               0.007990873               0.000438060              -0.000566090               0.002852294               0.002286204               0.000000000               0.000000000               0.000000000               0.000000000               0.000918333               0.007585800               0.000463736              -0.000603849               0.002729858               0.002126009               0.000000000               0.000000000               0.000000000               0.000000000               0.000714780               0.007271276               0.000455469              -0.000640866               0.002637356               0.001996491               0.000000000               0.000000000               0.000000000               0.000000000               0.000547204               0.007010148               0.000431009              -0.000671065               0.002560381               0.001889316               0.000000000               0.000000000               0.000000000               0.000000000               0.000408124               0.006781908               0.000405286              -0.000694690               0.002492177               0.001797487               0.000000000               0.000000000               0.000000000               0.000000000               0.000287100               0.006577974               0.000380241              -0.000714583               0.002430830               0.001716248               0.000000000               0.000000000               0.000000000               0.000000000               0.000187647               0.006390026               0.000351278              -0.000728384               0.002372782               0.001644398               0.000000000               0.000000000               0.000000000               0.000000000               0.000112469               0.006207271               0.000316920              -0.000733731               0.002313647               0.001579915               0.000000000               0.000000000               0.000000000               0.000000000               0.000058579               0.006023891               0.000271682              -0.000731017               0.002251616               0.001520599               0.000000000               0.000000000               0.000000000               0.000000000               0.000024241               0.005840786               0.000206194              -0.000721006               0.002187244               0.001466238               0.000000000               0.000000000               0.000000000               0.000000000               0.000005025               0.005659688               0.000115082              -0.000705575               0.002121735               0.001416161               0.000000000               0.000000000               0.000000000               0.000000000              -0.000013225               0.005537765               0.000067710              -0.000697178               0.002078296               0.001381118               0.000000000               0.000000000               0.000000000               0.000000000               0.002053485               0.014693660              -0.003127507              -0.001066650               0.005253387               0.004186737               0.000000000               0.000000000               0.000000000               0.000000000               0.001491821               0.012128574              -0.001755521              -0.000956637               0.004361696               0.003405059               0.000000000               0.000000000               0.000000000               0.000000000               0.001391867               0.010268810              -0.000396773              -0.000761649               0.003676785               0.002915136               0.000000000               0.000000000               0.000000000               0.000000000               0.001132031               0.009186460               0.000158020              -0.000723794               0.003303388               0.002579593               0.000000000               0.000000000               0.000000000               0.000000000               0.000872793               0.008482341               0.000388112              -0.000732994               0.003071750               0.002338756               0.000000000               0.000000000               0.000000000               0.000000000               0.000650821               0.007984015               0.000481611              -0.000753942               0.002912626               0.002158684               0.000000000               0.000000000               0.000000000               0.000000000               0.000469339               0.007601386               0.000509907              -0.000774169               0.002791826               0.002017657               0.000000000               0.000000000               0.000000000               0.000000000               0.000325413               0.007290249               0.000500265              -0.000789249               0.002693142               0.001903892               0.000000000               0.000000000               0.000000000               0.000000000               0.000213760               0.007027129               0.000470987              -0.000798229               0.002608429               0.001810200               0.000000000               0.000000000               0.000000000               0.000000000               0.000125255               0.006798830               0.000441230              -0.000802881               0.002533881               0.001731000               0.000000000               0.000000000               0.000000000               0.000000000               0.000052705               0.006598415               0.000412761              -0.000805036               0.002467795               0.001662759               0.000000000               0.000000000               0.000000000               0.000000000              -0.000000971               0.006415560               0.000375865              -0.000802307               0.002405934               0.001603627               0.000000000               0.000000000               0.000000000               0.000000000              -0.000032129               0.006240331               0.000329568              -0.000792088               0.002344119               0.001552031               0.000000000               0.000000000               0.000000000               0.000000000              -0.000045743               0.006072433               0.000274742              -0.000776206               0.002282859               0.001506654               0.000000000               0.000000000               0.000000000               0.000000000              -0.000043151               0.005923222               0.000203666              -0.000756583               0.002226582               0.001469999               0.000000000               0.000000000               0.000000000               0.000000000              -0.000027772               0.005799672               0.000110735              -0.000735372               0.002178328               0.001442957               0.000000000               0.000000000               0.000000000               0.000000000              -0.000024062               0.005730443               0.000062925              -0.000725327               0.002151904               0.001426577               0.000000000               0.000000000               0.000000000               0.000000000               0.002217781               0.012905113              -0.003593931              -0.000781472               0.004562151               0.003780679               0.000000000               0.000000000               0.000000000               0.000000000               0.001324563               0.010980728              -0.002049874              -0.000875879               0.003952165               0.003076286               0.000000000               0.000000000               0.000000000               0.000000000               0.000871535               0.009736158              -0.000540311              -0.000890192               0.003542084               0.002651892               0.000000000               0.000000000               0.000000000               0.000000000               0.000529478               0.008928346               0.000048066              -0.000917487               0.003281914               0.002364428               0.000000000               0.000000000               0.000000000               0.000000000               0.000291060               0.008355621               0.000285185              -0.000935303               0.003096947               0.002161644               0.000000000               0.000000000               0.000000000               0.000000000               0.000127309               0.007915937               0.000379495              -0.000941749               0.002952536               0.002010787               0.000000000               0.000000000               0.000000000               0.000000000               0.000021504               0.007556314               0.000410745              -0.000936473               0.002830904               0.001894431               0.000000000               0.000000000               0.000000000               0.000000000              -0.000048220               0.007248112               0.000407543              -0.000924094               0.002724045               0.001799950               0.000000000               0.000000000               0.000000000               0.000000000              -0.000094569               0.006983274               0.000385686              -0.000908370               0.002630525               0.001722154               0.000000000               0.000000000               0.000000000               0.000000000              -0.000125403               0.006757400               0.000364011              -0.000891699               0.002549677               0.001657978               0.000000000               0.000000000               0.000000000               0.000000000              -0.000144791               0.006557103               0.000343588              -0.000873933               0.002476990               0.001603058               0.000000000               0.000000000               0.000000000               0.000000000              -0.000147262               0.006374068               0.000310302              -0.000851980               0.002408661               0.001556682               0.000000000               0.000000000               0.000000000               0.000000000              -0.000134364               0.006205685               0.000264804              -0.000826095               0.002343906               0.001517811               0.000000000               0.000000000               0.000000000               0.000000000              -0.000113213               0.006058272               0.000216161              -0.000799737               0.002285983               0.001486246               0.000000000               0.000000000               0.000000000               0.000000000              -0.000084031               0.005940373               0.000157054              -0.000774056               0.002238123               0.001464067               0.000000000               0.000000000               0.000000000               0.000000000              -0.000045705               0.005859284               0.000082876              -0.000749548               0.002202925               0.001453377               0.000000000               0.000000000               0.000000000               0.000000000              -0.000027695               0.005823321               0.000045331              -0.000738299               0.002187187               0.001448888               0.000000000               0.000000000               0.000000000               0.000000000               0.002237285               0.010960079              -0.003718882              -0.000531030               0.003830332               0.003299302               0.000000000               0.000000000               0.000000000               0.000000000               0.001069724               0.009752844              -0.002194207              -0.000817959               0.003523568               0.002705609               0.000000000               0.000000000               0.000000000               0.000000000               0.000311765               0.009152123              -0.000713375              -0.001027101               0.003393044               0.002365943               0.000000000               0.000000000               0.000000000               0.000000000              -0.000058869               0.008612438              -0.000156035              -0.001098628               0.003236993               0.002138365               0.000000000               0.000000000               0.000000000               0.000000000              -0.000238296               0.008157856               0.000069872              -0.001109090               0.003088955               0.001979865               0.000000000               0.000000000               0.000000000               0.000000000              -0.000318943               0.007770122               0.000167153              -0.001090866               0.002953637               0.001862771               0.000000000               0.000000000               0.000000000               0.000000000              -0.000340602               0.007428731               0.000209197              -0.001056314               0.002828324               0.001772009               0.000000000               0.000000000               0.000000000               0.000000000              -0.000337010               0.007123557               0.000222989              -0.001016821               0.002713435               0.001696614               0.000000000               0.000000000               0.000000000               0.000000000              -0.000318987               0.006861832               0.000223555              -0.000977347               0.002613037               0.001635690               0.000000000               0.000000000               0.000000000               0.000000000              -0.000289194               0.006637857               0.000220840              -0.000938178               0.002525323               0.001587145               0.000000000               0.000000000               0.000000000               0.000000000              -0.000256229               0.006433285               0.000215155              -0.000900244               0.002444488               0.001544244               0.000000000               0.000000000               0.000000000               0.000000000              -0.000215163               0.006247733               0.000194604              -0.000861651               0.002369774               0.001508123               0.000000000               0.000000000               0.000000000               0.000000000              -0.000168103               0.006086603               0.000161990              -0.000823862               0.002303468               0.001479606               0.000000000               0.000000000               0.000000000               0.000000000              -0.000122426               0.005953214               0.000128135              -0.000790060               0.002247738               0.001457678               0.000000000               0.000000000               0.000000000               0.000000000              -0.000078047               0.005849105               0.000087869              -0.000760404               0.002203150               0.001442746               0.000000000               0.000000000               0.000000000               0.000000000              -0.000036567               0.005775458               0.000040964              -0.000735643               0.002170348               0.001434705               0.000000000               0.000000000               0.000000000               0.000000000              -0.000021144               0.005740993               0.000019698              -0.000725551               0.002155495               0.001429944               0.000000000               0.000000000               0.000000000               0.000000000               0.002053085               0.009016631              -0.003555255              -0.000357175               0.003124571               0.002767396               0.000000000               0.000000000               0.000000000               0.000000000               0.000736312               0.008537468              -0.002224919              -0.000791066               0.003109482               0.002318416               0.000000000               0.000000000               0.000000000               0.000000000              -0.000217996               0.008544794              -0.000921413              -0.001149845               0.003231518               0.002081673               0.000000000               0.000000000               0.000000000               0.000000000              -0.000551022               0.008238540              -0.000430009              -0.001236448               0.003158302               0.001921854               0.000000000               0.000000000               0.000000000               0.000000000              -0.000641414               0.007884816              -0.000212535              -0.001226129               0.003036955               0.001810826               0.000000000               0.000000000               0.000000000               0.000000000              -0.000630793               0.007541552              -0.000100542              -0.001179238               0.002906905               0.001727667               0.000000000               0.000000000               0.000000000               0.000000000              -0.000577975               0.007219668              -0.000035061              -0.001119196               0.002779597               0.001660401               0.000000000               0.000000000               0.000000000               0.000000000              -0.000508468               0.006930709               0.000008872              -0.001057012               0.002662551               0.001605539               0.000000000               0.000000000               0.000000000               0.000000000              -0.000438682               0.006677659               0.000041015              -0.000999211               0.002558934               0.001559724               0.000000000               0.000000000               0.000000000               0.000000000              -0.000365738               0.006453441               0.000061522              -0.000943829               0.002465735               0.001521906               0.000000000               0.000000000               0.000000000               0.000000000              -0.000292340               0.006247327               0.000072621              -0.000890541               0.002379269               0.001488727               0.000000000               0.000000000               0.000000000               0.000000000              -0.000221054               0.006059979               0.000069536              -0.000840391               0.002300103               0.001459712               0.000000000               0.000000000               0.000000000               0.000000000              -0.000156131               0.005896427               0.000054803              -0.000795601               0.002230656               0.001435055               0.000000000               0.000000000               0.000000000               0.000000000              -0.000102268               0.005758296               0.000039917              -0.000758135               0.002172125               0.001413989               0.000000000               0.000000000               0.000000000               0.000000000              -0.000059798               0.005644198               0.000021219              -0.000727947               0.002124029               0.001396082               0.000000000               0.000000000               0.000000000               0.000000000              -0.000025847               0.005554549               0.000003082              -0.000704010               0.002086168               0.001382158               0.000000000               0.000000000               0.000000000               0.000000000              -0.000018257               0.005503540               0.000001925              -0.000694787               0.002066091               0.001371304               0.000000000               0.000000000               0.000000000               0.000000000               0.001684351               0.007190762              -0.003172987              -0.000267217               0.002485968               0.002218751               0.000000000               0.000000000               0.000000000               0.000000000               0.000350565               0.007405841              -0.002177065              -0.000794268               0.002733344               0.001939076               0.000000000               0.000000000               0.000000000               0.000000000              -0.000661483               0.007927740              -0.001161904              -0.001239021               0.003055560               0.001816540               0.000000000               0.000000000               0.000000000               0.000000000              -0.000898383               0.007808204              -0.000735939              -0.001312916               0.003040347               0.001727431               0.000000000               0.000000000               0.000000000               0.000000000              -0.000886547               0.007541319              -0.000510900              -0.001275117               0.002938787               0.001663670               0.000000000               0.000000000               0.000000000               0.000000000              -0.000791986               0.007243042              -0.000368004              -0.001202372               0.002815114               0.001612742               0.000000000               0.000000000               0.000000000               0.000000000              -0.000677331               0.006951720              -0.000265279              -0.001122962               0.002691537               0.001568576               0.000000000               0.000000000               0.000000000               0.000000000              -0.000564677               0.006686555              -0.000187448              -0.001047571               0.002578020               0.001530449               0.000000000               0.000000000               0.000000000               0.000000000              -0.000461371               0.006444630              -0.000126079              -0.000978590               0.002474385               0.001495795               0.000000000               0.000000000               0.000000000               0.000000000              -0.000364464               0.006221975              -0.000082393              -0.000914418               0.002378777               0.001464359               0.000000000               0.000000000               0.000000000               0.000000000              -0.000271453               0.006016739              -0.000055036              -0.000853885               0.002290188               0.001436303               0.000000000               0.000000000               0.000000000               0.000000000              -0.000192123               0.005824336              -0.000040182              -0.000800086               0.002208121               0.001408035               0.000000000               0.000000000               0.000000000               0.000000000              -0.000130782               0.005652314              -0.000033241              -0.000755580               0.002135946               0.001380365               0.000000000               0.000000000               0.000000000               0.000000000              -0.000079312               0.005507458              -0.000024619              -0.000718173               0.002075192               0.001357019               0.000000000               0.000000000               0.000000000               0.000000000              -0.000038921               0.005386664              -0.000016369              -0.000687927               0.002024846               0.001336919               0.000000000               0.000000000               0.000000000               0.000000000              -0.000015109               0.005288982              -0.000009678              -0.000666787               0.001985239               0.001318452               0.000000000               0.000000000               0.000000000               0.000000000              -0.000014688               0.005230471               0.000000083              -0.000659315               0.001963245               0.001303929               0.000000000               0.000000000               0.000000000               0.000000000               0.001217729               0.005617721              -0.002655892              -0.000245569               0.001954410               0.001708841               0.000000000               0.000000000               0.000000000               0.000000000              -0.000007437               0.006389310              -0.002097189              -0.000801452               0.002396899               0.001595446               0.000000000               0.000000000               0.000000000               0.000000000              -0.000970601               0.007328428              -0.001441964              -0.001280026               0.002869460               0.001589434               0.000000000               0.000000000               0.000000000               0.000000000              -0.001103943               0.007396119              -0.001059549              -0.001338491               0.002911512               0.001573021               0.000000000               0.000000000               0.000000000               0.000000000              -0.001010365               0.007230405              -0.000810158              -0.001282685               0.002837672               0.001554988               0.000000000               0.000000000               0.000000000               0.000000000              -0.000854043               0.006992866              -0.000627425              -0.001194371               0.002729056               0.001534684               0.000000000               0.000000000               0.000000000               0.000000000              -0.000695822               0.006741753              -0.000487406              -0.001103650               0.002615112               0.001511462               0.000000000               0.000000000               0.000000000               0.000000000              -0.000553255               0.006501748              -0.000378002              -0.001020187               0.002507290               0.001487103               0.000000000               0.000000000               0.000000000               0.000000000              -0.000430431               0.006273644              -0.000290891              -0.000945615               0.002406398               0.001460784               0.000000000               0.000000000               0.000000000               0.000000000              -0.000325277               0.006055369              -0.000223925              -0.000878898               0.002311402               0.001432504               0.000000000               0.000000000               0.000000000               0.000000000              -0.000228002               0.005846531              -0.000175547              -0.000816315               0.002220929               0.001404614               0.000000000               0.000000000               0.000000000               0.000000000              -0.000151805               0.005646895              -0.000138113              -0.000762787               0.002136542               0.001373755               0.000000000               0.000000000               0.000000000               0.000000000              -0.000098893               0.005471526              -0.000104708              -0.000721024               0.002064165               0.001343141               0.000000000               0.000000000               0.000000000               0.000000000              -0.000058806               0.005326926              -0.000069684              -0.000687916               0.002004930               0.001317014               0.000000000               0.000000000               0.000000000               0.000000000              -0.000036842               0.005206338              -0.000037490              -0.000664606               0.001956964               0.001292358               0.000000000               0.000000000               0.000000000               0.000000000              -0.000036226               0.005108170              -0.000015098              -0.000652104               0.001920074               0.001267970               0.000000000               0.000000000               0.000000000               0.000000000              -0.000042750               0.005056569              -0.000003893              -0.000648101               0.001901540               0.001253439               0.000000000               0.000000000               0.000000000               0.000000000               0.000630804               0.004134391              -0.002084209              -0.000280249               0.001471532               0.001191283               0.000000000               0.000000000               0.000000000               0.000000000              -0.000276808               0.005217608              -0.001999804              -0.000756004               0.001991186               0.001235182               0.000000000               0.000000000               0.000000000               0.000000000              -0.001093898               0.006452865              -0.001747966              -0.001216817               0.002556539               0.001339721               0.000000000               0.000000000               0.000000000               0.000000000              -0.001178256               0.006778156              -0.001418063              -0.001289113               0.002689067               0.001399954               0.000000000               0.000000000               0.000000000               0.000000000              -0.001067863               0.006783770              -0.001145128              -0.001248417               0.002677373               0.001428956               0.000000000               0.000000000               0.000000000               0.000000000              -0.000897220               0.006665830              -0.000926397              -0.001169684               0.002611816               0.001442132               0.000000000               0.000000000               0.000000000               0.000000000              -0.000721823               0.006500775              -0.000751797              -0.001083278               0.002527996               0.001444718               0.000000000               0.000000000               0.000000000               0.000000000              -0.000566560               0.006322973              -0.000610532              -0.001002829               0.002441913               0.001439084               0.000000000               0.000000000               0.000000000               0.000000000              -0.000434815               0.006144281              -0.000492490              -0.000931089               0.002358436               0.001427347               0.000000000               0.000000000               0.000000000               0.000000000              -0.000328392               0.005961948              -0.000397961              -0.000868388               0.002276759               0.001408370               0.000000000               0.000000000               0.000000000               0.000000000              -0.000239544               0.005773280              -0.000320835              -0.000811487               0.002194903               0.001383416               0.000000000               0.000000000               0.000000000               0.000000000              -0.000168626               0.005585989              -0.000249643              -0.000761482               0.002115805               0.001354323               0.000000000               0.000000000               0.000000000               0.000000000              -0.000122955               0.005414082              -0.000185061              -0.000722867               0.002045631               0.001322765               0.000000000               0.000000000               0.000000000               0.000000000              -0.000096071               0.005265983              -0.000123836              -0.000694273               0.001986734               0.001292462               0.000000000               0.000000000               0.000000000               0.000000000              -0.000081701               0.005147849              -0.000067594              -0.000674117               0.001940638               0.001266521               0.000000000               0.000000000               0.000000000               0.000000000              -0.000086503               0.005052619              -0.000025755              -0.000664014               0.001905527               0.001241513               0.000000000               0.000000000               0.000000000               0.000000000              -0.000097080               0.005005260              -0.000008129              -0.000662061               0.001889090               0.001227030               0.000000000               0.000000000               0.000000000               0.000000000              -0.000178738               0.002776768              -0.001488493              -0.000414123               0.001063621               0.000649497               0.000000000               0.000000000               0.000000000               0.000000000              -0.000582864               0.004045999              -0.001839018              -0.000724323               0.001590093               0.000865770               0.000000000               0.000000000               0.000000000               0.000000000              -0.001133056               0.005454552              -0.001984844              -0.001106713               0.002187069               0.001080356               0.000000000               0.000000000               0.000000000               0.000000000              -0.001175075               0.006024916              -0.001757235              -0.001193765               0.002406206               0.001212441               0.000000000               0.000000000               0.000000000               0.000000000              -0.001066410               0.006227750              -0.001489485              -0.001178370               0.002468686               0.001290315               0.000000000               0.000000000               0.000000000               0.000000000              -0.000903377               0.006258561              -0.001252692              -0.001121084               0.002459861               0.001338776               0.000000000               0.000000000               0.000000000               0.000000000              -0.000726809               0.006206727              -0.001051992              -0.001048392               0.002418352               0.001369960               0.000000000               0.000000000               0.000000000               0.000000000              -0.000565386               0.006116144              -0.000882298              -0.000976536               0.002364206               0.001387670               0.000000000               0.000000000               0.000000000               0.000000000              -0.000426191               0.006003262              -0.000738140              -0.000910227               0.002304476               0.001394249               0.000000000               0.000000000               0.000000000               0.000000000              -0.000315440               0.005868918              -0.000617409              -0.000851903               0.002240254               0.001388351               0.000000000               0.000000000               0.000000000               0.000000000              -0.000232478               0.005718091              -0.000511769              -0.000801939               0.002173324               0.001371385               0.000000000               0.000000000               0.000000000               0.000000000              -0.000164763               0.005562736              -0.000409924              -0.000757126               0.002106602               0.001349476               0.000000000               0.000000000               0.000000000               0.000000000              -0.000117109               0.005405250              -0.000313476              -0.000719570               0.002041589               0.001322018               0.000000000               0.000000000               0.000000000               0.000000000              -0.000093611               0.005260199              -0.000224560              -0.000692627               0.001984258               0.001291631               0.000000000               0.000000000               0.000000000               0.000000000              -0.000085389               0.005145171              -0.000140425              -0.000675165               0.001940095               0.001264930               0.000000000               0.000000000               0.000000000               0.000000000              -0.000099002               0.005051078              -0.000063389              -0.000668509               0.001906512               0.001238003               0.000000000               0.000000000               0.000000000               0.000000000              -0.000121873               0.005001049              -0.000024529              -0.000670832               0.001890610               0.001219778               0.000000000               0.000000000               0.000000000               0.000000000              -0.001150616               0.001635479              -0.000908372              -0.000635915               0.000757125               0.000121210               0.000000000               0.000000000               0.000000000               0.000000000              -0.000974483               0.002936917              -0.001586246              -0.000732545               0.001223143               0.000490599               0.000000000               0.000000000               0.000000000               0.000000000              -0.001130221               0.004346452              -0.002058489              -0.000967138               0.001771181               0.000804043               0.000000000               0.000000000               0.000000000               0.000000000              -0.001079193               0.005088804              -0.001967073              -0.001040796               0.002043182               0.001002386               0.000000000               0.000000000               0.000000000               0.000000000              -0.000960177               0.005476093              -0.001746513              -0.001044576               0.002173538               0.001128961               0.000000000               0.000000000               0.000000000               0.000000000              -0.000811251               0.005669420              -0.001518134              -0.001012895               0.002227419               0.001214524               0.000000000               0.000000000               0.000000000               0.000000000              -0.000650811               0.005748135              -0.001309808              -0.000962569               0.002236882               0.001274313               0.000000000               0.000000000               0.000000000               0.000000000              -0.000495258               0.005760202              -0.001127768              -0.000905745               0.002221963               0.001316218               0.000000000               0.000000000               0.000000000               0.000000000              -0.000354680               0.005731240              -0.000968229              -0.000849408               0.002193530               0.001344122               0.000000000               0.000000000               0.000000000               0.000000000              -0.000240315               0.005664173              -0.000828695              -0.000798138               0.002154085               0.001355947               0.000000000               0.000000000               0.000000000               0.000000000              -0.000154290               0.005569243              -0.000706031              -0.000754012               0.002107733               0.001353721               0.000000000               0.000000000               0.000000000               0.000000000              -0.000085791               0.005458734              -0.000587807              -0.000714512               0.002057730               0.001343219               0.000000000               0.000000000               0.000000000               0.000000000              -0.000032668               0.005337822              -0.000467709              -0.000679477               0.002005748               0.001326272               0.000000000               0.000000000               0.000000000               0.000000000              -0.000003280               0.005222528              -0.000349728              -0.000654044               0.001958840               0.001304796               0.000000000               0.000000000               0.000000000               0.000000000               0.000000692               0.005126241              -0.000234223              -0.000640519               0.001922236               0.001281717               0.000000000               0.000000000               0.000000000               0.000000000              -0.000026751               0.005042628              -0.000116311              -0.000640359               0.001894312               0.001253954               0.000000000               0.000000000               0.000000000               0.000000000              -0.000064235               0.004992812              -0.000051841              -0.000648188               0.001880317               0.001232129               0.000000000               0.000000000               0.000000000               0.000000000              -0.002204506               0.000771930              -0.000412981              -0.000923180               0.000565032              -0.000358147               0.000000000               0.000000000               0.000000000               0.000000000              -0.001424880               0.001951129              -0.001266869              -0.000778220               0.000909776               0.000131556               0.000000000               0.000000000               0.000000000               0.000000000              -0.001105483               0.003215500              -0.001946886              -0.000816493               0.001343986               0.000527493               0.000000000               0.000000000               0.000000000               0.000000000              -0.000904858               0.004044080              -0.001986202              -0.000844831               0.001629623               0.000784792               0.000000000               0.000000000               0.000000000               0.000000000              -0.000750225               0.004576663              -0.001837799              -0.000853416               0.001810011               0.000956594               0.000000000               0.000000000               0.000000000               0.000000000              -0.000612401               0.004918570              -0.001645403              -0.000844471               0.001920997               0.001076526               0.000000000               0.000000000               0.000000000               0.000000000              -0.000473303               0.005133147              -0.001454080              -0.000819131               0.001984075               0.001164944               0.000000000               0.000000000               0.000000000               0.000000000              -0.000335785               0.005257952              -0.001279461              -0.000783162               0.002013687               0.001230525               0.000000000               0.000000000               0.000000000               0.000000000              -0.000210812               0.005321392              -0.001120422              -0.000744227               0.002021855               0.001277628               0.000000000               0.000000000               0.000000000               0.000000000              -0.000098905               0.005338659              -0.000977817              -0.000704420               0.002014342               0.001309922               0.000000000               0.000000000               0.000000000               0.000000000              -0.000004580               0.005316411              -0.000851979              -0.000666267               0.001994208               0.001327941               0.000000000               0.000000000               0.000000000               0.000000000               0.000070650               0.005265702              -0.000732323              -0.000631718               0.001965789               0.001334071               0.000000000               0.000000000               0.000000000               0.000000000               0.000135550               0.005205327              -0.000606396              -0.000599833               0.001935036               0.001335203               0.000000000               0.000000000               0.000000000               0.000000000               0.000185335               0.005141623              -0.000472855              -0.000573201               0.001904924               0.001331723               0.000000000               0.000000000               0.000000000               0.000000000               0.000207833               0.005081389              -0.000330583              -0.000557235               0.001879524               0.001322290               0.000000000               0.000000000               0.000000000               0.000000000               0.000190473               0.005025148              -0.000171127              -0.000556715               0.001860604               0.001303889               0.000000000               0.000000000               0.000000000               0.000000000               0.000153786               0.004986794              -0.000082267              -0.000565678               0.001850807               0.001285129               0.000000000               0.000000000               0.000000000               0.000000000              -0.003231483               0.000185007              -0.000065213              -0.001234931               0.000473310              -0.000761621               0.000000000               0.000000000               0.000000000               0.000000000              -0.001892127               0.001143953              -0.000918654              -0.000852541               0.000665493              -0.000187048               0.000000000               0.000000000               0.000000000               0.000000000              -0.001081287               0.002169402              -0.001647848              -0.000676657               0.000948678               0.000272021               0.000000000               0.000000000               0.000000000               0.000000000              -0.000693587               0.003003530              -0.001776410              -0.000635536               0.001213011               0.000577475               0.000000000               0.000000000               0.000000000               0.000000000              -0.000477825               0.003627947              -0.001700062              -0.000632677               0.001420195               0.000787518               0.000000000               0.000000000               0.000000000               0.000000000              -0.000335281               0.004089630              -0.001561501              -0.000636934               0.001575507               0.000938573               0.000000000               0.000000000               0.000000000               0.000000000              -0.000215509               0.004428644              -0.001410268              -0.000634396               0.001687665               0.001053269               0.000000000               0.000000000               0.000000000               0.000000000              -0.000104810               0.004666832              -0.001261470              -0.000622657               0.001763147               0.001140490               0.000000000               0.000000000               0.000000000               0.000000000              -0.000001102               0.004825435              -0.001122605              -0.000603592               0.001809659               0.001206068               0.000000000               0.000000000               0.000000000               0.000000000               0.000098167               0.004927809              -0.000998871              -0.000579162               0.001835640               0.001256478               0.000000000               0.000000000               0.000000000               0.000000000               0.000193084               0.004989756              -0.000885934              -0.000551312               0.001847006               0.001295694               0.000000000               0.000000000               0.000000000               0.000000000               0.000280673               0.005020660              -0.000779045              -0.000522329               0.001847646               0.001325317               0.000000000               0.000000000               0.000000000               0.000000000               0.000365375               0.005031407              -0.000668906              -0.000491909               0.001841088               0.001349179               0.000000000               0.000000000               0.000000000               0.000000000               0.000447977               0.005026126              -0.000543558              -0.000460273               0.001828783               0.001368510               0.000000000               0.000000000               0.000000000               0.000000000               0.000517564               0.005012972              -0.000395591              -0.000432534               0.001815152               0.001382618               0.000000000               0.000000000               0.000000000               0.000000000               0.000559198               0.004995268              -0.000213444              -0.000414708               0.001803309               0.001388601               0.000000000               0.000000000               0.000000000               0.000000000               0.000565887               0.004979764              -0.000110611              -0.000410262               0.001796659               0.001386397               0.000000000               0.000000000               0.000000000               0.000000000              -0.004102102              -0.000165206               0.000100725              -0.001517636               0.000450807              -0.001066829               0.000000000               0.000000000               0.000000000               0.000000000              -0.002310470               0.000554513              -0.000580493              -0.000935739               0.000496747              -0.000438992               0.000000000               0.000000000               0.000000000               0.000000000              -0.001070683               0.001322534              -0.001188810              -0.000566822               0.000629780               0.000062958               0.000000000               0.000000000               0.000000000               0.000000000              -0.000495592               0.002112312              -0.001337271              -0.000449886               0.000854058               0.000404172               0.000000000               0.000000000               0.000000000               0.000000000              -0.000205774               0.002783106              -0.001313676              -0.000425053               0.001069377               0.000644323               0.000000000               0.000000000               0.000000000               0.000000000              -0.000042849               0.003326873              -0.001232010              -0.000431927               0.001252922               0.000820995               0.000000000               0.000000000               0.000000000               0.000000000               0.000062453               0.003758501              -0.001130076              -0.000446392               0.001401618               0.000955226               0.000000000               0.000000000               0.000000000               0.000000000               0.000146454               0.004088692              -0.001023860              -0.000456166               0.001514939               0.001058773               0.000000000               0.000000000               0.000000000               0.000000000               0.000228561               0.004334813              -0.000923224              -0.000456140               0.001596970               0.001140829               0.000000000               0.000000000               0.000000000               0.000000000               0.000312985               0.004518393              -0.000832075              -0.000447429               0.001655259               0.001207830               0.000000000               0.000000000               0.000000000               0.000000000               0.000400508               0.004658489              -0.000748672              -0.000432120               0.001696854               0.001264734               0.000000000               0.000000000               0.000000000               0.000000000               0.000499335               0.004768035              -0.000670357              -0.000408753               0.001725580               0.001316827               0.000000000               0.000000000               0.000000000               0.000000000               0.000608607               0.004850938              -0.000591254              -0.000378139               0.001743009               0.001364870               0.000000000               0.000000000               0.000000000               0.000000000               0.000733996               0.004910987              -0.000498163              -0.000338624               0.001749854               0.001411230               0.000000000               0.000000000               0.000000000               0.000000000               0.000872465               0.004951294              -0.000375953              -0.000291737               0.001747660               0.001455924               0.000000000               0.000000000               0.000000000               0.000000000               0.001017402               0.004970135              -0.000209914              -0.000239741               0.001736609               0.001496868               0.000000000               0.000000000               0.000000000               0.000000000               0.001117196               0.004981131              -0.000116407              -0.000203692               0.001728258               0.001524565               0.000000000               0.000000000               0.000000000               0.000000000              -0.004688230              -0.000342360               0.000099422              -0.001715290               0.000457641              -0.001257650               0.000000000               0.000000000               0.000000000               0.000000000              -0.002601036               0.000198784              -0.000276409              -0.001000235               0.000399670              -0.000600565               0.000000000               0.000000000               0.000000000               0.000000000              -0.001068304               0.000775536              -0.000621324              -0.000497555               0.000424360              -0.000073195               0.000000000               0.000000000               0.000000000               0.000000000              -0.000358212               0.001512516              -0.000718677              -0.000323394               0.000611965               0.000288571               0.000000000               0.000000000               0.000000000               0.000000000              -0.000005994               0.002197656              -0.000717438              -0.000276954               0.000824863               0.000547908               0.000000000               0.000000000               0.000000000               0.000000000               0.000177343               0.002784022              -0.000680542              -0.000281499               0.001021831               0.000740332               0.000000000               0.000000000               0.000000000               0.000000000               0.000278236               0.003268634              -0.000629998              -0.000304240               0.001190947               0.000886707               0.000000000               0.000000000               0.000000000               0.000000000               0.000346653               0.003660105              -0.000576041              -0.000327518               0.001329195               0.001001677               0.000000000               0.000000000               0.000000000               0.000000000               0.000407838               0.003969539              -0.000523410              -0.000343253               0.001437584               0.001094331               0.000000000               0.000000000               0.000000000               0.000000000               0.000476772               0.004212955              -0.000473624              -0.000347829               0.001520247               0.001172418               0.000000000               0.000000000               0.000000000               0.000000000               0.000561103               0.004409749              -0.000430088              -0.000340804               0.001583503               0.001242699               0.000000000               0.000000000               0.000000000               0.000000000               0.000667612               0.004575456              -0.000390539              -0.000321577               0.001632329               0.001310752               0.000000000               0.000000000               0.000000000               0.000000000               0.000799679               0.004717121              -0.000351206              -0.000289760               0.001668945               0.001379185               0.000000000               0.000000000               0.000000000               0.000000000               0.000961824               0.004830436              -0.000303346              -0.000243120               0.001691169               0.001448049               0.000000000               0.000000000               0.000000000               0.000000000               0.001163512               0.004910304              -0.000233158              -0.000177471               0.001695908               0.001518438               0.000000000               0.000000000               0.000000000               0.000000000               0.001418315               0.004952800              -0.000131749              -0.000087232               0.001679994               0.001592762               0.000000000               0.000000000               0.000000000               0.000000000               0.001627050               0.004986315              -0.000075448              -0.000013146               0.001666470               0.001653325               0.000000000               0.000000000               0.000000000               0.000000000               0.000000000               0.000000000               0.000000000               0.000000000               0.000000000               0.000000000               0.000000000               0.000000000               0.000000000               0.000000000               0.000000000               0.000000000               0.000000000               0.000000000               0.000000000               0.000000000               0.000000000               0.000000000               0.000000000               0.000000000               0.000000000               0.000000000               0.000000000               0.000000000               0.000000000               0.000000000               0.000000000               0.000000000               0.000000000               0.000000000               0.000000000               0.000000000               0.000000000               0.000000000               0.000000000               0.000000000               0.000000000               0.000000000               0.000000000               0.000000000               0.000000000               0.000000000               0.000000000               0.000000000               0.000000000               0.000000000               0.000000000               0.000000000               0.000000000               0.000000000               0.000000000               0.000000000               0.000000000               0.000000000               0.000000000               0.000000000               0.000000000               0.000000000               0.000000000               0.000000000               0.000000000               0.000000000               0.000000000               0.000000000               0.000000000               0.000000000               0.000000000               0.000000000               0.000000000               0.000000000               0.000000000               0.000000000               0.000000000               0.000000000               0.000000000               0.000000000               0.000000000               0.000000000               0.000000000               0.000000000               0.000000000               0.000000000               0.000000000               0.000000000               0.000000000               0.000000000               0.000000000               0.000000000               0.000000000               0.000000000               0.000000000               0.000000000               0.000000000               0.000000000               0.000000000               0.000000000               0.000000000               0.000000000               0.000000000               0.000000000               0.000000000               0.000000000               0.000000000               0.000000000               0.000000000               0.000000000               0.000000000               0.000000000               0.000000000               0.000000000               0.000000000               0.000000000               0.000000000               0.000000000               0.000000000               0.000000000               0.000000000               0.000000000               0.000000000               0.000000000               0.000000000               0.000000000               0.000000000               0.000000000               0.000000000               0.000000000               0.000000000               0.000000000               0.000000000               0.000000000               0.000000000               0.000000000               0.000000000               0.000000000               0.000000000               0.000000000               0.000000000               0.000000000               0.000000000               0.000000000               0.000000000               0.000000000               0.000000000               0.000000000               0.000000000               0.000000000               0.000000000               0.000000000               0.000000000               0.000000000               0.000000000               0.000000000               0.000000000               0.000000000               0.000000000               0.000000000               0.000000000               0.000000000               0.000000000               0.000000000               0.000000000               0.000000000               0.000000000               0.000000000               0.000000000               0.000000000               0.000000000               0.000000000               0.000000000               0.000000000               0.000000000               0.000000000               0.000000000               0.000000000               0.000000000               0.000000000               0.000000000               0.000000000               0.000000000               0.000000000               0.000000000               0.000000000               0.000000000               0.000000000               0.000000000               0.000000000               0.000000000               0.000000000               0.000000000               0.000000000               0.000000000               0.000000000               0.000000000               0.000000000               0.000000000               0.000000000               0.000000000               0.000000000               0.000000000               0.000000000               0.000000000               0.000000000               0.000000000               0.000000000               0.000000000               0.000000000               0.000000000               0.000000000               0.000000000               0.000000000               0.000000000               0.000000000               0.000000000               0.000000000               0.000000000               0.000000000               0.000000000               0.000000000               0.000000000               0.000000000               0.000000000               0.000000000               0.000000000               0.000000000               0.000000000               0.000000000               0.000000000               0.000000000               0.000000000               0.000000000               0.000000000               0.000000000               0.000000000               0.000000000               0.000000000               0.000000000               0.000000000               0.000000000               0.000000000               0.000000000               0.000000000               0.000000000               0.000000000               0.000000000               0.000000000               0.000000000               0.000000000               0.000000000               0.000000000               0.000000000               0.000000000               0.000000000               0.000000000               0.000000000               0.000000000               0.000000000               0.000000000               0.000000000               0.000000000               0.000000000               0.000000000               0.000000000               0.000000000               0.000000000               0.000000000               0.000000000               0.000000000               0.000000000               0.000000000               0.000000000               0.000000000               0.000000000               0.000000000               0.000000000               0.000000000               0.000000000               0.000000000               0.000000000               0.000000000               0.000000000               0.000000000               0.000000000               0.000000000               0.000000000               0.000000000               0.000000000               0.000000000               0.000000000               0.000000000               0.000000000               0.000000000               0.000000000               0.000000000               0.000000000               0.000000000               0.000000000               0.000000000               0.000000000               0.000000000               0.000000000               0.000000000               0.000000000               0.000000000               0.000000000               0.000000000               0.000000000               0.000000000               0.000000000               0.000000000               0.000000000               0.000000000               0.000000000               0.000000000               0.000000000               0.000000000               0.000000000               0.000000000               0.000000000               0.000000000               0.000000000               0.000000000               0.000000000               0.000000000               0.000000000               0.000000000               0.000000000               0.000000000               0.000000000               0.000000000               0.000000000               0.000000000               0.000000000               0.000000000               0.000000000               0.000000000               0.000000000               0.000000000               0.000000000               0.000000000               0.000000000               0.001642048               0.017096111               0.001239196              -0.001521242               0.006205727               0.004684485               0.000000000               0.000000000               0.000000000               0.000000000               0.001610474               0.013717152               0.000689701              -0.001110714               0.004942576               0.003831863               0.000000000               0.000000000               0.000000000               0.000000000               0.002077798               0.011013471               0.000135445              -0.000597508               0.003870290               0.003272782               0.000000000               0.000000000               0.000000000               0.000000000               0.002020480               0.009505190              -0.000107084              -0.000430468               0.003311854               0.002881387               0.000000000               0.000000000               0.000000000               0.000000000               0.001795471               0.008582056              -0.000214158              -0.000399454               0.002993808               0.002594354               0.000000000               0.000000000               0.000000000               0.000000000               0.001523790               0.007975252              -0.000259695              -0.000425484               0.002800219               0.002374735               0.000000000               0.000000000               0.000000000               0.000000000               0.001253053               0.007552121              -0.000274257              -0.000474119               0.002675388               0.002201269               0.000000000               0.000000000               0.000000000               0.000000000               0.001010514               0.007234976              -0.000270636              -0.000525428               0.002586777               0.002061349               0.000000000               0.000000000               0.000000000               0.000000000               0.000803534               0.006975742              -0.000258555              -0.000570641               0.002515438               0.001944797               0.000000000               0.000000000               0.000000000               0.000000000               0.000627063               0.006749357              -0.000245183              -0.000608519               0.002452603               0.001844084               0.000000000               0.000000000               0.000000000               0.000000000               0.000474309               0.006543072              -0.000231031              -0.000640017               0.002394341               0.001754324               0.000000000               0.000000000               0.000000000               0.000000000               0.000344555               0.006348662              -0.000215928              -0.000664373               0.002337657               0.001673284               0.000000000               0.000000000               0.000000000               0.000000000               0.000236148               0.006157330              -0.000198936              -0.000681109               0.002279459               0.001598350               0.000000000               0.000000000               0.000000000               0.000000000               0.000144274               0.005959903              -0.000174488              -0.000690883               0.002216909               0.001526025               0.000000000               0.000000000               0.000000000               0.000000000               0.000074145               0.005746393              -0.000135737              -0.000690493               0.002145609               0.001455116               0.000000000               0.000000000               0.000000000               0.000000000               0.000028955               0.005506127              -0.000077898              -0.000677406               0.002061159               0.001383753               0.000000000               0.000000000               0.000000000               0.000000000              -0.000006584               0.005324341              -0.000047658              -0.000668010               0.001997433               0.001329423               0.000000000               0.000000000               0.000000000               0.000000000               0.001830703               0.016145561               0.002321384              -0.001331679               0.005825693               0.004494014               0.000000000               0.000000000               0.000000000               0.000000000               0.001578577               0.013081309               0.001295274              -0.001043195               0.004708124               0.003664929               0.000000000               0.000000000               0.000000000               0.000000000               0.001808523               0.010712352               0.000267570              -0.000660846               0.003791030               0.003130184               0.000000000               0.000000000               0.000000000               0.000000000               0.001659451               0.009381897              -0.000170305              -0.000550442               0.003310748               0.002760307               0.000000000               0.000000000               0.000000000               0.000000000               0.001411488               0.008551516              -0.000358537              -0.000539630               0.003030354               0.002490723               0.000000000               0.000000000               0.000000000               0.000000000               0.001154047               0.007990873              -0.000438060              -0.000566090               0.002852294               0.002286204               0.000000000               0.000000000               0.000000000               0.000000000               0.000918333               0.007585800              -0.000463736              -0.000603849               0.002729858               0.002126009               0.000000000               0.000000000               0.000000000               0.000000000               0.000714780               0.007271276              -0.000455469              -0.000640866               0.002637356               0.001996491               0.000000000               0.000000000               0.000000000               0.000000000               0.000547204               0.007010148              -0.000431009              -0.000671065               0.002560381               0.001889316               0.000000000               0.000000000               0.000000000               0.000000000               0.000408124               0.006781908              -0.000405286              -0.000694690               0.002492177               0.001797487               0.000000000               0.000000000               0.000000000               0.000000000               0.000287100               0.006577974              -0.000380241              -0.000714583               0.002430830               0.001716248               0.000000000               0.000000000               0.000000000               0.000000000               0.000187647               0.006390026              -0.000351278              -0.000728384               0.002372782               0.001644398               0.000000000               0.000000000               0.000000000               0.000000000               0.000112469               0.006207271              -0.000316920              -0.000733731               0.002313647               0.001579915               0.000000000               0.000000000               0.000000000               0.000000000               0.000058579               0.006023891              -0.000271682              -0.000731017               0.002251616               0.001520599               0.000000000               0.000000000               0.000000000               0.000000000               0.000024241               0.005840786              -0.000206194              -0.000721006               0.002187244               0.001466238               0.000000000               0.000000000               0.000000000               0.000000000               0.000005025               0.005659688              -0.000115082              -0.000705575               0.002121735               0.001416161               0.000000000               0.000000000               0.000000000               0.000000000              -0.000013225               0.005537765              -0.000067710              -0.000697178               0.002078296               0.001381118               0.000000000               0.000000000               0.000000000               0.000000000               0.002053485               0.014693660               0.003127507              -0.001066650               0.005253387               0.004186737               0.000000000               0.000000000               0.000000000               0.000000000               0.001491821               0.012128574               0.001755521              -0.000956637               0.004361696               0.003405059               0.000000000               0.000000000               0.000000000               0.000000000               0.001391867               0.010268810               0.000396773              -0.000761649               0.003676785               0.002915136               0.000000000               0.000000000               0.000000000               0.000000000               0.001132031               0.009186460              -0.000158020              -0.000723794               0.003303388               0.002579593               0.000000000               0.000000000               0.000000000               0.000000000               0.000872793               0.008482341              -0.000388112              -0.000732994               0.003071750               0.002338756               0.000000000               0.000000000               0.000000000               0.000000000               0.000650821               0.007984015              -0.000481611              -0.000753942               0.002912626               0.002158684               0.000000000               0.000000000               0.000000000               0.000000000               0.000469339               0.007601386              -0.000509907              -0.000774169               0.002791826               0.002017657               0.000000000               0.000000000               0.000000000               0.000000000               0.000325413               0.007290249              -0.000500265              -0.000789249               0.002693142               0.001903892               0.000000000               0.000000000               0.000000000               0.000000000               0.000213760               0.007027129              -0.000470987              -0.000798229               0.002608429               0.001810200               0.000000000               0.000000000               0.000000000               0.000000000               0.000125255               0.006798830              -0.000441230              -0.000802881               0.002533881               0.001731000               0.000000000               0.000000000               0.000000000               0.000000000               0.000052705               0.006598415              -0.000412761              -0.000805036               0.002467795               0.001662759               0.000000000               0.000000000               0.000000000               0.000000000              -0.000000971               0.006415560              -0.000375865              -0.000802307               0.002405934               0.001603627               0.000000000               0.000000000               0.000000000               0.000000000              -0.000032129               0.006240331              -0.000329568              -0.000792088               0.002344119               0.001552031               0.000000000               0.000000000               0.000000000               0.000000000              -0.000045743               0.006072433              -0.000274742              -0.000776206               0.002282859               0.001506654               0.000000000               0.000000000               0.000000000               0.000000000              -0.000043151               0.005923222              -0.000203666              -0.000756583               0.002226582               0.001469999               0.000000000               0.000000000               0.000000000               0.000000000              -0.000027772               0.005799672              -0.000110735              -0.000735372               0.002178328               0.001442957               0.000000000               0.000000000               0.000000000               0.000000000              -0.000024062               0.005730443              -0.000062925              -0.000725327               0.002151904               0.001426577               0.000000000               0.000000000               0.000000000               0.000000000               0.002217781               0.012905113               0.003593931              -0.000781472               0.004562151               0.003780679               0.000000000               0.000000000               0.000000000               0.000000000               0.001324563               0.010980728               0.002049874              -0.000875879               0.003952165               0.003076286               0.000000000               0.000000000               0.000000000               0.000000000               0.000871535               0.009736158               0.000540311              -0.000890192               0.003542084               0.002651892               0.000000000               0.000000000               0.000000000               0.000000000               0.000529478               0.008928346              -0.000048066              -0.000917487               0.003281914               0.002364428               0.000000000               0.000000000               0.000000000               0.000000000               0.000291060               0.008355621              -0.000285185              -0.000935303               0.003096947               0.002161644               0.000000000               0.000000000               0.000000000               0.000000000               0.000127309               0.007915937              -0.000379495              -0.000941749               0.002952536               0.002010787               0.000000000               0.000000000               0.000000000               0.000000000               0.000021504               0.007556314              -0.000410745              -0.000936473               0.002830904               0.001894431               0.000000000               0.000000000               0.000000000               0.000000000              -0.000048220               0.007248112              -0.000407543              -0.000924094               0.002724045               0.001799950               0.000000000               0.000000000               0.000000000               0.000000000              -0.000094569               0.006983274              -0.000385686              -0.000908370               0.002630525               0.001722154               0.000000000               0.000000000               0.000000000               0.000000000              -0.000125403               0.006757400              -0.000364011              -0.000891699               0.002549677               0.001657978               0.000000000               0.000000000               0.000000000               0.000000000              -0.000144791               0.006557103              -0.000343588              -0.000873933               0.002476990               0.001603058               0.000000000               0.000000000               0.000000000               0.000000000              -0.000147262               0.006374068              -0.000310302              -0.000851980               0.002408661               0.001556682               0.000000000               0.000000000               0.000000000               0.000000000              -0.000134364               0.006205685              -0.000264804              -0.000826095               0.002343906               0.001517811               0.000000000               0.000000000               0.000000000               0.000000000              -0.000113213               0.006058272              -0.000216161              -0.000799737               0.002285983               0.001486246               0.000000000               0.000000000               0.000000000               0.000000000              -0.000084031               0.005940373              -0.000157054              -0.000774056               0.002238123               0.001464067               0.000000000               0.000000000               0.000000000               0.000000000              -0.000045705               0.005859284              -0.000082876              -0.000749548               0.002202925               0.001453377               0.000000000               0.000000000               0.000000000               0.000000000              -0.000027695               0.005823321              -0.000045331              -0.000738299               0.002187187               0.001448888               0.000000000               0.000000000               0.000000000               0.000000000               0.002237285               0.010960079               0.003718882              -0.000531030               0.003830332               0.003299302               0.000000000               0.000000000               0.000000000               0.000000000               0.001069724               0.009752844               0.002194207              -0.000817959               0.003523568               0.002705609               0.000000000               0.000000000               0.000000000               0.000000000               0.000311765               0.009152123               0.000713375              -0.001027101               0.003393044               0.002365943               0.000000000               0.000000000               0.000000000               0.000000000              -0.000058869               0.008612438               0.000156035              -0.001098628               0.003236993               0.002138365               0.000000000               0.000000000               0.000000000               0.000000000              -0.000238296               0.008157856              -0.000069872              -0.001109090               0.003088955               0.001979865               0.000000000               0.000000000               0.000000000               0.000000000              -0.000318943               0.007770122              -0.000167153              -0.001090866               0.002953637               0.001862771               0.000000000               0.000000000               0.000000000               0.000000000              -0.000340602               0.007428731              -0.000209197              -0.001056314               0.002828324               0.001772009               0.000000000               0.000000000               0.000000000               0.000000000              -0.000337010               0.007123557              -0.000222989              -0.001016821               0.002713435               0.001696614               0.000000000               0.000000000               0.000000000               0.000000000              -0.000318987               0.006861832              -0.000223555              -0.000977347               0.002613037               0.001635690               0.000000000               0.000000000               0.000000000               0.000000000              -0.000289194               0.006637857              -0.000220840              -0.000938178               0.002525323               0.001587145               0.000000000               0.000000000               0.000000000               0.000000000              -0.000256229               0.006433285              -0.000215155              -0.000900244               0.002444488               0.001544244               0.000000000               0.000000000               0.000000000               0.000000000              -0.000215163               0.006247733              -0.000194604              -0.000861651               0.002369774               0.001508123               0.000000000               0.000000000               0.000000000               0.000000000              -0.000168103               0.006086603              -0.000161990              -0.000823862               0.002303468               0.001479606               0.000000000               0.000000000               0.000000000               0.000000000              -0.000122426               0.005953214              -0.000128135              -0.000790060               0.002247738               0.001457678               0.000000000               0.000000000               0.000000000               0.000000000              -0.000078047               0.005849105              -0.000087869              -0.000760404               0.002203150               0.001442746               0.000000000               0.000000000               0.000000000               0.000000000              -0.000036567               0.005775458              -0.000040964              -0.000735643               0.002170348               0.001434705               0.000000000               0.000000000               0.000000000               0.000000000              -0.000021144               0.005740993              -0.000019698              -0.000725551               0.002155495               0.001429944               0.000000000               0.000000000               0.000000000               0.000000000               0.002053085               0.009016631               0.003555255              -0.000357175               0.003124571               0.002767396               0.000000000               0.000000000               0.000000000               0.000000000               0.000736312               0.008537468               0.002224919              -0.000791066               0.003109482               0.002318416               0.000000000               0.000000000               0.000000000               0.000000000              -0.000217996               0.008544794               0.000921413              -0.001149845               0.003231518               0.002081673               0.000000000               0.000000000               0.000000000               0.000000000              -0.000551022               0.008238540               0.000430009              -0.001236448               0.003158302               0.001921854               0.000000000               0.000000000               0.000000000               0.000000000              -0.000641414               0.007884816               0.000212535              -0.001226129               0.003036955               0.001810826               0.000000000               0.000000000               0.000000000               0.000000000              -0.000630793               0.007541552               0.000100542              -0.001179238               0.002906905               0.001727667               0.000000000               0.000000000               0.000000000               0.000000000              -0.000577975               0.007219668               0.000035061              -0.001119196               0.002779597               0.001660401               0.000000000               0.000000000               0.000000000               0.000000000              -0.000508468               0.006930709              -0.000008872              -0.001057012               0.002662551               0.001605539               0.000000000               0.000000000               0.000000000               0.000000000              -0.000438682               0.006677659              -0.000041015              -0.000999211               0.002558934               0.001559724               0.000000000               0.000000000               0.000000000               0.000000000              -0.000365738               0.006453441              -0.000061522              -0.000943829               0.002465735               0.001521906               0.000000000               0.000000000               0.000000000               0.000000000              -0.000292340               0.006247327              -0.000072621              -0.000890541               0.002379269               0.001488727               0.000000000               0.000000000               0.000000000               0.000000000              -0.000221054               0.006059979              -0.000069536              -0.000840391               0.002300103               0.001459712               0.000000000               0.000000000               0.000000000               0.000000000              -0.000156131               0.005896427              -0.000054803              -0.000795601               0.002230656               0.001435055               0.000000000               0.000000000               0.000000000               0.000000000              -0.000102268               0.005758296              -0.000039917              -0.000758135               0.002172125               0.001413989               0.000000000               0.000000000               0.000000000               0.000000000              -0.000059798               0.005644198              -0.000021219              -0.000727947               0.002124029               0.001396082               0.000000000               0.000000000               0.000000000               0.000000000              -0.000025847               0.005554549              -0.000003082              -0.000704010               0.002086168               0.001382158               0.000000000               0.000000000               0.000000000               0.000000000              -0.000018257               0.005503540              -0.000001925              -0.000694787               0.002066091               0.001371304               0.000000000               0.000000000               0.000000000               0.000000000               0.001684351               0.007190762               0.003172987              -0.000267217               0.002485968               0.002218751               0.000000000               0.000000000               0.000000000               0.000000000               0.000350565               0.007405841               0.002177065              -0.000794268               0.002733344               0.001939076               0.000000000               0.000000000               0.000000000               0.000000000              -0.000661483               0.007927740               0.001161904              -0.001239021               0.003055560               0.001816540               0.000000000               0.000000000               0.000000000               0.000000000              -0.000898383               0.007808204               0.000735939              -0.001312916               0.003040347               0.001727431               0.000000000               0.000000000               0.000000000               0.000000000              -0.000886547               0.007541319               0.000510900              -0.001275117               0.002938787               0.001663670               0.000000000               0.000000000               0.000000000               0.000000000              -0.000791986               0.007243042               0.000368004              -0.001202372               0.002815114               0.001612742               0.000000000               0.000000000               0.000000000               0.000000000              -0.000677331               0.006951720               0.000265279              -0.001122962               0.002691537               0.001568576               0.000000000               0.000000000               0.000000000               0.000000000              -0.000564677               0.006686555               0.000187448              -0.001047571               0.002578020               0.001530449               0.000000000               0.000000000               0.000000000               0.000000000              -0.000461371               0.006444630               0.000126079              -0.000978590               0.002474385               0.001495795               0.000000000               0.000000000               0.000000000               0.000000000              -0.000364464               0.006221975               0.000082393              -0.000914418               0.002378777               0.001464359               0.000000000               0.000000000               0.000000000               0.000000000              -0.000271453               0.006016739               0.000055036              -0.000853885               0.002290188               0.001436303               0.000000000               0.000000000               0.000000000               0.000000000              -0.000192123               0.005824336               0.000040182              -0.000800086               0.002208121               0.001408035               0.000000000               0.000000000               0.000000000               0.000000000              -0.000130782               0.005652314               0.000033241              -0.000755580               0.002135946               0.001380365               0.000000000               0.000000000               0.000000000               0.000000000              -0.000079312               0.005507458               0.000024619              -0.000718173               0.002075192               0.001357019               0.000000000               0.000000000               0.000000000               0.000000000              -0.000038921               0.005386664               0.000016369              -0.000687927               0.002024846               0.001336919               0.000000000               0.000000000               0.000000000               0.000000000              -0.000015109               0.005288982               0.000009678              -0.000666787               0.001985239               0.001318452               0.000000000               0.000000000               0.000000000               0.000000000              -0.000014688               0.005230471              -0.000000083              -0.000659315               0.001963245               0.001303929               0.000000000               0.000000000               0.000000000               0.000000000               0.001217729               0.005617721               0.002655892              -0.000245569               0.001954410               0.001708841               0.000000000               0.000000000               0.000000000               0.000000000              -0.000007437               0.006389310               0.002097189              -0.000801452               0.002396899               0.001595446               0.000000000               0.000000000               0.000000000               0.000000000              -0.000970601               0.007328428               0.001441964              -0.001280026               0.002869460               0.001589434               0.000000000               0.000000000               0.000000000               0.000000000              -0.001103943               0.007396119               0.001059549              -0.001338491               0.002911512               0.001573021               0.000000000               0.000000000               0.000000000               0.000000000              -0.001010365               0.007230405               0.000810158              -0.001282685               0.002837672               0.001554988               0.000000000               0.000000000               0.000000000               0.000000000              -0.000854043               0.006992866               0.000627425              -0.001194371               0.002729056               0.001534684               0.000000000               0.000000000               0.000000000               0.000000000              -0.000695822               0.006741753               0.000487406              -0.001103650               0.002615112               0.001511462               0.000000000               0.000000000               0.000000000               0.000000000              -0.000553255               0.006501748               0.000378002              -0.001020187               0.002507290               0.001487103               0.000000000               0.000000000               0.000000000               0.000000000              -0.000430431               0.006273644               0.000290891              -0.000945615               0.002406398               0.001460784               0.000000000               0.000000000               0.000000000               0.000000000              -0.000325277               0.006055369               0.000223925              -0.000878898               0.002311402               0.001432504               0.000000000               0.000000000               0.000000000               0.000000000              -0.000228002               0.005846531               0.000175547              -0.000816315               0.002220929               0.001404614               0.000000000               0.000000000               0.000000000               0.000000000              -0.000151805               0.005646895               0.000138113              -0.000762787               0.002136542               0.001373755               0.000000000               0.000000000               0.000000000               0.000000000              -0.000098893               0.005471526               0.000104708              -0.000721024               0.002064165               0.001343141               0.000000000               0.000000000               0.000000000               0.000000000              -0.000058806               0.005326926               0.000069684              -0.000687916               0.002004930               0.001317014               0.000000000               0.000000000               0.000000000               0.000000000              -0.000036842               0.005206338               0.000037490              -0.000664606               0.001956964               0.001292358               0.000000000               0.000000000               0.000000000               0.000000000              -0.000036226               0.005108170               0.000015098              -0.000652104               0.001920074               0.001267970               0.000000000               0.000000000               0.000000000               0.000000000              -0.000042750               0.005056569               0.000003893              -0.000648101               0.001901540               0.001253439               0.000000000               0.000000000               0.000000000               0.000000000               0.000630804               0.004134391               0.002084209              -0.000280249               0.001471532               0.001191283               0.000000000               0.000000000               0.000000000               0.000000000              -0.000276808               0.005217608               0.001999804              -0.000756004               0.001991186               0.001235182               0.000000000               0.000000000               0.000000000               0.000000000              -0.001093898               0.006452865               0.001747966              -0.001216817               0.002556539               0.001339721               0.000000000               0.000000000               0.000000000               0.000000000              -0.001178256               0.006778156               0.001418063              -0.001289113               0.002689067               0.001399954               0.000000000               0.000000000               0.000000000               0.000000000              -0.001067863               0.006783770               0.001145128              -0.001248417               0.002677373               0.001428956               0.000000000               0.000000000               0.000000000               0.000000000              -0.000897220               0.006665830               0.000926397              -0.001169684               0.002611816               0.001442132               0.000000000               0.000000000               0.000000000               0.000000000              -0.000721823               0.006500775               0.000751797              -0.001083278               0.002527996               0.001444718               0.000000000               0.000000000               0.000000000               0.000000000              -0.000566560               0.006322973               0.000610532              -0.001002829               0.002441913               0.001439084               0.000000000               0.000000000               0.000000000               0.000000000              -0.000434815               0.006144281               0.000492490              -0.000931089               0.002358436               0.001427347               0.000000000               0.000000000               0.000000000               0.000000000              -0.000328392               0.005961948               0.000397961              -0.000868388               0.002276759               0.001408370               0.000000000               0.000000000               0.000000000               0.000000000              -0.000239544               0.005773280               0.000320835              -0.000811487               0.002194903               0.001383416               0.000000000               0.000000000               0.000000000               0.000000000              -0.000168626               0.005585989               0.000249643              -0.000761482               0.002115805               0.001354323               0.000000000               0.000000000               0.000000000               0.000000000              -0.000122955               0.005414082               0.000185061              -0.000722867               0.002045631               0.001322765               0.000000000               0.000000000               0.000000000               0.000000000              -0.000096071               0.005265983               0.000123836              -0.000694273               0.001986734               0.001292462               0.000000000               0.000000000               0.000000000               0.000000000              -0.000081701               0.005147849               0.000067594              -0.000674117               0.001940638               0.001266521               0.000000000               0.000000000               0.000000000               0.000000000              -0.000086503               0.005052619               0.000025755              -0.000664014               0.001905527               0.001241513               0.000000000               0.000000000               0.000000000               0.000000000              -0.000097080               0.005005260               0.000008129              -0.000662061               0.001889090               0.001227030               0.000000000               0.000000000               0.000000000               0.000000000              -0.000178738               0.002776768               0.001488493              -0.000414123               0.001063621               0.000649497               0.000000000               0.000000000               0.000000000               0.000000000              -0.000582864               0.004045999               0.001839018              -0.000724323               0.001590093               0.000865770               0.000000000               0.000000000               0.000000000               0.000000000              -0.001133056               0.005454552               0.001984844              -0.001106713               0.002187069               0.001080356               0.000000000               0.000000000               0.000000000               0.000000000              -0.001175075               0.006024916               0.001757235              -0.001193765               0.002406206               0.001212441               0.000000000               0.000000000               0.000000000               0.000000000              -0.001066410               0.006227750               0.001489485              -0.001178370               0.002468686               0.001290315               0.000000000               0.000000000               0.000000000               0.000000000              -0.000903377               0.006258561               0.001252692              -0.001121084               0.002459861               0.001338776               0.000000000               0.000000000               0.000000000               0.000000000              -0.000726809               0.006206727               0.001051992              -0.001048392               0.002418352               0.001369960               0.000000000               0.000000000               0.000000000               0.000000000              -0.000565386               0.006116144               0.000882298              -0.000976536               0.002364206               0.001387670               0.000000000               0.000000000               0.000000000               0.000000000              -0.000426191               0.006003262               0.000738140              -0.000910227               0.002304476               0.001394249               0.000000000               0.000000000               0.000000000               0.000000000              -0.000315440               0.005868918               0.000617409              -0.000851903               0.002240254               0.001388351               0.000000000               0.000000000               0.000000000               0.000000000              -0.000232478               0.005718091               0.000511769              -0.000801939               0.002173324               0.001371385               0.000000000               0.000000000               0.000000000               0.000000000              -0.000164763               0.005562736               0.000409924              -0.000757126               0.002106602               0.001349476               0.000000000               0.000000000               0.000000000               0.000000000              -0.000117109               0.005405250               0.000313476              -0.000719570               0.002041589               0.001322018               0.000000000               0.000000000               0.000000000               0.000000000              -0.000093611               0.005260199               0.000224560              -0.000692627               0.001984258               0.001291631               0.000000000               0.000000000               0.000000000               0.000000000              -0.000085389               0.005145171               0.000140425              -0.000675165               0.001940095               0.001264930               0.000000000               0.000000000               0.000000000               0.000000000              -0.000099002               0.005051078               0.000063389              -0.000668509               0.001906512               0.001238003               0.000000000               0.000000000               0.000000000               0.000000000              -0.000121873               0.005001049               0.000024529              -0.000670832               0.001890610               0.001219778               0.000000000               0.000000000               0.000000000               0.000000000              -0.001150616               0.001635479               0.000908372              -0.000635915               0.000757125               0.000121210               0.000000000               0.000000000               0.000000000               0.000000000              -0.000974483               0.002936917               0.001586246              -0.000732545               0.001223143               0.000490599               0.000000000               0.000000000               0.000000000               0.000000000              -0.001130221               0.004346452               0.002058489              -0.000967138               0.001771181               0.000804043               0.000000000               0.000000000               0.000000000               0.000000000              -0.001079193               0.005088804               0.001967073              -0.001040796               0.002043182               0.001002386               0.000000000               0.000000000               0.000000000               0.000000000              -0.000960177               0.005476093               0.001746513              -0.001044576               0.002173538               0.001128961               0.000000000               0.000000000               0.000000000               0.000000000              -0.000811251               0.005669420               0.001518134              -0.001012895               0.002227419               0.001214524               0.000000000               0.000000000               0.000000000               0.000000000              -0.000650811               0.005748135               0.001309808              -0.000962569               0.002236882               0.001274313               0.000000000               0.000000000               0.000000000               0.000000000              -0.000495258               0.005760202               0.001127768              -0.000905745               0.002221963               0.001316218               0.000000000               0.000000000               0.000000000               0.000000000              -0.000354680               0.005731240               0.000968229              -0.000849408               0.002193530               0.001344122               0.000000000               0.000000000               0.000000000               0.000000000              -0.000240315               0.005664173               0.000828695              -0.000798138               0.002154085               0.001355947               0.000000000               0.000000000               0.000000000               0.000000000              -0.000154290               0.005569243               0.000706031              -0.000754012               0.002107733               0.001353721               0.000000000               0.000000000               0.000000000               0.000000000              -0.000085791               0.005458734               0.000587807              -0.000714512               0.002057730               0.001343219               0.000000000               0.000000000               0.000000000               0.000000000              -0.000032668               0.005337822               0.000467709              -0.000679477               0.002005748               0.001326272               0.000000000               0.000000000               0.000000000               0.000000000              -0.000003280               0.005222528               0.000349728              -0.000654044               0.001958840               0.001304796               0.000000000               0.000000000               0.000000000               0.000000000               0.000000692               0.005126241               0.000234223              -0.000640519               0.001922236               0.001281717               0.000000000               0.000000000               0.000000000               0.000000000              -0.000026751               0.005042628               0.000116311              -0.000640359               0.001894312               0.001253954               0.000000000               0.000000000               0.000000000               0.000000000              -0.000064235               0.004992812               0.000051841              -0.000648188               0.001880317               0.001232129               0.000000000               0.000000000               0.000000000               0.000000000              -0.002204506               0.000771930               0.000412981              -0.000923180               0.000565032              -0.000358147               0.000000000               0.000000000               0.000000000               0.000000000              -0.001424880               0.001951129               0.001266869              -0.000778220               0.000909776               0.000131556               0.000000000               0.000000000               0.000000000               0.000000000              -0.001105483               0.003215500               0.001946886              -0.000816493               0.001343986               0.000527493               0.000000000               0.000000000               0.000000000               0.000000000              -0.000904858               0.004044080               0.001986202              -0.000844831               0.001629623               0.000784792               0.000000000               0.000000000               0.000000000               0.000000000              -0.000750225               0.004576663               0.001837799              -0.000853416               0.001810011               0.000956594               0.000000000               0.000000000               0.000000000               0.000000000              -0.000612401               0.004918570               0.001645403              -0.000844471               0.001920997               0.001076526               0.000000000               0.000000000               0.000000000               0.000000000              -0.000473303               0.005133147               0.001454080              -0.000819131               0.001984075               0.001164944               0.000000000               0.000000000               0.000000000               0.000000000              -0.000335785               0.005257952               0.001279461              -0.000783162               0.002013687               0.001230525               0.000000000               0.000000000               0.000000000               0.000000000              -0.000210812               0.005321392               0.001120422              -0.000744227               0.002021855               0.001277628               0.000000000               0.000000000               0.000000000               0.000000000              -0.000098905               0.005338659               0.000977817              -0.000704420               0.002014342               0.001309922               0.000000000               0.000000000               0.000000000               0.000000000              -0.000004580               0.005316411               0.000851979              -0.000666267               0.001994208               0.001327941               0.000000000               0.000000000               0.000000000               0.000000000               0.000070650               0.005265702               0.000732323              -0.000631718               0.001965789               0.001334071               0.000000000               0.000000000               0.000000000               0.000000000               0.000135550               0.005205327               0.000606396              -0.000599833               0.001935036               0.001335203               0.000000000               0.000000000               0.000000000               0.000000000               0.000185335               0.005141623               0.000472855              -0.000573201               0.001904924               0.001331723               0.000000000               0.000000000               0.000000000               0.000000000               0.000207833               0.005081389               0.000330583              -0.000557235               0.001879524               0.001322290               0.000000000               0.000000000               0.000000000               0.000000000               0.000190473               0.005025148               0.000171127              -0.000556715               0.001860604               0.001303889               0.000000000               0.000000000               0.000000000               0.000000000               0.000153786               0.004986794               0.000082267              -0.000565678               0.001850807               0.001285129               0.000000000               0.000000000               0.000000000               0.000000000              -0.003231483               0.000185007               0.000065213              -0.001234931               0.000473310              -0.000761621               0.000000000               0.000000000               0.000000000               0.000000000              -0.001892127               0.001143953               0.000918654              -0.000852541               0.000665493              -0.000187048               0.000000000               0.000000000               0.000000000               0.000000000              -0.001081287               0.002169402               0.001647848              -0.000676657               0.000948678               0.000272021               0.000000000               0.000000000               0.000000000               0.000000000              -0.000693587               0.003003530               0.001776410              -0.000635536               0.001213011               0.000577475               0.000000000               0.000000000               0.000000000               0.000000000              -0.000477825               0.003627947               0.001700062              -0.000632677               0.001420195               0.000787518               0.000000000               0.000000000               0.000000000               0.000000000              -0.000335281               0.004089630               0.001561501              -0.000636934               0.001575507               0.000938573               0.000000000               0.000000000               0.000000000               0.000000000              -0.000215509               0.004428644               0.001410268              -0.000634396               0.001687665               0.001053269               0.000000000               0.000000000               0.000000000               0.000000000              -0.000104810               0.004666832               0.001261470              -0.000622657               0.001763147               0.001140490               0.000000000               0.000000000               0.000000000               0.000000000              -0.000001102               0.004825435               0.001122605              -0.000603592               0.001809659               0.001206068               0.000000000               0.000000000               0.000000000               0.000000000               0.000098167               0.004927809               0.000998871              -0.000579162               0.001835640               0.001256478               0.000000000               0.000000000               0.000000000               0.000000000               0.000193084               0.004989756               0.000885934              -0.000551312               0.001847006               0.001295694               0.000000000               0.000000000               0.000000000               0.000000000               0.000280673               0.005020660               0.000779045              -0.000522329               0.001847646               0.001325317               0.000000000               0.000000000               0.000000000               0.000000000               0.000365375               0.005031407               0.000668906              -0.000491909               0.001841088               0.001349179               0.000000000               0.000000000               0.000000000               0.000000000               0.000447977               0.005026126               0.000543558              -0.000460273               0.001828783               0.001368510               0.000000000               0.000000000               0.000000000               0.000000000               0.000517564               0.005012972               0.000395591              -0.000432534               0.001815152               0.001382618               0.000000000               0.000000000               0.000000000               0.000000000               0.000559198               0.004995268               0.000213444              -0.000414708               0.001803309               0.001388601               0.000000000               0.000000000               0.000000000               0.000000000               0.000565887               0.004979764               0.000110611              -0.000410262               0.001796659               0.001386397               0.000000000               0.000000000               0.000000000               0.000000000              -0.004102102              -0.000165206              -0.000100725              -0.001517636               0.000450807              -0.001066829               0.000000000               0.000000000               0.000000000               0.000000000              -0.002310470               0.000554513               0.000580493              -0.000935739               0.000496747              -0.000438992               0.000000000               0.000000000               0.000000000               0.000000000              -0.001070683               0.001322534               0.001188810              -0.000566822               0.000629780               0.000062958               0.000000000               0.000000000               0.000000000               0.000000000              -0.000495592               0.002112312               0.001337271              -0.000449886               0.000854058               0.000404172               0.000000000               0.000000000               0.000000000               0.000000000              -0.000205774               0.002783106               0.001313676              -0.000425053               0.001069377               0.000644323               0.000000000               0.000000000               0.000000000               0.000000000              -0.000042849               0.003326873               0.001232010              -0.000431927               0.001252922               0.000820995               0.000000000               0.000000000               0.000000000               0.000000000               0.000062453               0.003758501               0.001130076              -0.000446392               0.001401618               0.000955226               0.000000000               0.000000000               0.000000000               0.000000000               0.000146454               0.004088692               0.001023860              -0.000456166               0.001514939               0.001058773               0.000000000               0.000000000               0.000000000               0.000000000               0.000228561               0.004334813               0.000923224              -0.000456140               0.001596970               0.001140829               0.000000000               0.000000000               0.000000000               0.000000000               0.000312985               0.004518393               0.000832075              -0.000447429               0.001655259               0.001207830               0.000000000               0.000000000               0.000000000               0.000000000               0.000400508               0.004658489               0.000748672              -0.000432120               0.001696854               0.001264734               0.000000000               0.000000000               0.000000000               0.000000000               0.000499335               0.004768035               0.000670357              -0.000408753               0.001725580               0.001316827               0.000000000               0.000000000               0.000000000               0.000000000               0.000608607               0.004850938               0.000591254              -0.000378139               0.001743009               0.001364870               0.000000000               0.000000000               0.000000000               0.000000000               0.000733996               0.004910987               0.000498163              -0.000338624               0.001749854               0.001411230               0.000000000               0.000000000               0.000000000               0.000000000               0.000872465               0.004951294               0.000375953              -0.000291737               0.001747660               0.001455924               0.000000000               0.000000000               0.000000000               0.000000000               0.001017402               0.004970135               0.000209914              -0.000239741               0.001736609               0.001496868               0.000000000               0.000000000               0.000000000               0.000000000               0.001117196               0.004981131               0.000116407              -0.000203692               0.001728258               0.001524565               0.000000000               0.000000000               0.000000000               0.000000000              -0.004688230              -0.000342360              -0.000099422              -0.001715290               0.000457641              -0.001257650               0.000000000               0.000000000               0.000000000               0.000000000              -0.002601036               0.000198784               0.000276409              -0.001000235               0.000399670              -0.000600565               0.000000000               0.000000000               0.000000000               0.000000000              -0.001068304               0.000775536               0.000621324              -0.000497555               0.000424360              -0.000073195               0.000000000               0.000000000               0.000000000               0.000000000              -0.000358212               0.001512516               0.000718677              -0.000323394               0.000611965               0.000288571               0.000000000               0.000000000               0.000000000               0.000000000              -0.000005994               0.002197656               0.000717438              -0.000276954               0.000824863               0.000547908               0.000000000               0.000000000               0.000000000               0.000000000               0.000177343               0.002784022               0.000680542              -0.000281499               0.001021831               0.000740332               0.000000000               0.000000000               0.000000000               0.000000000               0.000278236               0.003268634               0.000629998              -0.000304240               0.001190947               0.000886707               0.000000000               0.000000000               0.000000000               0.000000000               0.000346653               0.003660105               0.000576041              -0.000327518               0.001329195               0.001001677               0.000000000               0.000000000               0.000000000               0.000000000               0.000407838               0.003969539               0.000523410              -0.000343253               0.001437584               0.001094331               0.000000000               0.000000000               0.000000000               0.000000000               0.000476772               0.004212955               0.000473624              -0.000347829               0.001520247               0.001172418               0.000000000               0.000000000               0.000000000               0.000000000               0.000561103               0.004409749               0.000430088              -0.000340804               0.001583503               0.001242699               0.000000000               0.000000000               0.000000000               0.000000000               0.000667612               0.004575456               0.000390539              -0.000321577               0.001632329               0.001310752               0.000000000               0.000000000               0.000000000               0.000000000               0.000799679               0.004717121               0.000351206              -0.000289760               0.001668945               0.001379185               0.000000000               0.000000000               0.000000000               0.000000000               0.000961824               0.004830436               0.000303346              -0.000243120               0.001691169               0.001448049               0.000000000               0.000000000               0.000000000               0.000000000               0.001163512               0.004910304               0.000233158              -0.000177471               0.001695908               0.001518438               0.000000000               0.000000000               0.000000000               0.000000000               0.001418315               0.004952800               0.000131749              -0.000087232               0.001679994               0.001592762               0.000000000               0.000000000               0.000000000               0.000000000               0.001627050               0.004986315               0.000075448              -0.000013146               0.001666470               0.001653325               0.000000000               0.000000000               0.000000000               0.000000000               0.000000000               0.000000000               0.000000000               0.000000000               0.000000000               0.000000000               0.000000000               0.000000000               0.000000000               0.000000000               0.000000000               0.000000000               0.000000000               0.000000000               0.000000000               0.000000000               0.000000000               0.000000000               0.000000000               0.000000000               0.000000000               0.000000000               0.000000000               0.000000000               0.000000000               0.000000000               0.000000000               0.000000000               0.000000000               0.000000000               0.000000000               0.000000000               0.000000000               0.000000000               0.000000000               0.000000000               0.000000000               0.000000000               0.000000000               0.000000000               0.000000000               0.000000000               0.000000000               0.000000000               0.000000000               0.000000000               0.000000000               0.000000000               0.000000000               0.000000000               0.000000000               0.000000000               0.000000000               0.000000000               0.000000000               0.000000000               0.000000000               0.000000000               0.000000000               0.000000000               0.000000000               0.000000000               0.000000000               0.000000000               0.000000000               0.000000000               0.000000000               0.000000000               0.000000000               0.000000000               0.000000000               0.000000000               0.000000000               0.000000000               0.000000000               0.000000000               0.000000000               0.000000000               0.000000000               0.000000000               0.000000000               0.000000000               0.000000000               0.000000000               0.000000000               0.000000000               0.000000000               0.000000000               0.000000000               0.000000000               0.000000000               0.000000000               0.000000000               0.000000000               0.000000000               0.000000000               0.000000000               0.000000000               0.000000000               0.000000000               0.000000000               0.000000000               0.000000000               0.000000000               0.000000000               0.000000000               0.000000000               0.000000000               0.000000000               0.000000000               0.000000000               0.000000000               0.000000000               0.000000000               0.000000000               0.000000000               0.000000000               0.000000000               0.000000000               0.000000000               0.000000000               0.000000000               0.000000000               0.000000000               0.000000000               0.000000000               0.000000000               0.000000000               0.000000000               0.000000000               0.000000000               0.000000000               0.000000000               0.000000000               0.000000000               0.000000000               0.000000000               0.000000000               0.000000000               0.000000000               0.000000000               0.000000000               0.000000000               0.000000000               0.000000000               0.000000000               0.000000000               0.000000000               0.000000000               0.000000000               0.000000000               0.000000000               0.000000000               0.000000000               0.000000000               0.000000000               0.000000000               0.000000000               0.000000000               0.000000000               0.000000000               0.000000000               0.000000000               0.000000000               0.000000000               0.000000000               0.000000000               0.000000000               0.000000000               0.000000000 </DataArray>
</PointData>
</Piece>
</UnstructuredGrid> </VTKFile>
