<?xml version="1.0"?>
<VTKFile type="UnstructuredGrid" version="0.1">
<UnstructuredGrid>
<Piece NumberOfPoints="      1156" NumberOfCells="      1024">
<Points>
<DataArray type="Float64"                                    Name="coordinates"                                                      NumberOfComponents=" 3" format="ascii">
              0.133000000               0.000000000               0.000000000               0.155937500               0.000000000               0.000000000               0.178875000               0.000000000               0.000000000               0.201812500               0.000000000               0.000000000               0.224750000               0.000000000               0.000000000               0.247687500               0.000000000               0.000000000               0.270625000               0.000000000               0.000000000               0.293562500               0.000000000               0.000000000               0.316500000               0.000000000               0.000000000               0.339437500               0.000000000               0.000000000               0.362375000               0.000000000               0.000000000               0.385312500               0.000000000               0.000000000               0.408250000               0.000000000               0.000000000               0.431187500               0.000000000               0.000000000               0.454125000               0.000000000               0.000000000               0.477062500               0.000000000               0.000000000               0.500000000               0.000000000               0.000000000               0.132359569               0.013036280               0.000000000               0.155337096               0.016127762               0.000000000               0.178314623               0.019219245               0.000000000               0.201292150               0.022310727               0.000000000               0.224269676               0.025402210               0.000000000               0.247247203               0.028493692               0.000000000               0.270224730               0.031585175               0.000000000               0.293202257               0.034676657               0.000000000               0.316179784               0.037768140               0.000000000               0.339157311               0.040859622               0.000000000               0.362134838               0.043951105               0.000000000               0.385112365               0.047042587               0.000000000               0.408089892               0.050134070               0.000000000               0.431067419               0.053225552               0.000000000               0.454044946               0.056317035               0.000000000               0.477022473               0.059408517               0.000000000               0.500000000               0.062500000               0.000000000               0.130444442               0.025947013               0.000000000               0.153541665               0.032137825               0.000000000               0.176638887               0.038328636               0.000000000               0.199736109               0.044519448               0.000000000               0.222833332               0.050710260               0.000000000               0.245930554               0.056901071               0.000000000               0.269027776               0.063091883               0.000000000               0.292124999               0.069282695               0.000000000               0.315222221               0.075473506               0.000000000               0.338319444               0.081664318               0.000000000               0.361416666               0.087855130               0.000000000               0.384513888               0.094045942               0.000000000               0.407611111               0.100236753               0.000000000               0.430708333               0.106427565               0.000000000               0.453805555               0.112618377               0.000000000               0.476902778               0.118809188               0.000000000               0.500000000               0.125000000               0.000000000               0.127273065               0.038607862               0.000000000               0.150568498               0.047913621               0.000000000               0.173863932               0.057219379               0.000000000               0.197159365               0.066525138               0.000000000               0.220454798               0.075830897               0.000000000               0.243750232               0.085136655               0.000000000               0.267045665               0.094442414               0.000000000               0.290341099               0.103748172               0.000000000               0.313636532               0.113053931               0.000000000               0.336931966               0.122359690               0.000000000               0.360227399               0.131665448               0.000000000               0.383522833               0.140971207               0.000000000               0.406818266               0.150276966               0.000000000               0.430113700               0.159582724               0.000000000               0.453409133               0.168888483               0.000000000               0.476704567               0.178194241               0.000000000               0.500000000               0.187500000               0.000000000               0.122875978               0.050896897               0.000000000               0.146446229               0.063340840               0.000000000               0.170016481               0.075784784               0.000000000               0.193586732               0.088228728               0.000000000               0.217156983               0.100672672               0.000000000               0.240727235               0.113116616               0.000000000               0.264297486               0.125560560               0.000000000               0.287867738               0.138004504               0.000000000               0.311437989               0.150448448               0.000000000               0.335008240               0.162892392               0.000000000               0.358578492               0.175336336               0.000000000               0.382148743               0.187780280               0.000000000               0.405718994               0.200224224               0.000000000               0.429289246               0.212668168               0.000000000               0.452859497               0.225112112               0.000000000               0.476429749               0.237556056               0.000000000               0.500000000               0.250000000               0.000000000               0.117295528               0.062695766               0.000000000               0.141214558               0.078308531               0.000000000               0.165133587               0.093921295               0.000000000               0.189052617               0.109534060               0.000000000               0.212971646               0.125146824               0.000000000               0.236890676               0.140759589               0.000000000               0.260809705               0.156372354               0.000000000               0.284728735               0.171985118               0.000000000               0.308647764               0.187597883               0.000000000               0.332566794               0.203210648               0.000000000               0.356485823               0.218823412               0.000000000               0.380404853               0.234436177               0.000000000               0.404323882               0.250048941               0.000000000               0.428242912               0.265661706               0.000000000               0.452161941               0.281274471               0.000000000               0.476080971               0.296887235               0.000000000               0.500000000               0.312500000               0.000000000               0.110585458               0.073890841               0.000000000               0.134923867               0.092710163               0.000000000               0.159262276               0.111529486               0.000000000               0.183600685               0.130348808               0.000000000               0.207939094               0.149168131               0.000000000               0.232277503               0.167987453               0.000000000               0.256615912               0.186806776               0.000000000               0.280954320               0.205626098               0.000000000               0.305292729               0.224445420               0.000000000               0.329631138               0.243264743               0.000000000               0.353969547               0.262084065               0.000000000               0.378307956               0.280903388               0.000000000               0.402646365               0.299722710               0.000000000               0.426984773               0.318542033               0.000000000               0.451323182               0.337361355               0.000000000               0.475661591               0.356180678               0.000000000               0.500000000               0.375000000               0.000000000               0.102810390               0.084374307               0.000000000               0.127634741               0.106444663               0.000000000               0.152459092               0.128515018               0.000000000               0.177283442               0.150585374               0.000000000               0.202107793               0.172655730               0.000000000               0.226932143               0.194726086               0.000000000               0.251756494               0.216796442               0.000000000               0.276580845               0.238866798               0.000000000               0.301405195               0.260937153               0.000000000               0.326229546               0.283007509               0.000000000               0.351053896               0.305077865               0.000000000               0.375878247               0.327148221               0.000000000               0.400702598               0.349218577               0.000000000               0.425526948               0.371288933               0.000000000               0.450351299               0.393359288               0.000000000               0.475175649               0.415429644               0.000000000               0.500000000               0.437500000               0.000000000               0.094045202               0.094045202               0.000000000               0.119417377               0.119417377               0.000000000               0.144789552               0.144789552               0.000000000               0.170161727               0.170161727               0.000000000               0.195533901               0.195533901               0.000000000               0.220906076               0.220906076               0.000000000               0.246278251               0.246278251               0.000000000               0.271650426               0.271650426               0.000000000               0.297022601               0.297022601               0.000000000               0.322394776               0.322394776               0.000000000               0.347766951               0.347766951               0.000000000               0.373139126               0.373139126               0.000000000               0.398511300               0.398511300               0.000000000               0.423883475               0.423883475               0.000000000               0.449255650               0.449255650               0.000000000               0.474627825               0.474627825               0.000000000               0.500000000               0.500000000               0.000000000               0.084374307               0.102810390               0.000000000               0.106444663               0.127634741               0.000000000               0.128515018               0.152459092               0.000000000               0.150585374               0.177283442               0.000000000               0.172655730               0.202107793               0.000000000               0.194726086               0.226932143               0.000000000               0.216796442               0.251756494               0.000000000               0.238866798               0.276580845               0.000000000               0.260937153               0.301405195               0.000000000               0.283007509               0.326229546               0.000000000               0.305077865               0.351053896               0.000000000               0.327148221               0.375878247               0.000000000               0.349218577               0.400702598               0.000000000               0.371288933               0.425526948               0.000000000               0.393359288               0.450351299               0.000000000               0.415429644               0.475175649               0.000000000               0.437500000               0.500000000               0.000000000               0.073890841               0.110585458               0.000000000               0.092710163               0.134923867               0.000000000               0.111529486               0.159262276               0.000000000               0.130348808               0.183600685               0.000000000               0.149168131               0.207939094               0.000000000               0.167987453               0.232277503               0.000000000               0.186806776               0.256615912               0.000000000               0.205626098               0.280954320               0.000000000               0.224445420               0.305292729               0.000000000               0.243264743               0.329631138               0.000000000               0.262084065               0.353969547               0.000000000               0.280903388               0.378307956               0.000000000               0.299722710               0.402646365               0.000000000               0.318542033               0.426984773               0.000000000               0.337361355               0.451323182               0.000000000               0.356180678               0.475661591               0.000000000               0.375000000               0.500000000               0.000000000               0.062695766               0.117295528               0.000000000               0.078308531               0.141214558               0.000000000               0.093921295               0.165133587               0.000000000               0.109534060               0.189052617               0.000000000               0.125146824               0.212971646               0.000000000               0.140759589               0.236890676               0.000000000               0.156372354               0.260809705               0.000000000               0.171985118               0.284728735               0.000000000               0.187597883               0.308647764               0.000000000               0.203210648               0.332566794               0.000000000               0.218823412               0.356485823               0.000000000               0.234436177               0.380404853               0.000000000               0.250048941               0.404323882               0.000000000               0.265661706               0.428242912               0.000000000               0.281274471               0.452161941               0.000000000               0.296887235               0.476080971               0.000000000               0.312500000               0.500000000               0.000000000               0.050896897               0.122875978               0.000000000               0.063340840               0.146446229               0.000000000               0.075784784               0.170016481               0.000000000               0.088228728               0.193586732               0.000000000               0.100672672               0.217156983               0.000000000               0.113116616               0.240727235               0.000000000               0.125560560               0.264297486               0.000000000               0.138004504               0.287867738               0.000000000               0.150448448               0.311437989               0.000000000               0.162892392               0.335008240               0.000000000               0.175336336               0.358578492               0.000000000               0.187780280               0.382148743               0.000000000               0.200224224               0.405718994               0.000000000               0.212668168               0.429289246               0.000000000               0.225112112               0.452859497               0.000000000               0.237556056               0.476429749               0.000000000               0.250000000               0.500000000               0.000000000               0.038607862               0.127273065               0.000000000               0.047913621               0.150568498               0.000000000               0.057219379               0.173863932               0.000000000               0.066525138               0.197159365               0.000000000               0.075830897               0.220454798               0.000000000               0.085136655               0.243750232               0.000000000               0.094442414               0.267045665               0.000000000               0.103748172               0.290341099               0.000000000               0.113053931               0.313636532               0.000000000               0.122359690               0.336931966               0.000000000               0.131665448               0.360227399               0.000000000               0.140971207               0.383522833               0.000000000               0.150276966               0.406818266               0.000000000               0.159582724               0.430113700               0.000000000               0.168888483               0.453409133               0.000000000               0.178194241               0.476704567               0.000000000               0.187500000               0.500000000               0.000000000               0.025947013               0.130444442               0.000000000               0.032137825               0.153541665               0.000000000               0.038328636               0.176638887               0.000000000               0.044519448               0.199736109               0.000000000               0.050710260               0.222833332               0.000000000               0.056901071               0.245930554               0.000000000               0.063091883               0.269027776               0.000000000               0.069282695               0.292124999               0.000000000               0.075473506               0.315222221               0.000000000               0.081664318               0.338319444               0.000000000               0.087855130               0.361416666               0.000000000               0.094045942               0.384513888               0.000000000               0.100236753               0.407611111               0.000000000               0.106427565               0.430708333               0.000000000               0.112618377               0.453805555               0.000000000               0.118809188               0.476902778               0.000000000               0.125000000               0.500000000               0.000000000               0.013036280               0.132359569               0.000000000               0.016127762               0.155337096               0.000000000               0.019219245               0.178314623               0.000000000               0.022310727               0.201292150               0.000000000               0.025402210               0.224269676               0.000000000               0.028493692               0.247247203               0.000000000               0.031585175               0.270224730               0.000000000               0.034676657               0.293202257               0.000000000               0.037768140               0.316179784               0.000000000               0.040859622               0.339157311               0.000000000               0.043951105               0.362134838               0.000000000               0.047042587               0.385112365               0.000000000               0.050134070               0.408089892               0.000000000               0.053225552               0.431067419               0.000000000               0.056317035               0.454044946               0.000000000               0.059408517               0.477022473               0.000000000               0.062500000               0.500000000               0.000000000               0.000000000               0.133000000               0.000000000               0.000000000               0.155937500               0.000000000               0.000000000               0.178875000               0.000000000               0.000000000               0.201812500               0.000000000               0.000000000               0.224750000               0.000000000               0.000000000               0.247687500               0.000000000               0.000000000               0.270625000               0.000000000               0.000000000               0.293562500               0.000000000               0.000000000               0.316500000               0.000000000               0.000000000               0.339437500               0.000000000               0.000000000               0.362375000               0.000000000               0.000000000               0.385312500               0.000000000               0.000000000               0.408250000               0.000000000               0.000000000               0.431187500               0.000000000               0.000000000               0.454125000               0.000000000               0.000000000               0.477062500               0.000000000               0.000000000               0.500000000               0.000000000               0.133000000               0.000000000               0.000000000               0.155937500               0.000000000               0.000000000               0.178875000               0.000000000               0.000000000               0.201812500               0.000000000               0.000000000               0.224750000               0.000000000               0.000000000               0.247687500               0.000000000               0.000000000               0.270625000               0.000000000               0.000000000               0.293562500               0.000000000               0.000000000               0.316500000               0.000000000               0.000000000               0.339437500               0.000000000               0.000000000               0.362375000               0.000000000               0.000000000               0.385312500               0.000000000               0.000000000               0.408250000               0.000000000               0.000000000               0.431187500               0.000000000               0.000000000               0.454125000               0.000000000               0.000000000               0.477062500               0.000000000               0.000000000               0.500000000               0.000000000               0.000000000               0.132359569              -0.013036280               0.000000000               0.155337096              -0.016127762               0.000000000               0.178314623              -0.019219245               0.000000000               0.201292150              -0.022310727               0.000000000               0.224269676              -0.025402210               0.000000000               0.247247203              -0.028493692               0.000000000               0.270224730              -0.031585175               0.000000000               0.293202257              -0.034676657               0.000000000               0.316179784              -0.037768140               0.000000000               0.339157311              -0.040859622               0.000000000               0.362134838              -0.043951105               0.000000000               0.385112365              -0.047042587               0.000000000               0.408089892              -0.050134070               0.000000000               0.431067419              -0.053225552               0.000000000               0.454044946              -0.056317035               0.000000000               0.477022473              -0.059408517               0.000000000               0.500000000              -0.062500000               0.000000000               0.130444442              -0.025947013               0.000000000               0.153541665              -0.032137825               0.000000000               0.176638887              -0.038328636               0.000000000               0.199736109              -0.044519448               0.000000000               0.222833332              -0.050710260               0.000000000               0.245930554              -0.056901071               0.000000000               0.269027776              -0.063091883               0.000000000               0.292124999              -0.069282695               0.000000000               0.315222221              -0.075473506               0.000000000               0.338319444              -0.081664318               0.000000000               0.361416666              -0.087855130               0.000000000               0.384513888              -0.094045942               0.000000000               0.407611111              -0.100236753               0.000000000               0.430708333              -0.106427565               0.000000000               0.453805555              -0.112618377               0.000000000               0.476902778              -0.118809188               0.000000000               0.500000000              -0.125000000               0.000000000               0.127273065              -0.038607862               0.000000000               0.150568498              -0.047913621               0.000000000               0.173863932              -0.057219379               0.000000000               0.197159365              -0.066525138               0.000000000               0.220454798              -0.075830897               0.000000000               0.243750232              -0.085136655               0.000000000               0.267045665              -0.094442414               0.000000000               0.290341099              -0.103748172               0.000000000               0.313636532              -0.113053931               0.000000000               0.336931966              -0.122359690               0.000000000               0.360227399              -0.131665448               0.000000000               0.383522833              -0.140971207               0.000000000               0.406818266              -0.150276966               0.000000000               0.430113700              -0.159582724               0.000000000               0.453409133              -0.168888483               0.000000000               0.476704567              -0.178194241               0.000000000               0.500000000              -0.187500000               0.000000000               0.122875978              -0.050896897               0.000000000               0.146446229              -0.063340840               0.000000000               0.170016481              -0.075784784               0.000000000               0.193586732              -0.088228728               0.000000000               0.217156983              -0.100672672               0.000000000               0.240727235              -0.113116616               0.000000000               0.264297486              -0.125560560               0.000000000               0.287867738              -0.138004504               0.000000000               0.311437989              -0.150448448               0.000000000               0.335008240              -0.162892392               0.000000000               0.358578492              -0.175336336               0.000000000               0.382148743              -0.187780280               0.000000000               0.405718994              -0.200224224               0.000000000               0.429289246              -0.212668168               0.000000000               0.452859497              -0.225112112               0.000000000               0.476429749              -0.237556056               0.000000000               0.500000000              -0.250000000               0.000000000               0.117295528              -0.062695766               0.000000000               0.141214558              -0.078308531               0.000000000               0.165133587              -0.093921295               0.000000000               0.189052617              -0.109534060               0.000000000               0.212971646              -0.125146824               0.000000000               0.236890676              -0.140759589               0.000000000               0.260809705              -0.156372354               0.000000000               0.284728735              -0.171985118               0.000000000               0.308647764              -0.187597883               0.000000000               0.332566794              -0.203210648               0.000000000               0.356485823              -0.218823412               0.000000000               0.380404853              -0.234436177               0.000000000               0.404323882              -0.250048941               0.000000000               0.428242912              -0.265661706               0.000000000               0.452161941              -0.281274471               0.000000000               0.476080971              -0.296887235               0.000000000               0.500000000              -0.312500000               0.000000000               0.110585458              -0.073890841               0.000000000               0.134923867              -0.092710163               0.000000000               0.159262276              -0.111529486               0.000000000               0.183600685              -0.130348808               0.000000000               0.207939094              -0.149168131               0.000000000               0.232277503              -0.167987453               0.000000000               0.256615912              -0.186806776               0.000000000               0.280954320              -0.205626098               0.000000000               0.305292729              -0.224445420               0.000000000               0.329631138              -0.243264743               0.000000000               0.353969547              -0.262084065               0.000000000               0.378307956              -0.280903388               0.000000000               0.402646365              -0.299722710               0.000000000               0.426984773              -0.318542033               0.000000000               0.451323182              -0.337361355               0.000000000               0.475661591              -0.356180678               0.000000000               0.500000000              -0.375000000               0.000000000               0.102810390              -0.084374307               0.000000000               0.127634741              -0.106444663               0.000000000               0.152459092              -0.128515018               0.000000000               0.177283442              -0.150585374               0.000000000               0.202107793              -0.172655730               0.000000000               0.226932143              -0.194726086               0.000000000               0.251756494              -0.216796442               0.000000000               0.276580845              -0.238866798               0.000000000               0.301405195              -0.260937153               0.000000000               0.326229546              -0.283007509               0.000000000               0.351053896              -0.305077865               0.000000000               0.375878247              -0.327148221               0.000000000               0.400702598              -0.349218577               0.000000000               0.425526948              -0.371288933               0.000000000               0.450351299              -0.393359288               0.000000000               0.475175649              -0.415429644               0.000000000               0.500000000              -0.437500000               0.000000000               0.094045202              -0.094045202               0.000000000               0.119417377              -0.119417377               0.000000000               0.144789552              -0.144789552               0.000000000               0.170161727              -0.170161727               0.000000000               0.195533901              -0.195533901               0.000000000               0.220906076              -0.220906076               0.000000000               0.246278251              -0.246278251               0.000000000               0.271650426              -0.271650426               0.000000000               0.297022601              -0.297022601               0.000000000               0.322394776              -0.322394776               0.000000000               0.347766951              -0.347766951               0.000000000               0.373139126              -0.373139126               0.000000000               0.398511300              -0.398511300               0.000000000               0.423883475              -0.423883475               0.000000000               0.449255650              -0.449255650               0.000000000               0.474627825              -0.474627825               0.000000000               0.500000000              -0.500000000               0.000000000               0.084374307              -0.102810390               0.000000000               0.106444663              -0.127634741               0.000000000               0.128515018              -0.152459092               0.000000000               0.150585374              -0.177283442               0.000000000               0.172655730              -0.202107793               0.000000000               0.194726086              -0.226932143               0.000000000               0.216796442              -0.251756494               0.000000000               0.238866798              -0.276580845               0.000000000               0.260937153              -0.301405195               0.000000000               0.283007509              -0.326229546               0.000000000               0.305077865              -0.351053896               0.000000000               0.327148221              -0.375878247               0.000000000               0.349218577              -0.400702598               0.000000000               0.371288933              -0.425526948               0.000000000               0.393359288              -0.450351299               0.000000000               0.415429644              -0.475175649               0.000000000               0.437500000              -0.500000000               0.000000000               0.073890841              -0.110585458               0.000000000               0.092710163              -0.134923867               0.000000000               0.111529486              -0.159262276               0.000000000               0.130348808              -0.183600685               0.000000000               0.149168131              -0.207939094               0.000000000               0.167987453              -0.232277503               0.000000000               0.186806776              -0.256615912               0.000000000               0.205626098              -0.280954320               0.000000000               0.224445420              -0.305292729               0.000000000               0.243264743              -0.329631138               0.000000000               0.262084065              -0.353969547               0.000000000               0.280903388              -0.378307956               0.000000000               0.299722710              -0.402646365               0.000000000               0.318542033              -0.426984773               0.000000000               0.337361355              -0.451323182               0.000000000               0.356180678              -0.475661591               0.000000000               0.375000000              -0.500000000               0.000000000               0.062695766              -0.117295528               0.000000000               0.078308531              -0.141214558               0.000000000               0.093921295              -0.165133587               0.000000000               0.109534060              -0.189052617               0.000000000               0.125146824              -0.212971646               0.000000000               0.140759589              -0.236890676               0.000000000               0.156372354              -0.260809705               0.000000000               0.171985118              -0.284728735               0.000000000               0.187597883              -0.308647764               0.000000000               0.203210648              -0.332566794               0.000000000               0.218823412              -0.356485823               0.000000000               0.234436177              -0.380404853               0.000000000               0.250048941              -0.404323882               0.000000000               0.265661706              -0.428242912               0.000000000               0.281274471              -0.452161941               0.000000000               0.296887235              -0.476080971               0.000000000               0.312500000              -0.500000000               0.000000000               0.050896897              -0.122875978               0.000000000               0.063340840              -0.146446229               0.000000000               0.075784784              -0.170016481               0.000000000               0.088228728              -0.193586732               0.000000000               0.100672672              -0.217156983               0.000000000               0.113116616              -0.240727235               0.000000000               0.125560560              -0.264297486               0.000000000               0.138004504              -0.287867738               0.000000000               0.150448448              -0.311437989               0.000000000               0.162892392              -0.335008240               0.000000000               0.175336336              -0.358578492               0.000000000               0.187780280              -0.382148743               0.000000000               0.200224224              -0.405718994               0.000000000               0.212668168              -0.429289246               0.000000000               0.225112112              -0.452859497               0.000000000               0.237556056              -0.476429749               0.000000000               0.250000000              -0.500000000               0.000000000               0.038607862              -0.127273065               0.000000000               0.047913621              -0.150568498               0.000000000               0.057219379              -0.173863932               0.000000000               0.066525138              -0.197159365               0.000000000               0.075830897              -0.220454798               0.000000000               0.085136655              -0.243750232               0.000000000               0.094442414              -0.267045665               0.000000000               0.103748172              -0.290341099               0.000000000               0.113053931              -0.313636532               0.000000000               0.122359690              -0.336931966               0.000000000               0.131665448              -0.360227399               0.000000000               0.140971207              -0.383522833               0.000000000               0.150276966              -0.406818266               0.000000000               0.159582724              -0.430113700               0.000000000               0.168888483              -0.453409133               0.000000000               0.178194241              -0.476704567               0.000000000               0.187500000              -0.500000000               0.000000000               0.025947013              -0.130444442               0.000000000               0.032137825              -0.153541665               0.000000000               0.038328636              -0.176638887               0.000000000               0.044519448              -0.199736109               0.000000000               0.050710260              -0.222833332               0.000000000               0.056901071              -0.245930554               0.000000000               0.063091883              -0.269027776               0.000000000               0.069282695              -0.292124999               0.000000000               0.075473506              -0.315222221               0.000000000               0.081664318              -0.338319444               0.000000000               0.087855130              -0.361416666               0.000000000               0.094045942              -0.384513888               0.000000000               0.100236753              -0.407611111               0.000000000               0.106427565              -0.430708333               0.000000000               0.112618377              -0.453805555               0.000000000               0.118809188              -0.476902778               0.000000000               0.125000000              -0.500000000               0.000000000               0.013036280              -0.132359569               0.000000000               0.016127762              -0.155337096               0.000000000               0.019219245              -0.178314623               0.000000000               0.022310727              -0.201292150               0.000000000               0.025402210              -0.224269676               0.000000000               0.028493692              -0.247247203               0.000000000               0.031585175              -0.270224730               0.000000000               0.034676657              -0.293202257               0.000000000               0.037768140              -0.316179784               0.000000000               0.040859622              -0.339157311               0.000000000               0.043951105              -0.362134838               0.000000000               0.047042587              -0.385112365               0.000000000               0.050134070              -0.408089892               0.000000000               0.053225552              -0.431067419               0.000000000               0.056317035              -0.454044946               0.000000000               0.059408517              -0.477022473               0.000000000               0.062500000              -0.500000000               0.000000000               0.000000000              -0.133000000               0.000000000               0.000000000              -0.155937500               0.000000000               0.000000000              -0.178875000               0.000000000               0.000000000              -0.201812500               0.000000000               0.000000000              -0.224750000               0.000000000               0.000000000              -0.247687500               0.000000000               0.000000000              -0.270625000               0.000000000               0.000000000              -0.293562500               0.000000000               0.000000000              -0.316500000               0.000000000               0.000000000              -0.339437500               0.000000000               0.000000000              -0.362375000               0.000000000               0.000000000              -0.385312500               0.000000000               0.000000000              -0.408250000               0.000000000               0.000000000              -0.431187500               0.000000000               0.000000000              -0.454125000               0.000000000               0.000000000              -0.477062500               0.000000000               0.000000000              -0.500000000               0.000000000              -0.133000000               0.000000000               0.000000000              -0.155937500               0.000000000               0.000000000              -0.178875000               0.000000000               0.000000000              -0.201812500               0.000000000               0.000000000              -0.224750000               0.000000000               0.000000000              -0.247687500               0.000000000               0.000000000              -0.270625000               0.000000000               0.000000000              -0.293562500               0.000000000               0.000000000              -0.316500000               0.000000000               0.000000000              -0.339437500               0.000000000               0.000000000              -0.362375000               0.000000000               0.000000000              -0.385312500               0.000000000               0.000000000              -0.408250000               0.000000000               0.000000000              -0.431187500               0.000000000               0.000000000              -0.454125000               0.000000000               0.000000000              -0.477062500               0.000000000               0.000000000              -0.500000000               0.000000000               0.000000000              -0.132359569              -0.013036280               0.000000000              -0.155337096              -0.016127762               0.000000000              -0.178314623              -0.019219245               0.000000000              -0.201292150              -0.022310727               0.000000000              -0.224269676              -0.025402210               0.000000000              -0.247247203              -0.028493692               0.000000000              -0.270224730              -0.031585175               0.000000000              -0.293202257              -0.034676657               0.000000000              -0.316179784              -0.037768140               0.000000000              -0.339157311              -0.040859622               0.000000000              -0.362134838              -0.043951105               0.000000000              -0.385112365              -0.047042587               0.000000000              -0.408089892              -0.050134070               0.000000000              -0.431067419              -0.053225552               0.000000000              -0.454044946              -0.056317035               0.000000000              -0.477022473              -0.059408517               0.000000000              -0.500000000              -0.062500000               0.000000000              -0.130444442              -0.025947013               0.000000000              -0.153541665              -0.032137825               0.000000000              -0.176638887              -0.038328636               0.000000000              -0.199736109              -0.044519448               0.000000000              -0.222833332              -0.050710260               0.000000000              -0.245930554              -0.056901071               0.000000000              -0.269027776              -0.063091883               0.000000000              -0.292124999              -0.069282695               0.000000000              -0.315222221              -0.075473506               0.000000000              -0.338319444              -0.081664318               0.000000000              -0.361416666              -0.087855130               0.000000000              -0.384513888              -0.094045942               0.000000000              -0.407611111              -0.100236753               0.000000000              -0.430708333              -0.106427565               0.000000000              -0.453805555              -0.112618377               0.000000000              -0.476902778              -0.118809188               0.000000000              -0.500000000              -0.125000000               0.000000000              -0.127273065              -0.038607862               0.000000000              -0.150568498              -0.047913621               0.000000000              -0.173863932              -0.057219379               0.000000000              -0.197159365              -0.066525138               0.000000000              -0.220454798              -0.075830897               0.000000000              -0.243750232              -0.085136655               0.000000000              -0.267045665              -0.094442414               0.000000000              -0.290341099              -0.103748172               0.000000000              -0.313636532              -0.113053931               0.000000000              -0.336931966              -0.122359690               0.000000000              -0.360227399              -0.131665448               0.000000000              -0.383522833              -0.140971207               0.000000000              -0.406818266              -0.150276966               0.000000000              -0.430113700              -0.159582724               0.000000000              -0.453409133              -0.168888483               0.000000000              -0.476704567              -0.178194241               0.000000000              -0.500000000              -0.187500000               0.000000000              -0.122875978              -0.050896897               0.000000000              -0.146446229              -0.063340840               0.000000000              -0.170016481              -0.075784784               0.000000000              -0.193586732              -0.088228728               0.000000000              -0.217156983              -0.100672672               0.000000000              -0.240727235              -0.113116616               0.000000000              -0.264297486              -0.125560560               0.000000000              -0.287867738              -0.138004504               0.000000000              -0.311437989              -0.150448448               0.000000000              -0.335008240              -0.162892392               0.000000000              -0.358578492              -0.175336336               0.000000000              -0.382148743              -0.187780280               0.000000000              -0.405718994              -0.200224224               0.000000000              -0.429289246              -0.212668168               0.000000000              -0.452859497              -0.225112112               0.000000000              -0.476429749              -0.237556056               0.000000000              -0.500000000              -0.250000000               0.000000000              -0.117295528              -0.062695766               0.000000000              -0.141214558              -0.078308531               0.000000000              -0.165133587              -0.093921295               0.000000000              -0.189052617              -0.109534060               0.000000000              -0.212971646              -0.125146824               0.000000000              -0.236890676              -0.140759589               0.000000000              -0.260809705              -0.156372354               0.000000000              -0.284728735              -0.171985118               0.000000000              -0.308647764              -0.187597883               0.000000000              -0.332566794              -0.203210648               0.000000000              -0.356485823              -0.218823412               0.000000000              -0.380404853              -0.234436177               0.000000000              -0.404323882              -0.250048941               0.000000000              -0.428242912              -0.265661706               0.000000000              -0.452161941              -0.281274471               0.000000000              -0.476080971              -0.296887235               0.000000000              -0.500000000              -0.312500000               0.000000000              -0.110585458              -0.073890841               0.000000000              -0.134923867              -0.092710163               0.000000000              -0.159262276              -0.111529486               0.000000000              -0.183600685              -0.130348808               0.000000000              -0.207939094              -0.149168131               0.000000000              -0.232277503              -0.167987453               0.000000000              -0.256615912              -0.186806776               0.000000000              -0.280954320              -0.205626098               0.000000000              -0.305292729              -0.224445420               0.000000000              -0.329631138              -0.243264743               0.000000000              -0.353969547              -0.262084065               0.000000000              -0.378307956              -0.280903388               0.000000000              -0.402646365              -0.299722710               0.000000000              -0.426984773              -0.318542033               0.000000000              -0.451323182              -0.337361355               0.000000000              -0.475661591              -0.356180678               0.000000000              -0.500000000              -0.375000000               0.000000000              -0.102810390              -0.084374307               0.000000000              -0.127634741              -0.106444663               0.000000000              -0.152459092              -0.128515018               0.000000000              -0.177283442              -0.150585374               0.000000000              -0.202107793              -0.172655730               0.000000000              -0.226932143              -0.194726086               0.000000000              -0.251756494              -0.216796442               0.000000000              -0.276580845              -0.238866798               0.000000000              -0.301405195              -0.260937153               0.000000000              -0.326229546              -0.283007509               0.000000000              -0.351053896              -0.305077865               0.000000000              -0.375878247              -0.327148221               0.000000000              -0.400702598              -0.349218577               0.000000000              -0.425526948              -0.371288933               0.000000000              -0.450351299              -0.393359288               0.000000000              -0.475175649              -0.415429644               0.000000000              -0.500000000              -0.437500000               0.000000000              -0.094045202              -0.094045202               0.000000000              -0.119417377              -0.119417377               0.000000000              -0.144789552              -0.144789552               0.000000000              -0.170161727              -0.170161727               0.000000000              -0.195533901              -0.195533901               0.000000000              -0.220906076              -0.220906076               0.000000000              -0.246278251              -0.246278251               0.000000000              -0.271650426              -0.271650426               0.000000000              -0.297022601              -0.297022601               0.000000000              -0.322394776              -0.322394776               0.000000000              -0.347766951              -0.347766951               0.000000000              -0.373139126              -0.373139126               0.000000000              -0.398511300              -0.398511300               0.000000000              -0.423883475              -0.423883475               0.000000000              -0.449255650              -0.449255650               0.000000000              -0.474627825              -0.474627825               0.000000000              -0.500000000              -0.500000000               0.000000000              -0.084374307              -0.102810390               0.000000000              -0.106444663              -0.127634741               0.000000000              -0.128515018              -0.152459092               0.000000000              -0.150585374              -0.177283442               0.000000000              -0.172655730              -0.202107793               0.000000000              -0.194726086              -0.226932143               0.000000000              -0.216796442              -0.251756494               0.000000000              -0.238866798              -0.276580845               0.000000000              -0.260937153              -0.301405195               0.000000000              -0.283007509              -0.326229546               0.000000000              -0.305077865              -0.351053896               0.000000000              -0.327148221              -0.375878247               0.000000000              -0.349218577              -0.400702598               0.000000000              -0.371288933              -0.425526948               0.000000000              -0.393359288              -0.450351299               0.000000000              -0.415429644              -0.475175649               0.000000000              -0.437500000              -0.500000000               0.000000000              -0.073890841              -0.110585458               0.000000000              -0.092710163              -0.134923867               0.000000000              -0.111529486              -0.159262276               0.000000000              -0.130348808              -0.183600685               0.000000000              -0.149168131              -0.207939094               0.000000000              -0.167987453              -0.232277503               0.000000000              -0.186806776              -0.256615912               0.000000000              -0.205626098              -0.280954320               0.000000000              -0.224445420              -0.305292729               0.000000000              -0.243264743              -0.329631138               0.000000000              -0.262084065              -0.353969547               0.000000000              -0.280903388              -0.378307956               0.000000000              -0.299722710              -0.402646365               0.000000000              -0.318542033              -0.426984773               0.000000000              -0.337361355              -0.451323182               0.000000000              -0.356180678              -0.475661591               0.000000000              -0.375000000              -0.500000000               0.000000000              -0.062695766              -0.117295528               0.000000000              -0.078308531              -0.141214558               0.000000000              -0.093921295              -0.165133587               0.000000000              -0.109534060              -0.189052617               0.000000000              -0.125146824              -0.212971646               0.000000000              -0.140759589              -0.236890676               0.000000000              -0.156372354              -0.260809705               0.000000000              -0.171985118              -0.284728735               0.000000000              -0.187597883              -0.308647764               0.000000000              -0.203210648              -0.332566794               0.000000000              -0.218823412              -0.356485823               0.000000000              -0.234436177              -0.380404853               0.000000000              -0.250048941              -0.404323882               0.000000000              -0.265661706              -0.428242912               0.000000000              -0.281274471              -0.452161941               0.000000000              -0.296887235              -0.476080971               0.000000000              -0.312500000              -0.500000000               0.000000000              -0.050896897              -0.122875978               0.000000000              -0.063340840              -0.146446229               0.000000000              -0.075784784              -0.170016481               0.000000000              -0.088228728              -0.193586732               0.000000000              -0.100672672              -0.217156983               0.000000000              -0.113116616              -0.240727235               0.000000000              -0.125560560              -0.264297486               0.000000000              -0.138004504              -0.287867738               0.000000000              -0.150448448              -0.311437989               0.000000000              -0.162892392              -0.335008240               0.000000000              -0.175336336              -0.358578492               0.000000000              -0.187780280              -0.382148743               0.000000000              -0.200224224              -0.405718994               0.000000000              -0.212668168              -0.429289246               0.000000000              -0.225112112              -0.452859497               0.000000000              -0.237556056              -0.476429749               0.000000000              -0.250000000              -0.500000000               0.000000000              -0.038607862              -0.127273065               0.000000000              -0.047913621              -0.150568498               0.000000000              -0.057219379              -0.173863932               0.000000000              -0.066525138              -0.197159365               0.000000000              -0.075830897              -0.220454798               0.000000000              -0.085136655              -0.243750232               0.000000000              -0.094442414              -0.267045665               0.000000000              -0.103748172              -0.290341099               0.000000000              -0.113053931              -0.313636532               0.000000000              -0.122359690              -0.336931966               0.000000000              -0.131665448              -0.360227399               0.000000000              -0.140971207              -0.383522833               0.000000000              -0.150276966              -0.406818266               0.000000000              -0.159582724              -0.430113700               0.000000000              -0.168888483              -0.453409133               0.000000000              -0.178194241              -0.476704567               0.000000000              -0.187500000              -0.500000000               0.000000000              -0.025947013              -0.130444442               0.000000000              -0.032137825              -0.153541665               0.000000000              -0.038328636              -0.176638887               0.000000000              -0.044519448              -0.199736109               0.000000000              -0.050710260              -0.222833332               0.000000000              -0.056901071              -0.245930554               0.000000000              -0.063091883              -0.269027776               0.000000000              -0.069282695              -0.292124999               0.000000000              -0.075473506              -0.315222221               0.000000000              -0.081664318              -0.338319444               0.000000000              -0.087855130              -0.361416666               0.000000000              -0.094045942              -0.384513888               0.000000000              -0.100236753              -0.407611111               0.000000000              -0.106427565              -0.430708333               0.000000000              -0.112618377              -0.453805555               0.000000000              -0.118809188              -0.476902778               0.000000000              -0.125000000              -0.500000000               0.000000000              -0.013036280              -0.132359569               0.000000000              -0.016127762              -0.155337096               0.000000000              -0.019219245              -0.178314623               0.000000000              -0.022310727              -0.201292150               0.000000000              -0.025402210              -0.224269676               0.000000000              -0.028493692              -0.247247203               0.000000000              -0.031585175              -0.270224730               0.000000000              -0.034676657              -0.293202257               0.000000000              -0.037768140              -0.316179784               0.000000000              -0.040859622              -0.339157311               0.000000000              -0.043951105              -0.362134838               0.000000000              -0.047042587              -0.385112365               0.000000000              -0.050134070              -0.408089892               0.000000000              -0.053225552              -0.431067419               0.000000000              -0.056317035              -0.454044946               0.000000000              -0.059408517              -0.477022473               0.000000000              -0.062500000              -0.500000000               0.000000000               0.000000000              -0.133000000               0.000000000               0.000000000              -0.155937500               0.000000000               0.000000000              -0.178875000               0.000000000               0.000000000              -0.201812500               0.000000000               0.000000000              -0.224750000               0.000000000               0.000000000              -0.247687500               0.000000000               0.000000000              -0.270625000               0.000000000               0.000000000              -0.293562500               0.000000000               0.000000000              -0.316500000               0.000000000               0.000000000              -0.339437500               0.000000000               0.000000000              -0.362375000               0.000000000               0.000000000              -0.385312500               0.000000000               0.000000000              -0.408250000               0.000000000               0.000000000              -0.431187500               0.000000000               0.000000000              -0.454125000               0.000000000               0.000000000              -0.477062500               0.000000000               0.000000000              -0.500000000               0.000000000              -0.133000000               0.000000000               0.000000000              -0.155937500               0.000000000               0.000000000              -0.178875000               0.000000000               0.000000000              -0.201812500               0.000000000               0.000000000              -0.224750000               0.000000000               0.000000000              -0.247687500               0.000000000               0.000000000              -0.270625000               0.000000000               0.000000000              -0.293562500               0.000000000               0.000000000              -0.316500000               0.000000000               0.000000000              -0.339437500               0.000000000               0.000000000              -0.362375000               0.000000000               0.000000000              -0.385312500               0.000000000               0.000000000              -0.408250000               0.000000000               0.000000000              -0.431187500               0.000000000               0.000000000              -0.454125000               0.000000000               0.000000000              -0.477062500               0.000000000               0.000000000              -0.500000000               0.000000000               0.000000000              -0.132359569               0.013036280               0.000000000              -0.155337096               0.016127762               0.000000000              -0.178314623               0.019219245               0.000000000              -0.201292150               0.022310727               0.000000000              -0.224269676               0.025402210               0.000000000              -0.247247203               0.028493692               0.000000000              -0.270224730               0.031585175               0.000000000              -0.293202257               0.034676657               0.000000000              -0.316179784               0.037768140               0.000000000              -0.339157311               0.040859622               0.000000000              -0.362134838               0.043951105               0.000000000              -0.385112365               0.047042587               0.000000000              -0.408089892               0.050134070               0.000000000              -0.431067419               0.053225552               0.000000000              -0.454044946               0.056317035               0.000000000              -0.477022473               0.059408517               0.000000000              -0.500000000               0.062500000               0.000000000              -0.130444442               0.025947013               0.000000000              -0.153541665               0.032137825               0.000000000              -0.176638887               0.038328636               0.000000000              -0.199736109               0.044519448               0.000000000              -0.222833332               0.050710260               0.000000000              -0.245930554               0.056901071               0.000000000              -0.269027776               0.063091883               0.000000000              -0.292124999               0.069282695               0.000000000              -0.315222221               0.075473506               0.000000000              -0.338319444               0.081664318               0.000000000              -0.361416666               0.087855130               0.000000000              -0.384513888               0.094045942               0.000000000              -0.407611111               0.100236753               0.000000000              -0.430708333               0.106427565               0.000000000              -0.453805555               0.112618377               0.000000000              -0.476902778               0.118809188               0.000000000              -0.500000000               0.125000000               0.000000000              -0.127273065               0.038607862               0.000000000              -0.150568498               0.047913621               0.000000000              -0.173863932               0.057219379               0.000000000              -0.197159365               0.066525138               0.000000000              -0.220454798               0.075830897               0.000000000              -0.243750232               0.085136655               0.000000000              -0.267045665               0.094442414               0.000000000              -0.290341099               0.103748172               0.000000000              -0.313636532               0.113053931               0.000000000              -0.336931966               0.122359690               0.000000000              -0.360227399               0.131665448               0.000000000              -0.383522833               0.140971207               0.000000000              -0.406818266               0.150276966               0.000000000              -0.430113700               0.159582724               0.000000000              -0.453409133               0.168888483               0.000000000              -0.476704567               0.178194241               0.000000000              -0.500000000               0.187500000               0.000000000              -0.122875978               0.050896897               0.000000000              -0.146446229               0.063340840               0.000000000              -0.170016481               0.075784784               0.000000000              -0.193586732               0.088228728               0.000000000              -0.217156983               0.100672672               0.000000000              -0.240727235               0.113116616               0.000000000              -0.264297486               0.125560560               0.000000000              -0.287867738               0.138004504               0.000000000              -0.311437989               0.150448448               0.000000000              -0.335008240               0.162892392               0.000000000              -0.358578492               0.175336336               0.000000000              -0.382148743               0.187780280               0.000000000              -0.405718994               0.200224224               0.000000000              -0.429289246               0.212668168               0.000000000              -0.452859497               0.225112112               0.000000000              -0.476429749               0.237556056               0.000000000              -0.500000000               0.250000000               0.000000000              -0.117295528               0.062695766               0.000000000              -0.141214558               0.078308531               0.000000000              -0.165133587               0.093921295               0.000000000              -0.189052617               0.109534060               0.000000000              -0.212971646               0.125146824               0.000000000              -0.236890676               0.140759589               0.000000000              -0.260809705               0.156372354               0.000000000              -0.284728735               0.171985118               0.000000000              -0.308647764               0.187597883               0.000000000              -0.332566794               0.203210648               0.000000000              -0.356485823               0.218823412               0.000000000              -0.380404853               0.234436177               0.000000000              -0.404323882               0.250048941               0.000000000              -0.428242912               0.265661706               0.000000000              -0.452161941               0.281274471               0.000000000              -0.476080971               0.296887235               0.000000000              -0.500000000               0.312500000               0.000000000              -0.110585458               0.073890841               0.000000000              -0.134923867               0.092710163               0.000000000              -0.159262276               0.111529486               0.000000000              -0.183600685               0.130348808               0.000000000              -0.207939094               0.149168131               0.000000000              -0.232277503               0.167987453               0.000000000              -0.256615912               0.186806776               0.000000000              -0.280954320               0.205626098               0.000000000              -0.305292729               0.224445420               0.000000000              -0.329631138               0.243264743               0.000000000              -0.353969547               0.262084065               0.000000000              -0.378307956               0.280903388               0.000000000              -0.402646365               0.299722710               0.000000000              -0.426984773               0.318542033               0.000000000              -0.451323182               0.337361355               0.000000000              -0.475661591               0.356180678               0.000000000              -0.500000000               0.375000000               0.000000000              -0.102810390               0.084374307               0.000000000              -0.127634741               0.106444663               0.000000000              -0.152459092               0.128515018               0.000000000              -0.177283442               0.150585374               0.000000000              -0.202107793               0.172655730               0.000000000              -0.226932143               0.194726086               0.000000000              -0.251756494               0.216796442               0.000000000              -0.276580845               0.238866798               0.000000000              -0.301405195               0.260937153               0.000000000              -0.326229546               0.283007509               0.000000000              -0.351053896               0.305077865               0.000000000              -0.375878247               0.327148221               0.000000000              -0.400702598               0.349218577               0.000000000              -0.425526948               0.371288933               0.000000000              -0.450351299               0.393359288               0.000000000              -0.475175649               0.415429644               0.000000000              -0.500000000               0.437500000               0.000000000              -0.094045202               0.094045202               0.000000000              -0.119417377               0.119417377               0.000000000              -0.144789552               0.144789552               0.000000000              -0.170161727               0.170161727               0.000000000              -0.195533901               0.195533901               0.000000000              -0.220906076               0.220906076               0.000000000              -0.246278251               0.246278251               0.000000000              -0.271650426               0.271650426               0.000000000              -0.297022601               0.297022601               0.000000000              -0.322394776               0.322394776               0.000000000              -0.347766951               0.347766951               0.000000000              -0.373139126               0.373139126               0.000000000              -0.398511300               0.398511300               0.000000000              -0.423883475               0.423883475               0.000000000              -0.449255650               0.449255650               0.000000000              -0.474627825               0.474627825               0.000000000              -0.500000000               0.500000000               0.000000000              -0.084374307               0.102810390               0.000000000              -0.106444663               0.127634741               0.000000000              -0.128515018               0.152459092               0.000000000              -0.150585374               0.177283442               0.000000000              -0.172655730               0.202107793               0.000000000              -0.194726086               0.226932143               0.000000000              -0.216796442               0.251756494               0.000000000              -0.238866798               0.276580845               0.000000000              -0.260937153               0.301405195               0.000000000              -0.283007509               0.326229546               0.000000000              -0.305077865               0.351053896               0.000000000              -0.327148221               0.375878247               0.000000000              -0.349218577               0.400702598               0.000000000              -0.371288933               0.425526948               0.000000000              -0.393359288               0.450351299               0.000000000              -0.415429644               0.475175649               0.000000000              -0.437500000               0.500000000               0.000000000              -0.073890841               0.110585458               0.000000000              -0.092710163               0.134923867               0.000000000              -0.111529486               0.159262276               0.000000000              -0.130348808               0.183600685               0.000000000              -0.149168131               0.207939094               0.000000000              -0.167987453               0.232277503               0.000000000              -0.186806776               0.256615912               0.000000000              -0.205626098               0.280954320               0.000000000              -0.224445420               0.305292729               0.000000000              -0.243264743               0.329631138               0.000000000              -0.262084065               0.353969547               0.000000000              -0.280903388               0.378307956               0.000000000              -0.299722710               0.402646365               0.000000000              -0.318542033               0.426984773               0.000000000              -0.337361355               0.451323182               0.000000000              -0.356180678               0.475661591               0.000000000              -0.375000000               0.500000000               0.000000000              -0.062695766               0.117295528               0.000000000              -0.078308531               0.141214558               0.000000000              -0.093921295               0.165133587               0.000000000              -0.109534060               0.189052617               0.000000000              -0.125146824               0.212971646               0.000000000              -0.140759589               0.236890676               0.000000000              -0.156372354               0.260809705               0.000000000              -0.171985118               0.284728735               0.000000000              -0.187597883               0.308647764               0.000000000              -0.203210648               0.332566794               0.000000000              -0.218823412               0.356485823               0.000000000              -0.234436177               0.380404853               0.000000000              -0.250048941               0.404323882               0.000000000              -0.265661706               0.428242912               0.000000000              -0.281274471               0.452161941               0.000000000              -0.296887235               0.476080971               0.000000000              -0.312500000               0.500000000               0.000000000              -0.050896897               0.122875978               0.000000000              -0.063340840               0.146446229               0.000000000              -0.075784784               0.170016481               0.000000000              -0.088228728               0.193586732               0.000000000              -0.100672672               0.217156983               0.000000000              -0.113116616               0.240727235               0.000000000              -0.125560560               0.264297486               0.000000000              -0.138004504               0.287867738               0.000000000              -0.150448448               0.311437989               0.000000000              -0.162892392               0.335008240               0.000000000              -0.175336336               0.358578492               0.000000000              -0.187780280               0.382148743               0.000000000              -0.200224224               0.405718994               0.000000000              -0.212668168               0.429289246               0.000000000              -0.225112112               0.452859497               0.000000000              -0.237556056               0.476429749               0.000000000              -0.250000000               0.500000000               0.000000000              -0.038607862               0.127273065               0.000000000              -0.047913621               0.150568498               0.000000000              -0.057219379               0.173863932               0.000000000              -0.066525138               0.197159365               0.000000000              -0.075830897               0.220454798               0.000000000              -0.085136655               0.243750232               0.000000000              -0.094442414               0.267045665               0.000000000              -0.103748172               0.290341099               0.000000000              -0.113053931               0.313636532               0.000000000              -0.122359690               0.336931966               0.000000000              -0.131665448               0.360227399               0.000000000              -0.140971207               0.383522833               0.000000000              -0.150276966               0.406818266               0.000000000              -0.159582724               0.430113700               0.000000000              -0.168888483               0.453409133               0.000000000              -0.178194241               0.476704567               0.000000000              -0.187500000               0.500000000               0.000000000              -0.025947013               0.130444442               0.000000000              -0.032137825               0.153541665               0.000000000              -0.038328636               0.176638887               0.000000000              -0.044519448               0.199736109               0.000000000              -0.050710260               0.222833332               0.000000000              -0.056901071               0.245930554               0.000000000              -0.063091883               0.269027776               0.000000000              -0.069282695               0.292124999               0.000000000              -0.075473506               0.315222221               0.000000000              -0.081664318               0.338319444               0.000000000              -0.087855130               0.361416666               0.000000000              -0.094045942               0.384513888               0.000000000              -0.100236753               0.407611111               0.000000000              -0.106427565               0.430708333               0.000000000              -0.112618377               0.453805555               0.000000000              -0.118809188               0.476902778               0.000000000              -0.125000000               0.500000000               0.000000000              -0.013036280               0.132359569               0.000000000              -0.016127762               0.155337096               0.000000000              -0.019219245               0.178314623               0.000000000              -0.022310727               0.201292150               0.000000000              -0.025402210               0.224269676               0.000000000              -0.028493692               0.247247203               0.000000000              -0.031585175               0.270224730               0.000000000              -0.034676657               0.293202257               0.000000000              -0.037768140               0.316179784               0.000000000              -0.040859622               0.339157311               0.000000000              -0.043951105               0.362134838               0.000000000              -0.047042587               0.385112365               0.000000000              -0.050134070               0.408089892               0.000000000              -0.053225552               0.431067419               0.000000000              -0.056317035               0.454044946               0.000000000              -0.059408517               0.477022473               0.000000000              -0.062500000               0.500000000               0.000000000               0.000000000               0.133000000               0.000000000               0.000000000               0.155937500               0.000000000               0.000000000               0.178875000               0.000000000               0.000000000               0.201812500               0.000000000               0.000000000               0.224750000               0.000000000               0.000000000               0.247687500               0.000000000               0.000000000               0.270625000               0.000000000               0.000000000               0.293562500               0.000000000               0.000000000               0.316500000               0.000000000               0.000000000               0.339437500               0.000000000               0.000000000               0.362375000               0.000000000               0.000000000               0.385312500               0.000000000               0.000000000               0.408250000               0.000000000               0.000000000               0.431187500               0.000000000               0.000000000               0.454125000               0.000000000               0.000000000               0.477062500               0.000000000               0.000000000               0.500000000               0.000000000 </DataArray>
</Points>
<Cells>
<DataArray type="Int32"                                    Name="connectivity"                                                      NumberOfComponents=" 1" format="ascii">
         0          1         18         17          1          2         19         18          2          3         20         19          3          4         21         20          4          5         22         21          5          6         23         22          6          7         24         23          7          8         25         24          8          9         26         25          9         10         27         26         10         11         28         27         11         12         29         28         12         13         30         29         13         14         31         30         14         15         32         31         15         16         33         32         17         18         35         34         18         19         36         35         19         20         37         36         20         21         38         37         21         22         39         38         22         23         40         39         23         24         41         40         24         25         42         41         25         26         43         42         26         27         44         43         27         28         45         44         28         29         46         45         29         30         47         46         30         31         48         47         31         32         49         48         32         33         50         49         34         35         52         51         35         36         53         52         36         37         54         53         37         38         55         54         38         39         56         55         39         40         57         56         40         41         58         57         41         42         59         58         42         43         60         59         43         44         61         60         44         45         62         61         45         46         63         62         46         47         64         63         47         48         65         64         48         49         66         65         49         50         67         66         51         52         69         68         52         53         70         69         53         54         71         70         54         55         72         71         55         56         73         72         56         57         74         73         57         58         75         74         58         59         76         75         59         60         77         76         60         61         78         77         61         62         79         78         62         63         80         79         63         64         81         80         64         65         82         81         65         66         83         82         66         67         84         83         68         69         86         85         69         70         87         86         70         71         88         87         71         72         89         88         72         73         90         89         73         74         91         90         74         75         92         91         75         76         93         92         76         77         94         93         77         78         95         94         78         79         96         95         79         80         97         96         80         81         98         97         81         82         99         98         82         83        100         99         83         84        101        100         85         86        103        102         86         87        104        103         87         88        105        104         88         89        106        105         89         90        107        106         90         91        108        107         91         92        109        108         92         93        110        109         93         94        111        110         94         95        112        111         95         96        113        112         96         97        114        113         97         98        115        114         98         99        116        115         99        100        117        116        100        101        118        117        102        103        120        119        103        104        121        120        104        105        122        121        105        106        123        122        106        107        124        123        107        108        125        124        108        109        126        125        109        110        127        126        110        111        128        127        111        112        129        128        112        113        130        129        113        114        131        130        114        115        132        131        115        116        133        132        116        117        134        133        117        118        135        134        119        120        137        136        120        121        138        137        121        122        139        138        122        123        140        139        123        124        141        140        124        125        142        141        125        126        143        142        126        127        144        143        127        128        145        144        128        129        146        145        129        130        147        146        130        131        148        147        131        132        149        148        132        133        150        149        133        134        151        150        134        135        152        151        136        137        154        153        137        138        155        154        138        139        156        155        139        140        157        156        140        141        158        157        141        142        159        158        142        143        160        159        143        144        161        160        144        145        162        161        145        146        163        162        146        147        164        163        147        148        165        164        148        149        166        165        149        150        167        166        150        151        168        167        151        152        169        168        153        154        171        170        154        155        172        171        155        156        173        172        156        157        174        173        157        158        175        174        158        159        176        175        159        160        177        176        160        161        178        177        161        162        179        178        162        163        180        179        163        164        181        180        164        165        182        181        165        166        183        182        166        167        184        183        167        168        185        184        168        169        186        185        170        171        188        187        171        172        189        188        172        173        190        189        173        174        191        190        174        175        192        191        175        176        193        192        176        177        194        193        177        178        195        194        178        179        196        195        179        180        197        196        180        181        198        197        181        182        199        198        182        183        200        199        183        184        201        200        184        185        202        201        185        186        203        202        187        188        205        204        188        189        206        205        189        190        207        206        190        191        208        207        191        192        209        208        192        193        210        209        193        194        211        210        194        195        212        211        195        196        213        212        196        197        214        213        197        198        215        214        198        199        216        215        199        200        217        216        200        201        218        217        201        202        219        218        202        203        220        219        204        205        222        221        205        206        223        222        206        207        224        223        207        208        225        224        208        209        226        225        209        210        227        226        210        211        228        227        211        212        229        228        212        213        230        229        213        214        231        230        214        215        232        231        215        216        233        232        216        217        234        233        217        218        235        234        218        219        236        235        219        220        237        236        221        222        239        238        222        223        240        239        223        224        241        240        224        225        242        241        225        226        243        242        226        227        244        243        227        228        245        244        228        229        246        245        229        230        247        246        230        231        248        247        231        232        249        248        232        233        250        249        233        234        251        250        234        235        252        251        235        236        253        252        236        237        254        253        238        239        256        255        239        240        257        256        240        241        258        257        241        242        259        258        242        243        260        259        243        244        261        260        244        245        262        261        245        246        263        262        246        247        264        263        247        248        265        264        248        249        266        265        249        250        267        266        250        251        268        267        251        252        269        268        252        253        270        269        253        254        271        270        255        256        273        272        256        257        274        273        257        258        275        274        258        259        276        275        259        260        277        276        260        261        278        277        261        262        279        278        262        263        280        279        263        264        281        280        264        265        282        281        265        266        283        282        266        267        284        283        267        268        285        284        268        269        286        285        269        270        287        286        270        271        288        287        306        307          1          0        307        308          2          1        308        309          3          2        309        310          4          3        310        311          5          4        311        312          6          5        312        313          7          6        313        314          8          7        314        315          9          8        315        316         10          9        316        317         11         10        317        318         12         11        318        319         13         12        319        320         14         13        320        321         15         14        321        322         16         15        323        324        307        306        324        325        308        307        325        326        309        308        326        327        310        309        327        328        311        310        328        329        312        311        329        330        313        312        330        331        314        313        331        332        315        314        332        333        316        315        333        334        317        316        334        335        318        317        335        336        319        318        336        337        320        319        337        338        321        320        338        339        322        321        340        341        324        323        341        342        325        324        342        343        326        325        343        344        327        326        344        345        328        327        345        346        329        328        346        347        330        329        347        348        331        330        348        349        332        331        349        350        333        332        350        351        334        333        351        352        335        334        352        353        336        335        353        354        337        336        354        355        338        337        355        356        339        338        357        358        341        340        358        359        342        341        359        360        343        342        360        361        344        343        361        362        345        344        362        363        346        345        363        364        347        346        364        365        348        347        365        366        349        348        366        367        350        349        367        368        351        350        368        369        352        351        369        370        353        352        370        371        354        353        371        372        355        354        372        373        356        355        374        375        358        357        375        376        359        358        376        377        360        359        377        378        361        360        378        379        362        361        379        380        363        362        380        381        364        363        381        382        365        364        382        383        366        365        383        384        367        366        384        385        368        367        385        386        369        368        386        387        370        369        387        388        371        370        388        389        372        371        389        390        373        372        391        392        375        374        392        393        376        375        393        394        377        376        394        395        378        377        395        396        379        378        396        397        380        379        397        398        381        380        398        399        382        381        399        400        383        382        400        401        384        383        401        402        385        384        402        403        386        385        403        404        387        386        404        405        388        387        405        406        389        388        406        407        390        389        408        409        392        391        409        410        393        392        410        411        394        393        411        412        395        394        412        413        396        395        413        414        397        396        414        415        398        397        415        416        399        398        416        417        400        399        417        418        401        400        418        419        402        401        419        420        403        402        420        421        404        403        421        422        405        404        422        423        406        405        423        424        407        406        425        426        409        408        426        427        410        409        427        428        411        410        428        429        412        411        429        430        413        412        430        431        414        413        431        432        415        414        432        433        416        415        433        434        417        416        434        435        418        417        435        436        419        418        436        437        420        419        437        438        421        420        438        439        422        421        439        440        423        422        440        441        424        423        442        443        426        425        443        444        427        426        444        445        428        427        445        446        429        428        446        447        430        429        447        448        431        430        448        449        432        431        449        450        433        432        450        451        434        433        451        452        435        434        452        453        436        435        453        454        437        436        454        455        438        437        455        456        439        438        456        457        440        439        457        458        441        440        459        460        443        442        460        461        444        443        461        462        445        444        462        463        446        445        463        464        447        446        464        465        448        447        465        466        449        448        466        467        450        449        467        468        451        450        468        469        452        451        469        470        453        452        470        471        454        453        471        472        455        454        472        473        456        455        473        474        457        456        474        475        458        457        476        477        460        459        477        478        461        460        478        479        462        461        479        480        463        462        480        481        464        463        481        482        465        464        482        483        466        465        483        484        467        466        484        485        468        467        485        486        469        468        486        487        470        469        487        488        471        470        488        489        472        471        489        490        473        472        490        491        474        473        491        492        475        474        493        494        477        476        494        495        478        477        495        496        479        478        496        497        480        479        497        498        481        480        498        499        482        481        499        500        483        482        500        501        484        483        501        502        485        484        502        503        486        485        503        504        487        486        504        505        488        487        505        506        489        488        506        507        490        489        507        508        491        490        508        509        492        491        510        511        494        493        511        512        495        494        512        513        496        495        513        514        497        496        514        515        498        497        515        516        499        498        516        517        500        499        517        518        501        500        518        519        502        501        519        520        503        502        520        521        504        503        521        522        505        504        522        523        506        505        523        524        507        506        524        525        508        507        525        526        509        508        527        528        511        510        528        529        512        511        529        530        513        512        530        531        514        513        531        532        515        514        532        533        516        515        533        534        517        516        534        535        518        517        535        536        519        518        536        537        520        519        537        538        521        520        538        539        522        521        539        540        523        522        540        541        524        523        541        542        525        524        542        543        526        525        544        545        528        527        545        546        529        528        546        547        530        529        547        548        531        530        548        549        532        531        549        550        533        532        550        551        534        533        551        552        535        534        552        553        536        535        553        554        537        536        554        555        538        537        555        556        539        538        556        557        540        539        557        558        541        540        558        559        542        541        559        560        543        542        561        562        545        544        562        563        546        545        563        564        547        546        564        565        548        547        565        566        549        548        566        567        550        549        567        568        551        550        568        569        552        551        569        570        553        552        570        571        554        553        571        572        555        554        572        573        556        555        573        574        557        556        574        575        558        557        575        576        559        558        576        577        560        559        578        579        596        595        579        580        597        596        580        581        598        597        581        582        599        598        582        583        600        599        583        584        601        600        584        585        602        601        585        586        603        602        586        587        604        603        587        588        605        604        588        589        606        605        589        590        607        606        590        591        608        607        591        592        609        608        592        593        610        609        593        594        611        610        595        596        613        612        596        597        614        613        597        598        615        614        598        599        616        615        599        600        617        616        600        601        618        617        601        602        619        618        602        603        620        619        603        604        621        620        604        605        622        621        605        606        623        622        606        607        624        623        607        608        625        624        608        609        626        625        609        610        627        626        610        611        628        627        612        613        630        629        613        614        631        630        614        615        632        631        615        616        633        632        616        617        634        633        617        618        635        634        618        619        636        635        619        620        637        636        620        621        638        637        621        622        639        638        622        623        640        639        623        624        641        640        624        625        642        641        625        626        643        642        626        627        644        643        627        628        645        644        629        630        647        646        630        631        648        647        631        632        649        648        632        633        650        649        633        634        651        650        634        635        652        651        635        636        653        652        636        637        654        653        637        638        655        654        638        639        656        655        639        640        657        656        640        641        658        657        641        642        659        658        642        643        660        659        643        644        661        660        644        645        662        661        646        647        664        663        647        648        665        664        648        649        666        665        649        650        667        666        650        651        668        667        651        652        669        668        652        653        670        669        653        654        671        670        654        655        672        671        655        656        673        672        656        657        674        673        657        658        675        674        658        659        676        675        659        660        677        676        660        661        678        677        661        662        679        678        663        664        681        680        664        665        682        681        665        666        683        682        666        667        684        683        667        668        685        684        668        669        686        685        669        670        687        686        670        671        688        687        671        672        689        688        672        673        690        689        673        674        691        690        674        675        692        691        675        676        693        692        676        677        694        693        677        678        695        694        678        679        696        695        680        681        698        697        681        682        699        698        682        683        700        699        683        684        701        700        684        685        702        701        685        686        703        702        686        687        704        703        687        688        705        704        688        689        706        705        689        690        707        706        690        691        708        707        691        692        709        708        692        693        710        709        693        694        711        710        694        695        712        711        695        696        713        712        697        698        715        714        698        699        716        715        699        700        717        716        700        701        718        717        701        702        719        718        702        703        720        719        703        704        721        720        704        705        722        721        705        706        723        722        706        707        724        723        707        708        725        724        708        709        726        725        709        710        727        726        710        711        728        727        711        712        729        728        712        713        730        729        714        715        732        731        715        716        733        732        716        717        734        733        717        718        735        734        718        719        736        735        719        720        737        736        720        721        738        737        721        722        739        738        722        723        740        739        723        724        741        740        724        725        742        741        725        726        743        742        726        727        744        743        727        728        745        744        728        729        746        745        729        730        747        746        731        732        749        748        732        733        750        749        733        734        751        750        734        735        752        751        735        736        753        752        736        737        754        753        737        738        755        754        738        739        756        755        739        740        757        756        740        741        758        757        741        742        759        758        742        743        760        759        743        744        761        760        744        745        762        761        745        746        763        762        746        747        764        763        748        749        766        765        749        750        767        766        750        751        768        767        751        752        769        768        752        753        770        769        753        754        771        770        754        755        772        771        755        756        773        772        756        757        774        773        757        758        775        774        758        759        776        775        759        760        777        776        760        761        778        777        761        762        779        778        762        763        780        779        763        764        781        780        765        766        783        782        766        767        784        783        767        768        785        784        768        769        786        785        769        770        787        786        770        771        788        787        771        772        789        788        772        773        790        789        773        774        791        790        774        775        792        791        775        776        793        792        776        777        794        793        777        778        795        794        778        779        796        795        779        780        797        796        780        781        798        797        782        783        800        799        783        784        801        800        784        785        802        801        785        786        803        802        786        787        804        803        787        788        805        804        788        789        806        805        789        790        807        806        790        791        808        807        791        792        809        808        792        793        810        809        793        794        811        810        794        795        812        811        795        796        813        812        796        797        814        813        797        798        815        814        799        800        817        816        800        801        818        817        801        802        819        818        802        803        820        819        803        804        821        820        804        805        822        821        805        806        823        822        806        807        824        823        807        808        825        824        808        809        826        825        809        810        827        826        810        811        828        827        811        812        829        828        812        813        830        829        813        814        831        830        814        815        832        831        816        817        834        833        817        818        835        834        818        819        836        835        819        820        837        836        820        821        838        837        821        822        839        838        822        823        840        839        823        824        841        840        824        825        842        841        825        826        843        842        826        827        844        843        827        828        845        844        828        829        846        845        829        830        847        846        830        831        848        847        831        832        849        848        833        834        562        561        834        835        563        562        835        836        564        563        836        837        565        564        837        838        566        565        838        839        567        566        839        840        568        567        840        841        569        568        841        842        570        569        842        843        571        570        843        844        572        571        844        845        573        572        845        846        574        573        846        847        575        574        847        848        576        575        848        849        577        576        884        885        579        578        885        886        580        579        886        887        581        580        887        888        582        581        888        889        583        582        889        890        584        583        890        891        585        584        891        892        586        585        892        893        587        586        893        894        588        587        894        895        589        588        895        896        590        589        896        897        591        590        897        898        592        591        898        899        593        592        899        900        594        593        901        902        885        884        902        903        886        885        903        904        887        886        904        905        888        887        905        906        889        888        906        907        890        889        907        908        891        890        908        909        892        891        909        910        893        892        910        911        894        893        911        912        895        894        912        913        896        895        913        914        897        896        914        915        898        897        915        916        899        898        916        917        900        899        918        919        902        901        919        920        903        902        920        921        904        903        921        922        905        904        922        923        906        905        923        924        907        906        924        925        908        907        925        926        909        908        926        927        910        909        927        928        911        910        928        929        912        911        929        930        913        912        930        931        914        913        931        932        915        914        932        933        916        915        933        934        917        916        935        936        919        918        936        937        920        919        937        938        921        920        938        939        922        921        939        940        923        922        940        941        924        923        941        942        925        924        942        943        926        925        943        944        927        926        944        945        928        927        945        946        929        928        946        947        930        929        947        948        931        930        948        949        932        931        949        950        933        932        950        951        934        933        952        953        936        935        953        954        937        936        954        955        938        937        955        956        939        938        956        957        940        939        957        958        941        940        958        959        942        941        959        960        943        942        960        961        944        943        961        962        945        944        962        963        946        945        963        964        947        946        964        965        948        947        965        966        949        948        966        967        950        949        967        968        951        950        969        970        953        952        970        971        954        953        971        972        955        954        972        973        956        955        973        974        957        956        974        975        958        957        975        976        959        958        976        977        960        959        977        978        961        960        978        979        962        961        979        980        963        962        980        981        964        963        981        982        965        964        982        983        966        965        983        984        967        966        984        985        968        967        986        987        970        969        987        988        971        970        988        989        972        971        989        990        973        972        990        991        974        973        991        992        975        974        992        993        976        975        993        994        977        976        994        995        978        977        995        996        979        978        996        997        980        979        997        998        981        980        998        999        982        981        999       1000        983        982       1000       1001        984        983       1001       1002        985        984       1003       1004        987        986       1004       1005        988        987       1005       1006        989        988       1006       1007        990        989       1007       1008        991        990       1008       1009        992        991       1009       1010        993        992       1010       1011        994        993       1011       1012        995        994       1012       1013        996        995       1013       1014        997        996       1014       1015        998        997       1015       1016        999        998       1016       1017       1000        999       1017       1018       1001       1000       1018       1019       1002       1001       1020       1021       1004       1003       1021       1022       1005       1004       1022       1023       1006       1005       1023       1024       1007       1006       1024       1025       1008       1007       1025       1026       1009       1008       1026       1027       1010       1009       1027       1028       1011       1010       1028       1029       1012       1011       1029       1030       1013       1012       1030       1031       1014       1013       1031       1032       1015       1014       1032       1033       1016       1015       1033       1034       1017       1016       1034       1035       1018       1017       1035       1036       1019       1018       1037       1038       1021       1020       1038       1039       1022       1021       1039       1040       1023       1022       1040       1041       1024       1023       1041       1042       1025       1024       1042       1043       1026       1025       1043       1044       1027       1026       1044       1045       1028       1027       1045       1046       1029       1028       1046       1047       1030       1029       1047       1048       1031       1030       1048       1049       1032       1031       1049       1050       1033       1032       1050       1051       1034       1033       1051       1052       1035       1034       1052       1053       1036       1035       1054       1055       1038       1037       1055       1056       1039       1038       1056       1057       1040       1039       1057       1058       1041       1040       1058       1059       1042       1041       1059       1060       1043       1042       1060       1061       1044       1043       1061       1062       1045       1044       1062       1063       1046       1045       1063       1064       1047       1046       1064       1065       1048       1047       1065       1066       1049       1048       1066       1067       1050       1049       1067       1068       1051       1050       1068       1069       1052       1051       1069       1070       1053       1052       1071       1072       1055       1054       1072       1073       1056       1055       1073       1074       1057       1056       1074       1075       1058       1057       1075       1076       1059       1058       1076       1077       1060       1059       1077       1078       1061       1060       1078       1079       1062       1061       1079       1080       1063       1062       1080       1081       1064       1063       1081       1082       1065       1064       1082       1083       1066       1065       1083       1084       1067       1066       1084       1085       1068       1067       1085       1086       1069       1068       1086       1087       1070       1069       1088       1089       1072       1071       1089       1090       1073       1072       1090       1091       1074       1073       1091       1092       1075       1074       1092       1093       1076       1075       1093       1094       1077       1076       1094       1095       1078       1077       1095       1096       1079       1078       1096       1097       1080       1079       1097       1098       1081       1080       1098       1099       1082       1081       1099       1100       1083       1082       1100       1101       1084       1083       1101       1102       1085       1084       1102       1103       1086       1085       1103       1104       1087       1086       1105       1106       1089       1088       1106       1107       1090       1089       1107       1108       1091       1090       1108       1109       1092       1091       1109       1110       1093       1092       1110       1111       1094       1093       1111       1112       1095       1094       1112       1113       1096       1095       1113       1114       1097       1096       1114       1115       1098       1097       1115       1116       1099       1098       1116       1117       1100       1099       1117       1118       1101       1100       1118       1119       1102       1101       1119       1120       1103       1102       1120       1121       1104       1103       1122       1123       1106       1105       1123       1124       1107       1106       1124       1125       1108       1107       1125       1126       1109       1108       1126       1127       1110       1109       1127       1128       1111       1110       1128       1129       1112       1111       1129       1130       1113       1112       1130       1131       1114       1113       1131       1132       1115       1114       1132       1133       1116       1115       1133       1134       1117       1116       1134       1135       1118       1117       1135       1136       1119       1118       1136       1137       1120       1119       1137       1138       1121       1120        272        273       1123       1122        273        274       1124       1123        274        275       1125       1124        275        276       1126       1125        276        277       1127       1126        277        278       1128       1127        278        279       1129       1128        279        280       1130       1129        280        281       1131       1130        281        282       1132       1131        282        283       1133       1132        283        284       1134       1133        284        285       1135       1134        285        286       1136       1135        286        287       1137       1136        287        288       1138       1137 </DataArray>
<DataArray type="Int32"                                    Name="offsets"                                                      NumberOfComponents=" 1" format="ascii">
         4          8         12         16         20         24         28         32         36         40         44         48         52         56         60         64         68         72         76         80         84         88         92         96        100        104        108        112        116        120        124        128        132        136        140        144        148        152        156        160        164        168        172        176        180        184        188        192        196        200        204        208        212        216        220        224        228        232        236        240        244        248        252        256        260        264        268        272        276        280        284        288        292        296        300        304        308        312        316        320        324        328        332        336        340        344        348        352        356        360        364        368        372        376        380        384        388        392        396        400        404        408        412        416        420        424        428        432        436        440        444        448        452        456        460        464        468        472        476        480        484        488        492        496        500        504        508        512        516        520        524        528        532        536        540        544        548        552        556        560        564        568        572        576        580        584        588        592        596        600        604        608        612        616        620        624        628        632        636        640        644        648        652        656        660        664        668        672        676        680        684        688        692        696        700        704        708        712        716        720        724        728        732        736        740        744        748        752        756        760        764        768        772        776        780        784        788        792        796        800        804        808        812        816        820        824        828        832        836        840        844        848        852        856        860        864        868        872        876        880        884        888        892        896        900        904        908        912        916        920        924        928        932        936        940        944        948        952        956        960        964        968        972        976        980        984        988        992        996       1000       1004       1008       1012       1016       1020       1024       1028       1032       1036       1040       1044       1048       1052       1056       1060       1064       1068       1072       1076       1080       1084       1088       1092       1096       1100       1104       1108       1112       1116       1120       1124       1128       1132       1136       1140       1144       1148       1152       1156       1160       1164       1168       1172       1176       1180       1184       1188       1192       1196       1200       1204       1208       1212       1216       1220       1224       1228       1232       1236       1240       1244       1248       1252       1256       1260       1264       1268       1272       1276       1280       1284       1288       1292       1296       1300       1304       1308       1312       1316       1320       1324       1328       1332       1336       1340       1344       1348       1352       1356       1360       1364       1368       1372       1376       1380       1384       1388       1392       1396       1400       1404       1408       1412       1416       1420       1424       1428       1432       1436       1440       1444       1448       1452       1456       1460       1464       1468       1472       1476       1480       1484       1488       1492       1496       1500       1504       1508       1512       1516       1520       1524       1528       1532       1536       1540       1544       1548       1552       1556       1560       1564       1568       1572       1576       1580       1584       1588       1592       1596       1600       1604       1608       1612       1616       1620       1624       1628       1632       1636       1640       1644       1648       1652       1656       1660       1664       1668       1672       1676       1680       1684       1688       1692       1696       1700       1704       1708       1712       1716       1720       1724       1728       1732       1736       1740       1744       1748       1752       1756       1760       1764       1768       1772       1776       1780       1784       1788       1792       1796       1800       1804       1808       1812       1816       1820       1824       1828       1832       1836       1840       1844       1848       1852       1856       1860       1864       1868       1872       1876       1880       1884       1888       1892       1896       1900       1904       1908       1912       1916       1920       1924       1928       1932       1936       1940       1944       1948       1952       1956       1960       1964       1968       1972       1976       1980       1984       1988       1992       1996       2000       2004       2008       2012       2016       2020       2024       2028       2032       2036       2040       2044       2048       2052       2056       2060       2064       2068       2072       2076       2080       2084       2088       2092       2096       2100       2104       2108       2112       2116       2120       2124       2128       2132       2136       2140       2144       2148       2152       2156       2160       2164       2168       2172       2176       2180       2184       2188       2192       2196       2200       2204       2208       2212       2216       2220       2224       2228       2232       2236       2240       2244       2248       2252       2256       2260       2264       2268       2272       2276       2280       2284       2288       2292       2296       2300       2304       2308       2312       2316       2320       2324       2328       2332       2336       2340       2344       2348       2352       2356       2360       2364       2368       2372       2376       2380       2384       2388       2392       2396       2400       2404       2408       2412       2416       2420       2424       2428       2432       2436       2440       2444       2448       2452       2456       2460       2464       2468       2472       2476       2480       2484       2488       2492       2496       2500       2504       2508       2512       2516       2520       2524       2528       2532       2536       2540       2544       2548       2552       2556       2560       2564       2568       2572       2576       2580       2584       2588       2592       2596       2600       2604       2608       2612       2616       2620       2624       2628       2632       2636       2640       2644       2648       2652       2656       2660       2664       2668       2672       2676       2680       2684       2688       2692       2696       2700       2704       2708       2712       2716       2720       2724       2728       2732       2736       2740       2744       2748       2752       2756       2760       2764       2768       2772       2776       2780       2784       2788       2792       2796       2800       2804       2808       2812       2816       2820       2824       2828       2832       2836       2840       2844       2848       2852       2856       2860       2864       2868       2872       2876       2880       2884       2888       2892       2896       2900       2904       2908       2912       2916       2920       2924       2928       2932       2936       2940       2944       2948       2952       2956       2960       2964       2968       2972       2976       2980       2984       2988       2992       2996       3000       3004       3008       3012       3016       3020       3024       3028       3032       3036       3040       3044       3048       3052       3056       3060       3064       3068       3072       3076       3080       3084       3088       3092       3096       3100       3104       3108       3112       3116       3120       3124       3128       3132       3136       3140       3144       3148       3152       3156       3160       3164       3168       3172       3176       3180       3184       3188       3192       3196       3200       3204       3208       3212       3216       3220       3224       3228       3232       3236       3240       3244       3248       3252       3256       3260       3264       3268       3272       3276       3280       3284       3288       3292       3296       3300       3304       3308       3312       3316       3320       3324       3328       3332       3336       3340       3344       3348       3352       3356       3360       3364       3368       3372       3376       3380       3384       3388       3392       3396       3400       3404       3408       3412       3416       3420       3424       3428       3432       3436       3440       3444       3448       3452       3456       3460       3464       3468       3472       3476       3480       3484       3488       3492       3496       3500       3504       3508       3512       3516       3520       3524       3528       3532       3536       3540       3544       3548       3552       3556       3560       3564       3568       3572       3576       3580       3584       3588       3592       3596       3600       3604       3608       3612       3616       3620       3624       3628       3632       3636       3640       3644       3648       3652       3656       3660       3664       3668       3672       3676       3680       3684       3688       3692       3696       3700       3704       3708       3712       3716       3720       3724       3728       3732       3736       3740       3744       3748       3752       3756       3760       3764       3768       3772       3776       3780       3784       3788       3792       3796       3800       3804       3808       3812       3816       3820       3824       3828       3832       3836       3840       3844       3848       3852       3856       3860       3864       3868       3872       3876       3880       3884       3888       3892       3896       3900       3904       3908       3912       3916       3920       3924       3928       3932       3936       3940       3944       3948       3952       3956       3960       3964       3968       3972       3976       3980       3984       3988       3992       3996       4000       4004       4008       4012       4016       4020       4024       4028       4032       4036       4040       4044       4048       4052       4056       4060       4064       4068       4072       4076       4080       4084       4088       4092       4096 </DataArray>
<DataArray type="UInt8"                                    Name="types"                                                      NumberOfComponents=" 1" format="ascii">
         9          9          9          9          9          9          9          9          9          9          9          9          9          9          9          9          9          9          9          9          9          9          9          9          9          9          9          9          9          9          9          9          9          9          9          9          9          9          9          9          9          9          9          9          9          9          9          9          9          9          9          9          9          9          9          9          9          9          9          9          9          9          9          9          9          9          9          9          9          9          9          9          9          9          9          9          9          9          9          9          9          9          9          9          9          9          9          9          9          9          9          9          9          9          9          9          9          9          9          9          9          9          9          9          9          9          9          9          9          9          9          9          9          9          9          9          9          9          9          9          9          9          9          9          9          9          9          9          9          9          9          9          9          9          9          9          9          9          9          9          9          9          9          9          9          9          9          9          9          9          9          9          9          9          9          9          9          9          9          9          9          9          9          9          9          9          9          9          9          9          9          9          9          9          9          9          9          9          9          9          9          9          9          9          9          9          9          9          9          9          9          9          9          9          9          9          9          9          9          9          9          9          9          9          9          9          9          9          9          9          9          9          9          9          9          9          9          9          9          9          9          9          9          9          9          9          9          9          9          9          9          9          9          9          9          9          9          9          9          9          9          9          9          9          9          9          9          9          9          9          9          9          9          9          9          9          9          9          9          9          9          9          9          9          9          9          9          9          9          9          9          9          9          9          9          9          9          9          9          9          9          9          9          9          9          9          9          9          9          9          9          9          9          9          9          9          9          9          9          9          9          9          9          9          9          9          9          9          9          9          9          9          9          9          9          9          9          9          9          9          9          9          9          9          9          9          9          9          9          9          9          9          9          9          9          9          9          9          9          9          9          9          9          9          9          9          9          9          9          9          9          9          9          9          9          9          9          9          9          9          9          9          9          9          9          9          9          9          9          9          9          9          9          9          9          9          9          9          9          9          9          9          9          9          9          9          9          9          9          9          9          9          9          9          9          9          9          9          9          9          9          9          9          9          9          9          9          9          9          9          9          9          9          9          9          9          9          9          9          9          9          9          9          9          9          9          9          9          9          9          9          9          9          9          9          9          9          9          9          9          9          9          9          9          9          9          9          9          9          9          9          9          9          9          9          9          9          9          9          9          9          9          9          9          9          9          9          9          9          9          9          9          9          9          9          9          9          9          9          9          9          9          9          9          9          9          9          9          9          9          9          9          9          9          9          9          9          9          9          9          9          9          9          9          9          9          9          9          9          9          9          9          9          9          9          9          9          9          9          9          9          9          9          9          9          9          9          9          9          9          9          9          9          9          9          9          9          9          9          9          9          9          9          9          9          9          9          9          9          9          9          9          9          9          9          9          9          9          9          9          9          9          9          9          9          9          9          9          9          9          9          9          9          9          9          9          9          9          9          9          9          9          9          9          9          9          9          9          9          9          9          9          9          9          9          9          9          9          9          9          9          9          9          9          9          9          9          9          9          9          9          9          9          9          9          9          9          9          9          9          9          9          9          9          9          9          9          9          9          9          9          9          9          9          9          9          9          9          9          9          9          9          9          9          9          9          9          9          9          9          9          9          9          9          9          9          9          9          9          9          9          9          9          9          9          9          9          9          9          9          9          9          9          9          9          9          9          9          9          9          9          9          9          9          9          9          9          9          9          9          9          9          9          9          9          9          9          9          9          9          9          9          9          9          9          9          9          9          9          9          9          9          9          9          9          9          9          9          9          9          9          9          9          9          9          9          9          9          9          9          9          9          9          9          9          9          9          9          9          9          9          9          9          9          9          9          9          9          9          9          9          9          9          9          9          9          9          9          9          9          9          9          9          9          9          9          9          9          9          9          9          9          9          9          9          9          9          9          9          9          9          9          9          9          9          9          9          9          9          9          9          9          9          9          9          9          9          9          9          9          9          9          9          9          9          9          9          9          9          9          9          9          9          9          9          9          9          9          9          9          9          9          9          9          9          9          9          9          9          9          9          9          9          9          9          9          9          9          9          9          9          9          9          9          9          9          9          9          9          9          9          9          9          9          9          9          9          9          9          9          9          9          9          9          9          9          9          9          9          9          9          9          9          9          9          9          9          9          9          9          9          9          9          9          9          9          9          9          9          9          9          9          9          9          9          9          9          9          9          9          9          9          9          9          9          9          9          9          9          9          9          9          9          9          9          9          9          9          9          9          9          9          9          9          9          9          9          9          9          9          9          9          9          9          9          9          9          9          9          9          9          9          9          9          9          9          9          9          9          9          9          9          9          9          9          9          9          9          9          9          9          9          9          9          9          9          9          9          9          9          9          9          9          9          9          9          9          9          9          9          9          9          9          9          9          9          9          9          9          9          9          9          9          9          9          9          9          9          9          9          9          9          9          9          9          9          9          9          9          9          9          9          9          9          9          9          9          9          9          9          9          9          9          9 </DataArray>
</Cells>
<CellData>
<DataArray type="Int32"                                    Name="material"                                                      NumberOfComponents=" 1" format="ascii">
         1          1          1          1          1          1          1          1          1          1          1          1          1          1          1          1          1          1          1          1          1          1          1          1          1          1          1          1          1          1          1          1          1          1          1          1          1          1          1          1          1          1          1          1          1          1          1          1          1          1          1          1          1          1          1          1          1          1          1          1          1          1          1          1          1          1          1          1          1          1          1          1          1          1          1          1          1          1          1          1          1          1          1          1          1          1          1          1          1          1          1          1          1          1          1          1          1          1          1          1          1          1          1          1          1          1          1          1          1          1          1          1          1          1          1          1          1          1          1          1          1          1          1          1          1          1          1          1          1          1          1          1          1          1          1          1          1          1          1          1          1          1          1          1          1          1          1          1          1          1          1          1          1          1          1          1          1          1          1          1          1          1          1          1          1          1          1          1          1          1          1          1          1          1          1          1          1          1          1          1          1          1          1          1          1          1          1          1          1          1          1          1          1          1          1          1          1          1          1          1          1          1          1          1          1          1          1          1          1          1          1          1          1          1          1          1          1          1          1          1          1          1          1          1          1          1          1          1          1          1          1          1          1          1          1          1          1          1          1          1          1          1          1          1          1          1          1          1          1          1          1          1          1          1          1          1          1          1          1          1          1          1          1          1          1          1          1          1          1          1          1          1          1          1          1          1          1          1          1          1          1          1          1          1          1          1          1          1          1          1          1          1          1          1          1          1          1          1          1          1          1          1          1          1          1          1          1          1          1          1          1          1          1          1          1          1          1          1          1          1          1          1          1          1          1          1          1          1          1          1          1          1          1          1          1          1          1          1          1          1          1          1          1          1          1          1          1          1          1          1          1          1          1          1          1          1          1          1          1          1          1          1          1          1          1          1          1          1          1          1          1          1          1          1          1          1          1          1          1          1          1          1          1          1          1          1          1          1          1          1          1          1          1          1          1          1          1          1          1          1          1          1          1          1          1          1          1          1          1          1          1          1          1          1          1          1          1          1          1          1          1          1          1          1          1          1          1          1          1          1          1          1          1          1          1          1          1          1          1          1          1          1          1          1          1          1          1          1          1          1          1          1          1          1          1          1          1          1          1          1          1          1          1          1          1          1          1          1          1          1          1          1          1          1          1          1          1          1          1          1          1          1          1          1          1          1          1          1          1          1          1          1          1          1          1          1          1          1          1          1          1          1          1          1          1          1          1          1          1          1          1          1          1          1          1          1          1          1          1          1          1          1          1          1          1          1          1          1          1          1          1          1          1          1          1          1          1          1          1          1          1          1          1          1          1          1          1          1          1          1          1          1          1          1          1          1          1          1          1          1          1          1          1          1          1          1          1          1          1          1          1          1          1          1          1          1          1          1          1          1          1          1          1          1          1          1          1          1          1          1          1          1          1          1          1          1          1          1          1          1          1          1          1          1          1          1          1          1          1          1          1          1          1          1          1          1          1          1          1          1          1          1          1          1          1          1          1          1          1          1          1          1          1          1          1          1          1          1          1          1          1          1          1          1          1          1          1          1          1          1          1          1          1          1          1          1          1          1          1          1          1          1          1          1          1          1          1          1          1          1          1          1          1          1          1          1          1          1          1          1          1          1          1          1          1          1          1          1          1          1          1          1          1          1          1          1          1          1          1          1          1          1          1          1          1          1          1          1          1          1          1          1          1          1          1          1          1          1          1          1          1          1          1          1          1          1          1          1          1          1          1          1          1          1          1          1          1          1          1          1          1          1          1          1          1          1          1          1          1          1          1          1          1          1          1          1          1          1          1          1          1          1          1          1          1          1          1          1          1          1          1          1          1          1          1          1          1          1          1          1          1          1          1          1          1          1          1          1          1          1          1          1          1          1          1          1          1          1          1          1          1          1          1          1          1          1          1          1          1          1          1          1          1          1          1          1          1          1          1          1          1          1          1          1          1          1          1          1          1          1          1          1          1          1          1          1          1          1          1          1          1          1          1          1          1          1          1          1          1          1          1          1          1          1          1          1          1          1          1          1          1          1          1          1          1          1          1          1          1          1          1          1          1          1          1          1          1          1          1          1          1          1          1          1          1          1          1          1          1          1          1          1          1          1          1          1          1          1          1          1          1          1          1          1          1          1          1          1          1          1          1          1          1          1          1          1          1          1          1          1          1          1          1          1          1          1          1          1          1          1          1          1          1          1          1          1          1          1          1          1          1          1          1          1          1          1          1          1          1          1          1          1          1          1          1          1          1          1          1          1          1          1          1          1          1          1          1          1          1          1          1          1          1          1          1          1          1          1          1          1          1          1          1          1          1          1          1          1          1          1          1          1          1          1          1          1          1          1          1          1          1          1          1          1          1          1          1          1          1          1          1          1          1          1          1          1          1          1          1          1          1          1          1          1 </DataArray>
</CellData>
<PointData>
<DataArray type="Float64"                                    Name="u"                                                      NumberOfComponents=" 3" format="ascii">
             -0.000000024               0.000000000               1.000000000               0.000000020               0.000000000               1.000000000               0.000000085              -0.000000000               1.000000000               0.000000064              -0.000000000               1.000000000              -0.000000007               0.000000000               1.000000000              -0.000000082               0.000000000               1.000000000              -0.000000139              -0.000000000               1.000000000              -0.000000141              -0.000000000               1.000000000              -0.000000086               0.000000000               1.000000000               0.000000002               0.000000000               1.000000000               0.000000106              -0.000000000               1.000000000               0.000000198              -0.000000000               1.000000000               0.000000243               0.000000000               1.000000000               0.000000220               0.000000000               1.000000000               0.000000140              -0.000000000               1.000000000               0.000000048              -0.000000000               1.000000000              -0.000000007               0.000000000               1.000000000               0.000000019              -0.000000008               1.000000000              -0.000000010              -0.000000029               1.000000000              -0.000000063              -0.000000038               1.000000000              -0.000000059              -0.000000032               1.000000000              -0.000000011              -0.000000034               1.000000000               0.000000040               0.000000008               1.000000000               0.000000084               0.000000055               1.000000000               0.000000104               0.000000092               1.000000000               0.000000096               0.000000114               1.000000000               0.000000072               0.000000109               1.000000000               0.000000033               0.000000087               1.000000000              -0.000000026               0.000000080               1.000000000              -0.000000093               0.000000091               1.000000000              -0.000000142               0.000000098               1.000000000              -0.000000150               0.000000063               1.000000000              -0.000000107              -0.000000027               1.000000000              -0.000000026              -0.000000124               1.000000000               0.000000005              -0.000000038               1.000000000              -0.000000006              -0.000000004               1.000000000               0.000000006              -0.000000019               1.000000000               0.000000035               0.000000011               1.000000000               0.000000032               0.000000052               1.000000000               0.000000030               0.000000070               1.000000000               0.000000027               0.000000059               1.000000000               0.000000008               0.000000017               1.000000000              -0.000000029              -0.000000064               1.000000000              -0.000000092              -0.000000154               1.000000000              -0.000000177              -0.000000213               1.000000000              -0.000000250              -0.000000258               1.000000000              -0.000000270              -0.000000324               1.000000000              -0.000000204              -0.000000442               1.000000000              -0.000000061              -0.000000615               1.000000000               0.000000105              -0.000000804               1.000000000               0.000000206              -0.000000951               1.000000000              -0.000000031              -0.000000055               1.000000000               0.000000014               0.000000012               1.000000000               0.000000040               0.000000043               1.000000000              -0.000000005               0.000000070               1.000000000              -0.000000019               0.000000060               1.000000000              -0.000000031              -0.000000009               1.000000000              -0.000000060              -0.000000106               1.000000000              -0.000000081              -0.000000221               1.000000000              -0.000000096              -0.000000299               1.000000000              -0.000000097              -0.000000300               1.000000000              -0.000000059              -0.000000255               1.000000000               0.000000044              -0.000000218               1.000000000               0.000000220              -0.000000219               1.000000000               0.000000423              -0.000000240               1.000000000               0.000000555              -0.000000182               1.000000000               0.000000491               0.000000098               1.000000000               0.000000097               0.000000756               1.000000000               0.000000013               0.000000003               1.000000000              -0.000000007               0.000000035               1.000000000              -0.000000030               0.000000068               1.000000000              -0.000000003               0.000000015               1.000000000               0.000000008              -0.000000081               1.000000000              -0.000000003              -0.000000187               1.000000000              -0.000000011              -0.000000257               1.000000000              -0.000000016              -0.000000226               1.000000000               0.000000004              -0.000000056               1.000000000               0.000000055               0.000000227               1.000000000               0.000000157               0.000000552               1.000000000               0.000000303               0.000000884               1.000000000               0.000000417               0.000001253               1.000000000               0.000000372               0.000001793               1.000000000               0.000000025               0.000002690               1.000000000              -0.000000742               0.000004139               1.000000000              -0.000002011               0.000006322               1.000000000               0.000000024               0.000000093               1.000000000              -0.000000020               0.000000047               1.000000000               0.000000003               0.000000013               1.000000000               0.000000011              -0.000000135               1.000000000              -0.000000024              -0.000000220               1.000000000              -0.000000012              -0.000000191               1.000000000               0.000000011               0.000000026               1.000000000               0.000000064               0.000000466               1.000000000               0.000000118               0.000001112               1.000000000               0.000000188               0.000001885               1.000000000               0.000000256               0.000002724               1.000000000               0.000000227               0.000003664               1.000000000              -0.000000032               0.000004838               1.000000000              -0.000000668               0.000006459               1.000000000              -0.000001791               0.000008709               1.000000000              -0.000003459               0.000011742               1.000000000              -0.000005672               0.000015657               1.000000000               0.000000002               0.000000150               1.000000000              -0.000000001              -0.000000021               1.000000000               0.000000002              -0.000000129               1.000000000              -0.000000001              -0.000000207               1.000000000               0.000000022              -0.000000084               1.000000000               0.000000018               0.000000305               1.000000000               0.000000053               0.000001021               1.000000000               0.000000083               0.000002055               1.000000000               0.000000110               0.000003368               1.000000000               0.000000106               0.000004849               1.000000000              -0.000000024               0.000006516               1.000000000              -0.000000417               0.000008473               1.000000000              -0.000001237               0.000010940               1.000000000              -0.000002597               0.000014093               1.000000000              -0.000004547               0.000018065               1.000000000              -0.000007076               0.000022928               1.000000000              -0.000010119               0.000028685               1.000000000               0.000000004               0.000000137               1.000000000               0.000000021              -0.000000125               1.000000000              -0.000000011              -0.000000207               1.000000000               0.000000001              -0.000000082               1.000000000              -0.000000005               0.000000396               1.000000000               0.000000023               0.000001372               1.000000000               0.000000085               0.000002782               1.000000000               0.000000092               0.000004648               1.000000000               0.000000058               0.000006830               1.000000000              -0.000000112               0.000009308               1.000000000              -0.000000533               0.000012155               1.000000000              -0.000001395               0.000015573               1.000000000              -0.000002811               0.000019753               1.000000000              -0.000004849               0.000024824               1.000000000              -0.000007489               0.000030849               1.000000000              -0.000010675               0.000037773               1.000000000              -0.000014318               0.000045491               1.000000000              -0.000000007               0.000000022               1.000000000               0.000000031              -0.000000179               1.000000000              -0.000000023              -0.000000177               1.000000000              -0.000000007               0.000000313               1.000000000               0.000000010               0.000001396               1.000000000               0.000000038               0.000003063               1.000000000               0.000000053               0.000005355               1.000000000               0.000000006               0.000008163               1.000000000              -0.000000132               0.000011455               1.000000000              -0.000000489               0.000015235               1.000000000              -0.000001235               0.000019677               1.000000000              -0.000002534               0.000024965               1.000000000              -0.000004452               0.000031264               1.000000000              -0.000006983               0.000038637               1.000000000              -0.000010048               0.000047050               1.000000000              -0.000013553               0.000056387               1.000000000              -0.000017370               0.000066423               1.000000000              -0.000000037              -0.000000139               1.000000000               0.000000031              -0.000000153               1.000000000              -0.000000010              -0.000000107               1.000000000              -0.000000021               0.000000544               1.000000000              -0.000000006               0.000001740               1.000000000               0.000000010               0.000003510               1.000000000               0.000000059               0.000005922               1.000000000               0.000000037               0.000008857               1.000000000              -0.000000045               0.000012327               1.000000000              -0.000000217               0.000016243               1.000000000              -0.000000573               0.000020720               1.000000000              -0.000001245               0.000025820               1.000000000              -0.000002325               0.000031729               1.000000000              -0.000003832               0.000038494               1.000000000              -0.000005765               0.000046233               1.000000000              -0.000008055               0.000054895               1.000000000              -0.000010657               0.000064523               1.000000000              -0.000000030              -0.000000266               1.000000000               0.000000001              -0.000000138               1.000000000               0.000000022               0.000000031               1.000000000              -0.000000031               0.000000777               1.000000000               0.000000006               0.000002113               1.000000000               0.000000006               0.000003960               1.000000000               0.000000033               0.000006410               1.000000000               0.000000033               0.000009427               1.000000000              -0.000000003               0.000012998               1.000000000              -0.000000077               0.000017054               1.000000000              -0.000000213               0.000021630               1.000000000              -0.000000480               0.000026733               1.000000000              -0.000000971               0.000032469               1.000000000              -0.000001729               0.000038900               1.000000000              -0.000002762               0.000046103               1.000000000              -0.000004066               0.000054116               1.000000000              -0.000005624               0.000062969               1.000000000               0.000000002              -0.000000341               1.000000000              -0.000000043              -0.000000158               1.000000000               0.000000050               0.000000226               1.000000000              -0.000000026               0.000001008               1.000000000              -0.000000018               0.000002430               1.000000000              -0.000000011               0.000004392               1.000000000               0.000000008               0.000006863               1.000000000               0.000000034               0.000009944               1.000000000               0.000000026               0.000013545               1.000000000               0.000000002               0.000017707               1.000000000              -0.000000042               0.000022345               1.000000000              -0.000000111               0.000027519               1.000000000              -0.000000257               0.000033215               1.000000000              -0.000000531               0.000039523               1.000000000              -0.000000956               0.000046448               1.000000000              -0.000001526               0.000054068               1.000000000              -0.000002225               0.000062372               1.000000000               0.000000018              -0.000000386               1.000000000              -0.000000070              -0.000000187               1.000000000               0.000000043               0.000000384               1.000000000               0.000000004               0.000001272               1.000000000              -0.000000013               0.000002723               1.000000000               0.000000003               0.000004781               1.000000000              -0.000000003               0.000007274               1.000000000               0.000000016               0.000010350               1.000000000               0.000000023               0.000013963               1.000000000               0.000000021               0.000018135               1.000000000               0.000000016               0.000022819               1.000000000               0.000000016               0.000028036               1.000000000               0.000000012               0.000033738               1.000000000              -0.000000018               0.000039999               1.000000000              -0.000000110               0.000046795               1.000000000              -0.000000271               0.000054206               1.000000000              -0.000000494               0.000062192               1.000000000               0.000000023              -0.000000415               1.000000000              -0.000000059              -0.000000162               1.000000000               0.000000020               0.000000499               1.000000000               0.000000013               0.000001478               1.000000000              -0.000000014               0.000002950               1.000000000               0.000000004               0.000005045               1.000000000              -0.000000005               0.000007647               1.000000000              -0.000000006               0.000010716               1.000000000               0.000000008               0.000014337               1.000000000               0.000000013               0.000018487               1.000000000               0.000000014               0.000023157               1.000000000               0.000000021               0.000028362               1.000000000               0.000000038               0.000034062               1.000000000               0.000000067               0.000040283               1.000000000               0.000000095               0.000047007               1.000000000               0.000000097               0.000054283               1.000000000               0.000000061               0.000062092               1.000000000               0.000000013              -0.000000459               1.000000000              -0.000000039              -0.000000151               1.000000000               0.000000000               0.000000590               1.000000000               0.000000016               0.000001646               1.000000000              -0.000000014               0.000003156               1.000000000              -0.000000007               0.000005240               1.000000000               0.000000001               0.000007881               1.000000000              -0.000000001               0.000010967               1.000000000               0.000000008               0.000014596               1.000000000               0.000000012               0.000018728               1.000000000               0.000000008               0.000023378               1.000000000               0.000000003               0.000028552               1.000000000               0.000000006               0.000034241               1.000000000               0.000000020               0.000040438               1.000000000               0.000000045               0.000047132               1.000000000               0.000000074               0.000054335               1.000000000               0.000000094               0.000062046               1.000000000              -0.000000004              -0.000000469               1.000000000              -0.000000017              -0.000000161               1.000000000              -0.000000000               0.000000623               1.000000000               0.000000023               0.000001769               1.000000000              -0.000000002               0.000003298               1.000000000               0.000000004               0.000005374               1.000000000               0.000000009               0.000008045               1.000000000              -0.000000007               0.000011142               1.000000000              -0.000000018               0.000014770               1.000000000              -0.000000013               0.000018901               1.000000000              -0.000000005               0.000023540               1.000000000              -0.000000003               0.000028689               1.000000000              -0.000000012               0.000034360               1.000000000              -0.000000025               0.000040536               1.000000000              -0.000000035               0.000047219               1.000000000              -0.000000036               0.000054402               1.000000000              -0.000000027               0.000062087               1.000000000               0.000000000              -0.000000429               1.000000000              -0.000000000              -0.000000117               1.000000000               0.000000000               0.000000640               1.000000000              -0.000000000               0.000001768               1.000000000              -0.000000000               0.000003312               1.000000000              -0.000000000               0.000005406               1.000000000              -0.000000000               0.000008079               1.000000000              -0.000000000               0.000011173               1.000000000               0.000000000               0.000014814               1.000000000               0.000000000               0.000018968               1.000000000               0.000000000               0.000023620               1.000000000               0.000000000               0.000028753               1.000000000               0.000000000               0.000034397               1.000000000              -0.000000000               0.000040545               1.000000000              -0.000000000               0.000047215               1.000000000              -0.000000000               0.000054397               1.000000000              -0.000000000               0.000062090               1.000000000              -0.000000024               0.000000000               1.000000000               0.000000020               0.000000000               1.000000000               0.000000085              -0.000000000               1.000000000               0.000000064              -0.000000000               1.000000000              -0.000000007               0.000000000               1.000000000              -0.000000082               0.000000000               1.000000000              -0.000000139              -0.000000000               1.000000000              -0.000000141              -0.000000000               1.000000000              -0.000000086               0.000000000               1.000000000               0.000000002               0.000000000               1.000000000               0.000000106              -0.000000000               1.000000000               0.000000198              -0.000000000               1.000000000               0.000000243               0.000000000               1.000000000               0.000000220               0.000000000               1.000000000               0.000000140              -0.000000000               1.000000000               0.000000048              -0.000000000               1.000000000              -0.000000007               0.000000000               1.000000000               0.000000019               0.000000008               1.000000000              -0.000000010               0.000000029               1.000000000              -0.000000063               0.000000038               1.000000000              -0.000000059               0.000000032               1.000000000              -0.000000011               0.000000034               1.000000000               0.000000040              -0.000000008               1.000000000               0.000000084              -0.000000055               1.000000000               0.000000104              -0.000000092               1.000000000               0.000000096              -0.000000114               1.000000000               0.000000072              -0.000000109               1.000000000               0.000000033              -0.000000087               1.000000000              -0.000000026              -0.000000080               1.000000000              -0.000000093              -0.000000091               1.000000000              -0.000000142              -0.000000098               1.000000000              -0.000000150              -0.000000063               1.000000000              -0.000000107               0.000000027               1.000000000              -0.000000026               0.000000124               1.000000000               0.000000005               0.000000038               1.000000000              -0.000000006               0.000000004               1.000000000               0.000000006               0.000000019               1.000000000               0.000000035              -0.000000011               1.000000000               0.000000032              -0.000000052               1.000000000               0.000000030              -0.000000070               1.000000000               0.000000027              -0.000000059               1.000000000               0.000000008              -0.000000017               1.000000000              -0.000000029               0.000000064               1.000000000              -0.000000092               0.000000154               1.000000000              -0.000000177               0.000000213               1.000000000              -0.000000250               0.000000258               1.000000000              -0.000000270               0.000000324               1.000000000              -0.000000204               0.000000442               1.000000000              -0.000000061               0.000000615               1.000000000               0.000000105               0.000000804               1.000000000               0.000000206               0.000000951               1.000000000              -0.000000031               0.000000055               1.000000000               0.000000014              -0.000000012               1.000000000               0.000000040              -0.000000043               1.000000000              -0.000000005              -0.000000070               1.000000000              -0.000000019              -0.000000060               1.000000000              -0.000000031               0.000000009               1.000000000              -0.000000060               0.000000106               1.000000000              -0.000000081               0.000000221               1.000000000              -0.000000096               0.000000299               1.000000000              -0.000000097               0.000000300               1.000000000              -0.000000059               0.000000255               1.000000000               0.000000044               0.000000218               1.000000000               0.000000220               0.000000219               1.000000000               0.000000423               0.000000240               1.000000000               0.000000555               0.000000182               1.000000000               0.000000491              -0.000000098               1.000000000               0.000000097              -0.000000756               1.000000000               0.000000013              -0.000000003               1.000000000              -0.000000007              -0.000000035               1.000000000              -0.000000030              -0.000000068               1.000000000              -0.000000003              -0.000000015               1.000000000               0.000000008               0.000000081               1.000000000              -0.000000003               0.000000187               1.000000000              -0.000000011               0.000000257               1.000000000              -0.000000016               0.000000226               1.000000000               0.000000004               0.000000056               1.000000000               0.000000055              -0.000000227               1.000000000               0.000000157              -0.000000552               1.000000000               0.000000303              -0.000000884               1.000000000               0.000000417              -0.000001253               1.000000000               0.000000372              -0.000001793               1.000000000               0.000000025              -0.000002690               1.000000000              -0.000000742              -0.000004139               1.000000000              -0.000002011              -0.000006322               1.000000000               0.000000024              -0.000000093               1.000000000              -0.000000020              -0.000000047               1.000000000               0.000000003              -0.000000013               1.000000000               0.000000011               0.000000135               1.000000000              -0.000000024               0.000000220               1.000000000              -0.000000012               0.000000191               1.000000000               0.000000011              -0.000000026               1.000000000               0.000000064              -0.000000466               1.000000000               0.000000118              -0.000001112               1.000000000               0.000000188              -0.000001885               1.000000000               0.000000256              -0.000002724               1.000000000               0.000000227              -0.000003664               1.000000000              -0.000000032              -0.000004838               1.000000000              -0.000000668              -0.000006459               1.000000000              -0.000001791              -0.000008709               1.000000000              -0.000003459              -0.000011742               1.000000000              -0.000005672              -0.000015657               1.000000000               0.000000002              -0.000000150               1.000000000              -0.000000001               0.000000021               1.000000000               0.000000002               0.000000129               1.000000000              -0.000000001               0.000000207               1.000000000               0.000000022               0.000000084               1.000000000               0.000000018              -0.000000305               1.000000000               0.000000053              -0.000001021               1.000000000               0.000000083              -0.000002055               1.000000000               0.000000110              -0.000003368               1.000000000               0.000000106              -0.000004849               1.000000000              -0.000000024              -0.000006516               1.000000000              -0.000000417              -0.000008473               1.000000000              -0.000001237              -0.000010940               1.000000000              -0.000002597              -0.000014093               1.000000000              -0.000004547              -0.000018065               1.000000000              -0.000007076              -0.000022928               1.000000000              -0.000010119              -0.000028685               1.000000000               0.000000004              -0.000000137               1.000000000               0.000000021               0.000000125               1.000000000              -0.000000011               0.000000207               1.000000000               0.000000001               0.000000082               1.000000000              -0.000000005              -0.000000396               1.000000000               0.000000023              -0.000001372               1.000000000               0.000000085              -0.000002782               1.000000000               0.000000092              -0.000004648               1.000000000               0.000000058              -0.000006830               1.000000000              -0.000000112              -0.000009308               1.000000000              -0.000000533              -0.000012155               1.000000000              -0.000001395              -0.000015573               1.000000000              -0.000002811              -0.000019753               1.000000000              -0.000004849              -0.000024824               1.000000000              -0.000007489              -0.000030849               1.000000000              -0.000010675              -0.000037773               1.000000000              -0.000014318              -0.000045491               1.000000000              -0.000000007              -0.000000022               1.000000000               0.000000031               0.000000179               1.000000000              -0.000000023               0.000000177               1.000000000              -0.000000007              -0.000000313               1.000000000               0.000000010              -0.000001396               1.000000000               0.000000038              -0.000003063               1.000000000               0.000000053              -0.000005355               1.000000000               0.000000006              -0.000008163               1.000000000              -0.000000132              -0.000011455               1.000000000              -0.000000489              -0.000015235               1.000000000              -0.000001235              -0.000019677               1.000000000              -0.000002534              -0.000024965               1.000000000              -0.000004452              -0.000031264               1.000000000              -0.000006983              -0.000038637               1.000000000              -0.000010048              -0.000047050               1.000000000              -0.000013553              -0.000056387               1.000000000              -0.000017370              -0.000066423               1.000000000              -0.000000037               0.000000139               1.000000000               0.000000031               0.000000153               1.000000000              -0.000000010               0.000000107               1.000000000              -0.000000021              -0.000000544               1.000000000              -0.000000006              -0.000001740               1.000000000               0.000000010              -0.000003510               1.000000000               0.000000059              -0.000005922               1.000000000               0.000000037              -0.000008857               1.000000000              -0.000000045              -0.000012327               1.000000000              -0.000000217              -0.000016243               1.000000000              -0.000000573              -0.000020720               1.000000000              -0.000001245              -0.000025820               1.000000000              -0.000002325              -0.000031729               1.000000000              -0.000003832              -0.000038494               1.000000000              -0.000005765              -0.000046233               1.000000000              -0.000008055              -0.000054895               1.000000000              -0.000010657              -0.000064523               1.000000000              -0.000000030               0.000000266               1.000000000               0.000000001               0.000000138               1.000000000               0.000000022              -0.000000031               1.000000000              -0.000000031              -0.000000777               1.000000000               0.000000006              -0.000002113               1.000000000               0.000000006              -0.000003960               1.000000000               0.000000033              -0.000006410               1.000000000               0.000000033              -0.000009427               1.000000000              -0.000000003              -0.000012998               1.000000000              -0.000000077              -0.000017054               1.000000000              -0.000000213              -0.000021630               1.000000000              -0.000000480              -0.000026733               1.000000000              -0.000000971              -0.000032469               1.000000000              -0.000001729              -0.000038900               1.000000000              -0.000002762              -0.000046103               1.000000000              -0.000004066              -0.000054116               1.000000000              -0.000005624              -0.000062969               1.000000000               0.000000002               0.000000341               1.000000000              -0.000000043               0.000000158               1.000000000               0.000000050              -0.000000226               1.000000000              -0.000000026              -0.000001008               1.000000000              -0.000000018              -0.000002430               1.000000000              -0.000000011              -0.000004392               1.000000000               0.000000008              -0.000006863               1.000000000               0.000000034              -0.000009944               1.000000000               0.000000026              -0.000013545               1.000000000               0.000000002              -0.000017707               1.000000000              -0.000000042              -0.000022345               1.000000000              -0.000000111              -0.000027519               1.000000000              -0.000000257              -0.000033215               1.000000000              -0.000000531              -0.000039523               1.000000000              -0.000000956              -0.000046448               1.000000000              -0.000001526              -0.000054068               1.000000000              -0.000002225              -0.000062372               1.000000000               0.000000018               0.000000386               1.000000000              -0.000000070               0.000000187               1.000000000               0.000000043              -0.000000384               1.000000000               0.000000004              -0.000001272               1.000000000              -0.000000013              -0.000002723               1.000000000               0.000000003              -0.000004781               1.000000000              -0.000000003              -0.000007274               1.000000000               0.000000016              -0.000010350               1.000000000               0.000000023              -0.000013963               1.000000000               0.000000021              -0.000018135               1.000000000               0.000000016              -0.000022819               1.000000000               0.000000016              -0.000028036               1.000000000               0.000000012              -0.000033738               1.000000000              -0.000000018              -0.000039999               1.000000000              -0.000000110              -0.000046795               1.000000000              -0.000000271              -0.000054206               1.000000000              -0.000000494              -0.000062192               1.000000000               0.000000023               0.000000415               1.000000000              -0.000000059               0.000000162               1.000000000               0.000000020              -0.000000499               1.000000000               0.000000013              -0.000001478               1.000000000              -0.000000014              -0.000002950               1.000000000               0.000000004              -0.000005045               1.000000000              -0.000000005              -0.000007647               1.000000000              -0.000000006              -0.000010716               1.000000000               0.000000008              -0.000014337               1.000000000               0.000000013              -0.000018487               1.000000000               0.000000014              -0.000023157               1.000000000               0.000000021              -0.000028362               1.000000000               0.000000038              -0.000034062               1.000000000               0.000000067              -0.000040283               1.000000000               0.000000095              -0.000047007               1.000000000               0.000000097              -0.000054283               1.000000000               0.000000061              -0.000062092               1.000000000               0.000000013               0.000000459               1.000000000              -0.000000039               0.000000151               1.000000000               0.000000000              -0.000000590               1.000000000               0.000000016              -0.000001646               1.000000000              -0.000000014              -0.000003156               1.000000000              -0.000000007              -0.000005240               1.000000000               0.000000001              -0.000007881               1.000000000              -0.000000001              -0.000010967               1.000000000               0.000000008              -0.000014596               1.000000000               0.000000012              -0.000018728               1.000000000               0.000000008              -0.000023378               1.000000000               0.000000003              -0.000028552               1.000000000               0.000000006              -0.000034241               1.000000000               0.000000020              -0.000040438               1.000000000               0.000000045              -0.000047132               1.000000000               0.000000074              -0.000054335               1.000000000               0.000000094              -0.000062046               1.000000000              -0.000000004               0.000000469               1.000000000              -0.000000017               0.000000161               1.000000000              -0.000000000              -0.000000623               1.000000000               0.000000023              -0.000001769               1.000000000              -0.000000002              -0.000003298               1.000000000               0.000000004              -0.000005374               1.000000000               0.000000009              -0.000008045               1.000000000              -0.000000007              -0.000011142               1.000000000              -0.000000018              -0.000014770               1.000000000              -0.000000013              -0.000018901               1.000000000              -0.000000005              -0.000023540               1.000000000              -0.000000003              -0.000028689               1.000000000              -0.000000012              -0.000034360               1.000000000              -0.000000025              -0.000040536               1.000000000              -0.000000035              -0.000047219               1.000000000              -0.000000036              -0.000054402               1.000000000              -0.000000027              -0.000062087               1.000000000               0.000000000               0.000000429               1.000000000               0.000000000               0.000000117               1.000000000              -0.000000000              -0.000000640               1.000000000              -0.000000000              -0.000001768               1.000000000               0.000000000              -0.000003312               1.000000000               0.000000000              -0.000005406               1.000000000              -0.000000000              -0.000008079               1.000000000              -0.000000000              -0.000011173               1.000000000              -0.000000000              -0.000014814               1.000000000              -0.000000000              -0.000018968               1.000000000              -0.000000000              -0.000023620               1.000000000              -0.000000000              -0.000028753               1.000000000              -0.000000000              -0.000034397               1.000000000               0.000000000              -0.000040545               1.000000000               0.000000000              -0.000047215               1.000000000              -0.000000000              -0.000054397               1.000000000               0.000000000              -0.000062090               1.000000000               0.000000024              -0.000000000               1.000000000              -0.000000020              -0.000000000               1.000000000              -0.000000085               0.000000000               1.000000000              -0.000000064               0.000000000               1.000000000               0.000000007               0.000000000               1.000000000               0.000000082              -0.000000000               1.000000000               0.000000139              -0.000000000               1.000000000               0.000000141               0.000000000               1.000000000               0.000000086               0.000000000               1.000000000              -0.000000002              -0.000000000               1.000000000              -0.000000106               0.000000000               1.000000000              -0.000000198              -0.000000000               1.000000000              -0.000000243              -0.000000000               1.000000000              -0.000000220              -0.000000000               1.000000000              -0.000000140              -0.000000000               1.000000000              -0.000000048              -0.000000000               1.000000000               0.000000007              -0.000000000               1.000000000              -0.000000019               0.000000008               1.000000000               0.000000010               0.000000029               1.000000000               0.000000063               0.000000038               1.000000000               0.000000059               0.000000032               1.000000000               0.000000011               0.000000034               1.000000000              -0.000000040              -0.000000008               1.000000000              -0.000000084              -0.000000055               1.000000000              -0.000000104              -0.000000092               1.000000000              -0.000000096              -0.000000114               1.000000000              -0.000000072              -0.000000109               1.000000000              -0.000000033              -0.000000087               1.000000000               0.000000026              -0.000000080               1.000000000               0.000000093              -0.000000091               1.000000000               0.000000142              -0.000000098               1.000000000               0.000000150              -0.000000063               1.000000000               0.000000107               0.000000027               1.000000000               0.000000026               0.000000124               1.000000000              -0.000000005               0.000000038               1.000000000               0.000000006               0.000000004               1.000000000              -0.000000006               0.000000019               1.000000000              -0.000000035              -0.000000011               1.000000000              -0.000000032              -0.000000052               1.000000000              -0.000000030              -0.000000070               1.000000000              -0.000000027              -0.000000059               1.000000000              -0.000000008              -0.000000017               1.000000000               0.000000029               0.000000064               1.000000000               0.000000092               0.000000154               1.000000000               0.000000177               0.000000213               1.000000000               0.000000250               0.000000258               1.000000000               0.000000270               0.000000324               1.000000000               0.000000204               0.000000442               1.000000000               0.000000061               0.000000615               1.000000000              -0.000000105               0.000000804               1.000000000              -0.000000206               0.000000951               1.000000000               0.000000031               0.000000055               1.000000000              -0.000000014              -0.000000012               1.000000000              -0.000000040              -0.000000043               1.000000000               0.000000005              -0.000000070               1.000000000               0.000000019              -0.000000060               1.000000000               0.000000031               0.000000009               1.000000000               0.000000060               0.000000106               1.000000000               0.000000081               0.000000221               1.000000000               0.000000096               0.000000299               1.000000000               0.000000097               0.000000300               1.000000000               0.000000059               0.000000255               1.000000000              -0.000000044               0.000000218               1.000000000              -0.000000220               0.000000219               1.000000000              -0.000000423               0.000000240               1.000000000              -0.000000555               0.000000182               1.000000000              -0.000000491              -0.000000098               1.000000000              -0.000000097              -0.000000756               1.000000000              -0.000000013              -0.000000003               1.000000000               0.000000007              -0.000000035               1.000000000               0.000000030              -0.000000068               1.000000000               0.000000003              -0.000000015               1.000000000              -0.000000008               0.000000081               1.000000000               0.000000003               0.000000187               1.000000000               0.000000011               0.000000257               1.000000000               0.000000016               0.000000226               1.000000000              -0.000000004               0.000000056               1.000000000              -0.000000055              -0.000000227               1.000000000              -0.000000157              -0.000000552               1.000000000              -0.000000303              -0.000000884               1.000000000              -0.000000417              -0.000001253               1.000000000              -0.000000372              -0.000001793               1.000000000              -0.000000025              -0.000002690               1.000000000               0.000000742              -0.000004139               1.000000000               0.000002011              -0.000006322               1.000000000              -0.000000024              -0.000000093               1.000000000               0.000000020              -0.000000047               1.000000000              -0.000000003              -0.000000013               1.000000000              -0.000000011               0.000000135               1.000000000               0.000000024               0.000000220               1.000000000               0.000000012               0.000000191               1.000000000              -0.000000011              -0.000000026               1.000000000              -0.000000064              -0.000000466               1.000000000              -0.000000118              -0.000001112               1.000000000              -0.000000188              -0.000001885               1.000000000              -0.000000256              -0.000002724               1.000000000              -0.000000227              -0.000003664               1.000000000               0.000000032              -0.000004838               1.000000000               0.000000668              -0.000006459               1.000000000               0.000001791              -0.000008709               1.000000000               0.000003459              -0.000011742               1.000000000               0.000005672              -0.000015657               1.000000000              -0.000000002              -0.000000150               1.000000000               0.000000001               0.000000021               1.000000000              -0.000000002               0.000000129               1.000000000               0.000000001               0.000000207               1.000000000              -0.000000022               0.000000084               1.000000000              -0.000000018              -0.000000305               1.000000000              -0.000000053              -0.000001021               1.000000000              -0.000000083              -0.000002055               1.000000000              -0.000000110              -0.000003368               1.000000000              -0.000000106              -0.000004849               1.000000000               0.000000024              -0.000006516               1.000000000               0.000000417              -0.000008473               1.000000000               0.000001237              -0.000010940               1.000000000               0.000002597              -0.000014093               1.000000000               0.000004547              -0.000018065               1.000000000               0.000007076              -0.000022928               1.000000000               0.000010119              -0.000028685               1.000000000              -0.000000004              -0.000000137               1.000000000              -0.000000021               0.000000125               1.000000000               0.000000011               0.000000207               1.000000000              -0.000000001               0.000000082               1.000000000               0.000000005              -0.000000396               1.000000000              -0.000000023              -0.000001372               1.000000000              -0.000000085              -0.000002782               1.000000000              -0.000000092              -0.000004648               1.000000000              -0.000000058              -0.000006830               1.000000000               0.000000112              -0.000009308               1.000000000               0.000000533              -0.000012155               1.000000000               0.000001395              -0.000015573               1.000000000               0.000002811              -0.000019753               1.000000000               0.000004849              -0.000024824               1.000000000               0.000007489              -0.000030849               1.000000000               0.000010675              -0.000037773               1.000000000               0.000014318              -0.000045491               1.000000000               0.000000007              -0.000000022               1.000000000              -0.000000031               0.000000179               1.000000000               0.000000023               0.000000177               1.000000000               0.000000007              -0.000000313               1.000000000              -0.000000010              -0.000001396               1.000000000              -0.000000038              -0.000003063               1.000000000              -0.000000053              -0.000005355               1.000000000              -0.000000006              -0.000008163               1.000000000               0.000000132              -0.000011455               1.000000000               0.000000489              -0.000015235               1.000000000               0.000001235              -0.000019677               1.000000000               0.000002534              -0.000024965               1.000000000               0.000004452              -0.000031264               1.000000000               0.000006983              -0.000038637               1.000000000               0.000010048              -0.000047050               1.000000000               0.000013553              -0.000056387               1.000000000               0.000017370              -0.000066423               1.000000000               0.000000037               0.000000139               1.000000000              -0.000000031               0.000000153               1.000000000               0.000000010               0.000000107               1.000000000               0.000000021              -0.000000544               1.000000000               0.000000006              -0.000001740               1.000000000              -0.000000010              -0.000003510               1.000000000              -0.000000059              -0.000005922               1.000000000              -0.000000037              -0.000008857               1.000000000               0.000000045              -0.000012327               1.000000000               0.000000217              -0.000016243               1.000000000               0.000000573              -0.000020720               1.000000000               0.000001245              -0.000025820               1.000000000               0.000002325              -0.000031729               1.000000000               0.000003832              -0.000038494               1.000000000               0.000005765              -0.000046233               1.000000000               0.000008055              -0.000054895               1.000000000               0.000010657              -0.000064523               1.000000000               0.000000030               0.000000266               1.000000000              -0.000000001               0.000000138               1.000000000              -0.000000022              -0.000000031               1.000000000               0.000000031              -0.000000777               1.000000000              -0.000000006              -0.000002113               1.000000000              -0.000000006              -0.000003960               1.000000000              -0.000000033              -0.000006410               1.000000000              -0.000000033              -0.000009427               1.000000000               0.000000003              -0.000012998               1.000000000               0.000000077              -0.000017054               1.000000000               0.000000213              -0.000021630               1.000000000               0.000000480              -0.000026733               1.000000000               0.000000971              -0.000032469               1.000000000               0.000001729              -0.000038900               1.000000000               0.000002762              -0.000046103               1.000000000               0.000004066              -0.000054116               1.000000000               0.000005624              -0.000062969               1.000000000              -0.000000002               0.000000341               1.000000000               0.000000043               0.000000158               1.000000000              -0.000000050              -0.000000226               1.000000000               0.000000026              -0.000001008               1.000000000               0.000000018              -0.000002430               1.000000000               0.000000011              -0.000004392               1.000000000              -0.000000008              -0.000006863               1.000000000              -0.000000034              -0.000009944               1.000000000              -0.000000026              -0.000013545               1.000000000              -0.000000002              -0.000017707               1.000000000               0.000000042              -0.000022345               1.000000000               0.000000111              -0.000027519               1.000000000               0.000000257              -0.000033215               1.000000000               0.000000531              -0.000039523               1.000000000               0.000000956              -0.000046448               1.000000000               0.000001526              -0.000054068               1.000000000               0.000002225              -0.000062372               1.000000000              -0.000000018               0.000000386               1.000000000               0.000000070               0.000000187               1.000000000              -0.000000043              -0.000000384               1.000000000              -0.000000004              -0.000001272               1.000000000               0.000000013              -0.000002723               1.000000000              -0.000000003              -0.000004781               1.000000000               0.000000003              -0.000007274               1.000000000              -0.000000016              -0.000010350               1.000000000              -0.000000023              -0.000013963               1.000000000              -0.000000021              -0.000018135               1.000000000              -0.000000016              -0.000022819               1.000000000              -0.000000016              -0.000028036               1.000000000              -0.000000012              -0.000033738               1.000000000               0.000000018              -0.000039999               1.000000000               0.000000110              -0.000046795               1.000000000               0.000000271              -0.000054206               1.000000000               0.000000494              -0.000062192               1.000000000              -0.000000023               0.000000415               1.000000000               0.000000059               0.000000162               1.000000000              -0.000000020              -0.000000499               1.000000000              -0.000000013              -0.000001478               1.000000000               0.000000014              -0.000002950               1.000000000              -0.000000004              -0.000005045               1.000000000               0.000000005              -0.000007647               1.000000000               0.000000006              -0.000010716               1.000000000              -0.000000008              -0.000014337               1.000000000              -0.000000013              -0.000018487               1.000000000              -0.000000014              -0.000023157               1.000000000              -0.000000021              -0.000028362               1.000000000              -0.000000038              -0.000034062               1.000000000              -0.000000067              -0.000040283               1.000000000              -0.000000095              -0.000047007               1.000000000              -0.000000097              -0.000054283               1.000000000              -0.000000061              -0.000062092               1.000000000              -0.000000013               0.000000459               1.000000000               0.000000039               0.000000151               1.000000000              -0.000000000              -0.000000590               1.000000000              -0.000000016              -0.000001646               1.000000000               0.000000014              -0.000003156               1.000000000               0.000000007              -0.000005240               1.000000000              -0.000000001              -0.000007881               1.000000000               0.000000001              -0.000010967               1.000000000              -0.000000008              -0.000014596               1.000000000              -0.000000012              -0.000018728               1.000000000              -0.000000008              -0.000023378               1.000000000              -0.000000003              -0.000028552               1.000000000              -0.000000006              -0.000034241               1.000000000              -0.000000020              -0.000040438               1.000000000              -0.000000045              -0.000047132               1.000000000              -0.000000074              -0.000054335               1.000000000              -0.000000094              -0.000062046               1.000000000               0.000000004               0.000000469               1.000000000               0.000000017               0.000000161               1.000000000               0.000000000              -0.000000623               1.000000000              -0.000000023              -0.000001769               1.000000000               0.000000002              -0.000003298               1.000000000              -0.000000004              -0.000005374               1.000000000              -0.000000009              -0.000008045               1.000000000               0.000000007              -0.000011142               1.000000000               0.000000018              -0.000014770               1.000000000               0.000000013              -0.000018901               1.000000000               0.000000005              -0.000023540               1.000000000               0.000000003              -0.000028689               1.000000000               0.000000012              -0.000034360               1.000000000               0.000000025              -0.000040536               1.000000000               0.000000035              -0.000047219               1.000000000               0.000000036              -0.000054402               1.000000000               0.000000027              -0.000062087               1.000000000               0.000000000               0.000000429               1.000000000               0.000000000               0.000000117               1.000000000              -0.000000000              -0.000000640               1.000000000              -0.000000000              -0.000001768               1.000000000               0.000000000              -0.000003312               1.000000000               0.000000000              -0.000005406               1.000000000              -0.000000000              -0.000008079               1.000000000              -0.000000000              -0.000011173               1.000000000              -0.000000000              -0.000014814               1.000000000              -0.000000000              -0.000018968               1.000000000              -0.000000000              -0.000023620               1.000000000              -0.000000000              -0.000028753               1.000000000              -0.000000000              -0.000034397               1.000000000               0.000000000              -0.000040545               1.000000000               0.000000000              -0.000047215               1.000000000              -0.000000000              -0.000054397               1.000000000               0.000000000              -0.000062090               1.000000000               0.000000024              -0.000000000               1.000000000              -0.000000020              -0.000000000               1.000000000              -0.000000085               0.000000000               1.000000000              -0.000000064               0.000000000               1.000000000               0.000000007               0.000000000               1.000000000               0.000000082              -0.000000000               1.000000000               0.000000139              -0.000000000               1.000000000               0.000000141               0.000000000               1.000000000               0.000000086               0.000000000               1.000000000              -0.000000002              -0.000000000               1.000000000              -0.000000106               0.000000000               1.000000000              -0.000000198              -0.000000000               1.000000000              -0.000000243              -0.000000000               1.000000000              -0.000000220              -0.000000000               1.000000000              -0.000000140              -0.000000000               1.000000000              -0.000000048              -0.000000000               1.000000000               0.000000007              -0.000000000               1.000000000              -0.000000019              -0.000000008               1.000000000               0.000000010              -0.000000029               1.000000000               0.000000063              -0.000000038               1.000000000               0.000000059              -0.000000032               1.000000000               0.000000011              -0.000000034               1.000000000              -0.000000040               0.000000008               1.000000000              -0.000000084               0.000000055               1.000000000              -0.000000104               0.000000092               1.000000000              -0.000000096               0.000000114               1.000000000              -0.000000072               0.000000109               1.000000000              -0.000000033               0.000000087               1.000000000               0.000000026               0.000000080               1.000000000               0.000000093               0.000000091               1.000000000               0.000000142               0.000000098               1.000000000               0.000000150               0.000000063               1.000000000               0.000000107              -0.000000027               1.000000000               0.000000026              -0.000000124               1.000000000              -0.000000005              -0.000000038               1.000000000               0.000000006              -0.000000004               1.000000000              -0.000000006              -0.000000019               1.000000000              -0.000000035               0.000000011               1.000000000              -0.000000032               0.000000052               1.000000000              -0.000000030               0.000000070               1.000000000              -0.000000027               0.000000059               1.000000000              -0.000000008               0.000000017               1.000000000               0.000000029              -0.000000064               1.000000000               0.000000092              -0.000000154               1.000000000               0.000000177              -0.000000213               1.000000000               0.000000250              -0.000000258               1.000000000               0.000000270              -0.000000324               1.000000000               0.000000204              -0.000000442               1.000000000               0.000000061              -0.000000615               1.000000000              -0.000000105              -0.000000804               1.000000000              -0.000000206              -0.000000951               1.000000000               0.000000031              -0.000000055               1.000000000              -0.000000014               0.000000012               1.000000000              -0.000000040               0.000000043               1.000000000               0.000000005               0.000000070               1.000000000               0.000000019               0.000000060               1.000000000               0.000000031              -0.000000009               1.000000000               0.000000060              -0.000000106               1.000000000               0.000000081              -0.000000221               1.000000000               0.000000096              -0.000000299               1.000000000               0.000000097              -0.000000300               1.000000000               0.000000059              -0.000000255               1.000000000              -0.000000044              -0.000000218               1.000000000              -0.000000220              -0.000000219               1.000000000              -0.000000423              -0.000000240               1.000000000              -0.000000555              -0.000000182               1.000000000              -0.000000491               0.000000098               1.000000000              -0.000000097               0.000000756               1.000000000              -0.000000013               0.000000003               1.000000000               0.000000007               0.000000035               1.000000000               0.000000030               0.000000068               1.000000000               0.000000003               0.000000015               1.000000000              -0.000000008              -0.000000081               1.000000000               0.000000003              -0.000000187               1.000000000               0.000000011              -0.000000257               1.000000000               0.000000016              -0.000000226               1.000000000              -0.000000004              -0.000000056               1.000000000              -0.000000055               0.000000227               1.000000000              -0.000000157               0.000000552               1.000000000              -0.000000303               0.000000884               1.000000000              -0.000000417               0.000001253               1.000000000              -0.000000372               0.000001793               1.000000000              -0.000000025               0.000002690               1.000000000               0.000000742               0.000004139               1.000000000               0.000002011               0.000006322               1.000000000              -0.000000024               0.000000093               1.000000000               0.000000020               0.000000047               1.000000000              -0.000000003               0.000000013               1.000000000              -0.000000011              -0.000000135               1.000000000               0.000000024              -0.000000220               1.000000000               0.000000012              -0.000000191               1.000000000              -0.000000011               0.000000026               1.000000000              -0.000000064               0.000000466               1.000000000              -0.000000118               0.000001112               1.000000000              -0.000000188               0.000001885               1.000000000              -0.000000256               0.000002724               1.000000000              -0.000000227               0.000003664               1.000000000               0.000000032               0.000004838               1.000000000               0.000000668               0.000006459               1.000000000               0.000001791               0.000008709               1.000000000               0.000003459               0.000011742               1.000000000               0.000005672               0.000015657               1.000000000              -0.000000002               0.000000150               1.000000000               0.000000001              -0.000000021               1.000000000              -0.000000002              -0.000000129               1.000000000               0.000000001              -0.000000207               1.000000000              -0.000000022              -0.000000084               1.000000000              -0.000000018               0.000000305               1.000000000              -0.000000053               0.000001021               1.000000000              -0.000000083               0.000002055               1.000000000              -0.000000110               0.000003368               1.000000000              -0.000000106               0.000004849               1.000000000               0.000000024               0.000006516               1.000000000               0.000000417               0.000008473               1.000000000               0.000001237               0.000010940               1.000000000               0.000002597               0.000014093               1.000000000               0.000004547               0.000018065               1.000000000               0.000007076               0.000022928               1.000000000               0.000010119               0.000028685               1.000000000              -0.000000004               0.000000137               1.000000000              -0.000000021              -0.000000125               1.000000000               0.000000011              -0.000000207               1.000000000              -0.000000001              -0.000000082               1.000000000               0.000000005               0.000000396               1.000000000              -0.000000023               0.000001372               1.000000000              -0.000000085               0.000002782               1.000000000              -0.000000092               0.000004648               1.000000000              -0.000000058               0.000006830               1.000000000               0.000000112               0.000009308               1.000000000               0.000000533               0.000012155               1.000000000               0.000001395               0.000015573               1.000000000               0.000002811               0.000019753               1.000000000               0.000004849               0.000024824               1.000000000               0.000007489               0.000030849               1.000000000               0.000010675               0.000037773               1.000000000               0.000014318               0.000045491               1.000000000               0.000000007               0.000000022               1.000000000              -0.000000031              -0.000000179               1.000000000               0.000000023              -0.000000177               1.000000000               0.000000007               0.000000313               1.000000000              -0.000000010               0.000001396               1.000000000              -0.000000038               0.000003063               1.000000000              -0.000000053               0.000005355               1.000000000              -0.000000006               0.000008163               1.000000000               0.000000132               0.000011455               1.000000000               0.000000489               0.000015235               1.000000000               0.000001235               0.000019677               1.000000000               0.000002534               0.000024965               1.000000000               0.000004452               0.000031264               1.000000000               0.000006983               0.000038637               1.000000000               0.000010048               0.000047050               1.000000000               0.000013553               0.000056387               1.000000000               0.000017370               0.000066423               1.000000000               0.000000037              -0.000000139               1.000000000              -0.000000031              -0.000000153               1.000000000               0.000000010              -0.000000107               1.000000000               0.000000021               0.000000544               1.000000000               0.000000006               0.000001740               1.000000000              -0.000000010               0.000003510               1.000000000              -0.000000059               0.000005922               1.000000000              -0.000000037               0.000008857               1.000000000               0.000000045               0.000012327               1.000000000               0.000000217               0.000016243               1.000000000               0.000000573               0.000020720               1.000000000               0.000001245               0.000025820               1.000000000               0.000002325               0.000031729               1.000000000               0.000003832               0.000038494               1.000000000               0.000005765               0.000046233               1.000000000               0.000008055               0.000054895               1.000000000               0.000010657               0.000064523               1.000000000               0.000000030              -0.000000266               1.000000000              -0.000000001              -0.000000138               1.000000000              -0.000000022               0.000000031               1.000000000               0.000000031               0.000000777               1.000000000              -0.000000006               0.000002113               1.000000000              -0.000000006               0.000003960               1.000000000              -0.000000033               0.000006410               1.000000000              -0.000000033               0.000009427               1.000000000               0.000000003               0.000012998               1.000000000               0.000000077               0.000017054               1.000000000               0.000000213               0.000021630               1.000000000               0.000000480               0.000026733               1.000000000               0.000000971               0.000032469               1.000000000               0.000001729               0.000038900               1.000000000               0.000002762               0.000046103               1.000000000               0.000004066               0.000054116               1.000000000               0.000005624               0.000062969               1.000000000              -0.000000002              -0.000000341               1.000000000               0.000000043              -0.000000158               1.000000000              -0.000000050               0.000000226               1.000000000               0.000000026               0.000001008               1.000000000               0.000000018               0.000002430               1.000000000               0.000000011               0.000004392               1.000000000              -0.000000008               0.000006863               1.000000000              -0.000000034               0.000009944               1.000000000              -0.000000026               0.000013545               1.000000000              -0.000000002               0.000017707               1.000000000               0.000000042               0.000022345               1.000000000               0.000000111               0.000027519               1.000000000               0.000000257               0.000033215               1.000000000               0.000000531               0.000039523               1.000000000               0.000000956               0.000046448               1.000000000               0.000001526               0.000054068               1.000000000               0.000002225               0.000062372               1.000000000              -0.000000018              -0.000000386               1.000000000               0.000000070              -0.000000187               1.000000000              -0.000000043               0.000000384               1.000000000              -0.000000004               0.000001272               1.000000000               0.000000013               0.000002723               1.000000000              -0.000000003               0.000004781               1.000000000               0.000000003               0.000007274               1.000000000              -0.000000016               0.000010350               1.000000000              -0.000000023               0.000013963               1.000000000              -0.000000021               0.000018135               1.000000000              -0.000000016               0.000022819               1.000000000              -0.000000016               0.000028036               1.000000000              -0.000000012               0.000033738               1.000000000               0.000000018               0.000039999               1.000000000               0.000000110               0.000046795               1.000000000               0.000000271               0.000054206               1.000000000               0.000000494               0.000062192               1.000000000              -0.000000023              -0.000000415               1.000000000               0.000000059              -0.000000162               1.000000000              -0.000000020               0.000000499               1.000000000              -0.000000013               0.000001478               1.000000000               0.000000014               0.000002950               1.000000000              -0.000000004               0.000005045               1.000000000               0.000000005               0.000007647               1.000000000               0.000000006               0.000010716               1.000000000              -0.000000008               0.000014337               1.000000000              -0.000000013               0.000018487               1.000000000              -0.000000014               0.000023157               1.000000000              -0.000000021               0.000028362               1.000000000              -0.000000038               0.000034062               1.000000000              -0.000000067               0.000040283               1.000000000              -0.000000095               0.000047007               1.000000000              -0.000000097               0.000054283               1.000000000              -0.000000061               0.000062092               1.000000000              -0.000000013              -0.000000459               1.000000000               0.000000039              -0.000000151               1.000000000              -0.000000000               0.000000590               1.000000000              -0.000000016               0.000001646               1.000000000               0.000000014               0.000003156               1.000000000               0.000000007               0.000005240               1.000000000              -0.000000001               0.000007881               1.000000000               0.000000001               0.000010967               1.000000000              -0.000000008               0.000014596               1.000000000              -0.000000012               0.000018728               1.000000000              -0.000000008               0.000023378               1.000000000              -0.000000003               0.000028552               1.000000000              -0.000000006               0.000034241               1.000000000              -0.000000020               0.000040438               1.000000000              -0.000000045               0.000047132               1.000000000              -0.000000074               0.000054335               1.000000000              -0.000000094               0.000062046               1.000000000               0.000000004              -0.000000469               1.000000000               0.000000017              -0.000000161               1.000000000               0.000000000               0.000000623               1.000000000              -0.000000023               0.000001769               1.000000000               0.000000002               0.000003298               1.000000000              -0.000000004               0.000005374               1.000000000              -0.000000009               0.000008045               1.000000000               0.000000007               0.000011142               1.000000000               0.000000018               0.000014770               1.000000000               0.000000013               0.000018901               1.000000000               0.000000005               0.000023540               1.000000000               0.000000003               0.000028689               1.000000000               0.000000012               0.000034360               1.000000000               0.000000025               0.000040536               1.000000000               0.000000035               0.000047219               1.000000000               0.000000036               0.000054402               1.000000000               0.000000027               0.000062087               1.000000000               0.000000000              -0.000000429               1.000000000              -0.000000000              -0.000000117               1.000000000               0.000000000               0.000000640               1.000000000              -0.000000000               0.000001768               1.000000000              -0.000000000               0.000003312               1.000000000              -0.000000000               0.000005406               1.000000000              -0.000000000               0.000008079               1.000000000              -0.000000000               0.000011173               1.000000000               0.000000000               0.000014814               1.000000000               0.000000000               0.000018968               1.000000000               0.000000000               0.000023620               1.000000000               0.000000000               0.000028753               1.000000000               0.000000000               0.000034397               1.000000000              -0.000000000               0.000040545               1.000000000              -0.000000000               0.000047215               1.000000000              -0.000000000               0.000054397               1.000000000              -0.000000000               0.000062090               1.000000000 </DataArray>
<DataArray type="Float64"                                    Name="defo"                                                      NumberOfComponents=" 3" format="ascii">
             -0.000000024               0.000000000               1.000000000               0.000000020               0.000000000               1.000000000               0.000000085              -0.000000000               1.000000000               0.000000064              -0.000000000               1.000000000              -0.000000007               0.000000000               1.000000000              -0.000000082               0.000000000               1.000000000              -0.000000139              -0.000000000               1.000000000              -0.000000141              -0.000000000               1.000000000              -0.000000086               0.000000000               1.000000000               0.000000002               0.000000000               1.000000000               0.000000106              -0.000000000               1.000000000               0.000000198              -0.000000000               1.000000000               0.000000243               0.000000000               1.000000000               0.000000220               0.000000000               1.000000000               0.000000140              -0.000000000               1.000000000               0.000000048              -0.000000000               1.000000000              -0.000000007               0.000000000               1.000000000               0.000000019              -0.000000008               1.000000000              -0.000000010              -0.000000029               1.000000000              -0.000000063              -0.000000038               1.000000000              -0.000000059              -0.000000032               1.000000000              -0.000000011              -0.000000034               1.000000000               0.000000040               0.000000008               1.000000000               0.000000084               0.000000055               1.000000000               0.000000104               0.000000092               1.000000000               0.000000096               0.000000114               1.000000000               0.000000072               0.000000109               1.000000000               0.000000033               0.000000087               1.000000000              -0.000000026               0.000000080               1.000000000              -0.000000093               0.000000091               1.000000000              -0.000000142               0.000000098               1.000000000              -0.000000150               0.000000063               1.000000000              -0.000000107              -0.000000027               1.000000000              -0.000000026              -0.000000124               1.000000000               0.000000005              -0.000000038               1.000000000              -0.000000006              -0.000000004               1.000000000               0.000000006              -0.000000019               1.000000000               0.000000035               0.000000011               1.000000000               0.000000032               0.000000052               1.000000000               0.000000030               0.000000070               1.000000000               0.000000027               0.000000059               1.000000000               0.000000008               0.000000017               1.000000000              -0.000000029              -0.000000064               1.000000000              -0.000000092              -0.000000154               1.000000000              -0.000000177              -0.000000213               1.000000000              -0.000000250              -0.000000258               1.000000000              -0.000000270              -0.000000324               1.000000000              -0.000000204              -0.000000442               1.000000000              -0.000000061              -0.000000615               1.000000000               0.000000105              -0.000000804               1.000000000               0.000000206              -0.000000951               1.000000000              -0.000000031              -0.000000055               1.000000000               0.000000014               0.000000012               1.000000000               0.000000040               0.000000043               1.000000000              -0.000000005               0.000000070               1.000000000              -0.000000019               0.000000060               1.000000000              -0.000000031              -0.000000009               1.000000000              -0.000000060              -0.000000106               1.000000000              -0.000000081              -0.000000221               1.000000000              -0.000000096              -0.000000299               1.000000000              -0.000000097              -0.000000300               1.000000000              -0.000000059              -0.000000255               1.000000000               0.000000044              -0.000000218               1.000000000               0.000000220              -0.000000219               1.000000000               0.000000423              -0.000000240               1.000000000               0.000000555              -0.000000182               1.000000000               0.000000491               0.000000098               1.000000000               0.000000097               0.000000756               1.000000000               0.000000013               0.000000003               1.000000000              -0.000000007               0.000000035               1.000000000              -0.000000030               0.000000068               1.000000000              -0.000000003               0.000000015               1.000000000               0.000000008              -0.000000081               1.000000000              -0.000000003              -0.000000187               1.000000000              -0.000000011              -0.000000257               1.000000000              -0.000000016              -0.000000226               1.000000000               0.000000004              -0.000000056               1.000000000               0.000000055               0.000000227               1.000000000               0.000000157               0.000000552               1.000000000               0.000000303               0.000000884               1.000000000               0.000000417               0.000001253               1.000000000               0.000000372               0.000001793               1.000000000               0.000000025               0.000002690               1.000000000              -0.000000742               0.000004139               1.000000000              -0.000002011               0.000006322               1.000000000               0.000000024               0.000000093               1.000000000              -0.000000020               0.000000047               1.000000000               0.000000003               0.000000013               1.000000000               0.000000011              -0.000000135               1.000000000              -0.000000024              -0.000000220               1.000000000              -0.000000012              -0.000000191               1.000000000               0.000000011               0.000000026               1.000000000               0.000000064               0.000000466               1.000000000               0.000000118               0.000001112               1.000000000               0.000000188               0.000001885               1.000000000               0.000000256               0.000002724               1.000000000               0.000000227               0.000003664               1.000000000              -0.000000032               0.000004838               1.000000000              -0.000000668               0.000006459               1.000000000              -0.000001791               0.000008709               1.000000000              -0.000003459               0.000011742               1.000000000              -0.000005672               0.000015657               1.000000000               0.000000002               0.000000150               1.000000000              -0.000000001              -0.000000021               1.000000000               0.000000002              -0.000000129               1.000000000              -0.000000001              -0.000000207               1.000000000               0.000000022              -0.000000084               1.000000000               0.000000018               0.000000305               1.000000000               0.000000053               0.000001021               1.000000000               0.000000083               0.000002055               1.000000000               0.000000110               0.000003368               1.000000000               0.000000106               0.000004849               1.000000000              -0.000000024               0.000006516               1.000000000              -0.000000417               0.000008473               1.000000000              -0.000001237               0.000010940               1.000000000              -0.000002597               0.000014093               1.000000000              -0.000004547               0.000018065               1.000000000              -0.000007076               0.000022928               1.000000000              -0.000010119               0.000028685               1.000000000               0.000000004               0.000000137               1.000000000               0.000000021              -0.000000125               1.000000000              -0.000000011              -0.000000207               1.000000000               0.000000001              -0.000000082               1.000000000              -0.000000005               0.000000396               1.000000000               0.000000023               0.000001372               1.000000000               0.000000085               0.000002782               1.000000000               0.000000092               0.000004648               1.000000000               0.000000058               0.000006830               1.000000000              -0.000000112               0.000009308               1.000000000              -0.000000533               0.000012155               1.000000000              -0.000001395               0.000015573               1.000000000              -0.000002811               0.000019753               1.000000000              -0.000004849               0.000024824               1.000000000              -0.000007489               0.000030849               1.000000000              -0.000010675               0.000037773               1.000000000              -0.000014318               0.000045491               1.000000000              -0.000000007               0.000000022               1.000000000               0.000000031              -0.000000179               1.000000000              -0.000000023              -0.000000177               1.000000000              -0.000000007               0.000000313               1.000000000               0.000000010               0.000001396               1.000000000               0.000000038               0.000003063               1.000000000               0.000000053               0.000005355               1.000000000               0.000000006               0.000008163               1.000000000              -0.000000132               0.000011455               1.000000000              -0.000000489               0.000015235               1.000000000              -0.000001235               0.000019677               1.000000000              -0.000002534               0.000024965               1.000000000              -0.000004452               0.000031264               1.000000000              -0.000006983               0.000038637               1.000000000              -0.000010048               0.000047050               1.000000000              -0.000013553               0.000056387               1.000000000              -0.000017370               0.000066423               1.000000000              -0.000000037              -0.000000139               1.000000000               0.000000031              -0.000000153               1.000000000              -0.000000010              -0.000000107               1.000000000              -0.000000021               0.000000544               1.000000000              -0.000000006               0.000001740               1.000000000               0.000000010               0.000003510               1.000000000               0.000000059               0.000005922               1.000000000               0.000000037               0.000008857               1.000000000              -0.000000045               0.000012327               1.000000000              -0.000000217               0.000016243               1.000000000              -0.000000573               0.000020720               1.000000000              -0.000001245               0.000025820               1.000000000              -0.000002325               0.000031729               1.000000000              -0.000003832               0.000038494               1.000000000              -0.000005765               0.000046233               1.000000000              -0.000008055               0.000054895               1.000000000              -0.000010657               0.000064523               1.000000000              -0.000000030              -0.000000266               1.000000000               0.000000001              -0.000000138               1.000000000               0.000000022               0.000000031               1.000000000              -0.000000031               0.000000777               1.000000000               0.000000006               0.000002113               1.000000000               0.000000006               0.000003960               1.000000000               0.000000033               0.000006410               1.000000000               0.000000033               0.000009427               1.000000000              -0.000000003               0.000012998               1.000000000              -0.000000077               0.000017054               1.000000000              -0.000000213               0.000021630               1.000000000              -0.000000480               0.000026733               1.000000000              -0.000000971               0.000032469               1.000000000              -0.000001729               0.000038900               1.000000000              -0.000002762               0.000046103               1.000000000              -0.000004066               0.000054116               1.000000000              -0.000005624               0.000062969               1.000000000               0.000000002              -0.000000341               1.000000000              -0.000000043              -0.000000158               1.000000000               0.000000050               0.000000226               1.000000000              -0.000000026               0.000001008               1.000000000              -0.000000018               0.000002430               1.000000000              -0.000000011               0.000004392               1.000000000               0.000000008               0.000006863               1.000000000               0.000000034               0.000009944               1.000000000               0.000000026               0.000013545               1.000000000               0.000000002               0.000017707               1.000000000              -0.000000042               0.000022345               1.000000000              -0.000000111               0.000027519               1.000000000              -0.000000257               0.000033215               1.000000000              -0.000000531               0.000039523               1.000000000              -0.000000956               0.000046448               1.000000000              -0.000001526               0.000054068               1.000000000              -0.000002225               0.000062372               1.000000000               0.000000018              -0.000000386               1.000000000              -0.000000070              -0.000000187               1.000000000               0.000000043               0.000000384               1.000000000               0.000000004               0.000001272               1.000000000              -0.000000013               0.000002723               1.000000000               0.000000003               0.000004781               1.000000000              -0.000000003               0.000007274               1.000000000               0.000000016               0.000010350               1.000000000               0.000000023               0.000013963               1.000000000               0.000000021               0.000018135               1.000000000               0.000000016               0.000022819               1.000000000               0.000000016               0.000028036               1.000000000               0.000000012               0.000033738               1.000000000              -0.000000018               0.000039999               1.000000000              -0.000000110               0.000046795               1.000000000              -0.000000271               0.000054206               1.000000000              -0.000000494               0.000062192               1.000000000               0.000000023              -0.000000415               1.000000000              -0.000000059              -0.000000162               1.000000000               0.000000020               0.000000499               1.000000000               0.000000013               0.000001478               1.000000000              -0.000000014               0.000002950               1.000000000               0.000000004               0.000005045               1.000000000              -0.000000005               0.000007647               1.000000000              -0.000000006               0.000010716               1.000000000               0.000000008               0.000014337               1.000000000               0.000000013               0.000018487               1.000000000               0.000000014               0.000023157               1.000000000               0.000000021               0.000028362               1.000000000               0.000000038               0.000034062               1.000000000               0.000000067               0.000040283               1.000000000               0.000000095               0.000047007               1.000000000               0.000000097               0.000054283               1.000000000               0.000000061               0.000062092               1.000000000               0.000000013              -0.000000459               1.000000000              -0.000000039              -0.000000151               1.000000000               0.000000000               0.000000590               1.000000000               0.000000016               0.000001646               1.000000000              -0.000000014               0.000003156               1.000000000              -0.000000007               0.000005240               1.000000000               0.000000001               0.000007881               1.000000000              -0.000000001               0.000010967               1.000000000               0.000000008               0.000014596               1.000000000               0.000000012               0.000018728               1.000000000               0.000000008               0.000023378               1.000000000               0.000000003               0.000028552               1.000000000               0.000000006               0.000034241               1.000000000               0.000000020               0.000040438               1.000000000               0.000000045               0.000047132               1.000000000               0.000000074               0.000054335               1.000000000               0.000000094               0.000062046               1.000000000              -0.000000004              -0.000000469               1.000000000              -0.000000017              -0.000000161               1.000000000              -0.000000000               0.000000623               1.000000000               0.000000023               0.000001769               1.000000000              -0.000000002               0.000003298               1.000000000               0.000000004               0.000005374               1.000000000               0.000000009               0.000008045               1.000000000              -0.000000007               0.000011142               1.000000000              -0.000000018               0.000014770               1.000000000              -0.000000013               0.000018901               1.000000000              -0.000000005               0.000023540               1.000000000              -0.000000003               0.000028689               1.000000000              -0.000000012               0.000034360               1.000000000              -0.000000025               0.000040536               1.000000000              -0.000000035               0.000047219               1.000000000              -0.000000036               0.000054402               1.000000000              -0.000000027               0.000062087               1.000000000               0.000000000              -0.000000429               1.000000000              -0.000000000              -0.000000117               1.000000000               0.000000000               0.000000640               1.000000000              -0.000000000               0.000001768               1.000000000              -0.000000000               0.000003312               1.000000000              -0.000000000               0.000005406               1.000000000              -0.000000000               0.000008079               1.000000000              -0.000000000               0.000011173               1.000000000               0.000000000               0.000014814               1.000000000               0.000000000               0.000018968               1.000000000               0.000000000               0.000023620               1.000000000               0.000000000               0.000028753               1.000000000               0.000000000               0.000034397               1.000000000              -0.000000000               0.000040545               1.000000000              -0.000000000               0.000047215               1.000000000              -0.000000000               0.000054397               1.000000000              -0.000000000               0.000062090               1.000000000              -0.000000024               0.000000000               1.000000000               0.000000020               0.000000000               1.000000000               0.000000085              -0.000000000               1.000000000               0.000000064              -0.000000000               1.000000000              -0.000000007               0.000000000               1.000000000              -0.000000082               0.000000000               1.000000000              -0.000000139              -0.000000000               1.000000000              -0.000000141              -0.000000000               1.000000000              -0.000000086               0.000000000               1.000000000               0.000000002               0.000000000               1.000000000               0.000000106              -0.000000000               1.000000000               0.000000198              -0.000000000               1.000000000               0.000000243               0.000000000               1.000000000               0.000000220               0.000000000               1.000000000               0.000000140              -0.000000000               1.000000000               0.000000048              -0.000000000               1.000000000              -0.000000007               0.000000000               1.000000000               0.000000019               0.000000008               1.000000000              -0.000000010               0.000000029               1.000000000              -0.000000063               0.000000038               1.000000000              -0.000000059               0.000000032               1.000000000              -0.000000011               0.000000034               1.000000000               0.000000040              -0.000000008               1.000000000               0.000000084              -0.000000055               1.000000000               0.000000104              -0.000000092               1.000000000               0.000000096              -0.000000114               1.000000000               0.000000072              -0.000000109               1.000000000               0.000000033              -0.000000087               1.000000000              -0.000000026              -0.000000080               1.000000000              -0.000000093              -0.000000091               1.000000000              -0.000000142              -0.000000098               1.000000000              -0.000000150              -0.000000063               1.000000000              -0.000000107               0.000000027               1.000000000              -0.000000026               0.000000124               1.000000000               0.000000005               0.000000038               1.000000000              -0.000000006               0.000000004               1.000000000               0.000000006               0.000000019               1.000000000               0.000000035              -0.000000011               1.000000000               0.000000032              -0.000000052               1.000000000               0.000000030              -0.000000070               1.000000000               0.000000027              -0.000000059               1.000000000               0.000000008              -0.000000017               1.000000000              -0.000000029               0.000000064               1.000000000              -0.000000092               0.000000154               1.000000000              -0.000000177               0.000000213               1.000000000              -0.000000250               0.000000258               1.000000000              -0.000000270               0.000000324               1.000000000              -0.000000204               0.000000442               1.000000000              -0.000000061               0.000000615               1.000000000               0.000000105               0.000000804               1.000000000               0.000000206               0.000000951               1.000000000              -0.000000031               0.000000055               1.000000000               0.000000014              -0.000000012               1.000000000               0.000000040              -0.000000043               1.000000000              -0.000000005              -0.000000070               1.000000000              -0.000000019              -0.000000060               1.000000000              -0.000000031               0.000000009               1.000000000              -0.000000060               0.000000106               1.000000000              -0.000000081               0.000000221               1.000000000              -0.000000096               0.000000299               1.000000000              -0.000000097               0.000000300               1.000000000              -0.000000059               0.000000255               1.000000000               0.000000044               0.000000218               1.000000000               0.000000220               0.000000219               1.000000000               0.000000423               0.000000240               1.000000000               0.000000555               0.000000182               1.000000000               0.000000491              -0.000000098               1.000000000               0.000000097              -0.000000756               1.000000000               0.000000013              -0.000000003               1.000000000              -0.000000007              -0.000000035               1.000000000              -0.000000030              -0.000000068               1.000000000              -0.000000003              -0.000000015               1.000000000               0.000000008               0.000000081               1.000000000              -0.000000003               0.000000187               1.000000000              -0.000000011               0.000000257               1.000000000              -0.000000016               0.000000226               1.000000000               0.000000004               0.000000056               1.000000000               0.000000055              -0.000000227               1.000000000               0.000000157              -0.000000552               1.000000000               0.000000303              -0.000000884               1.000000000               0.000000417              -0.000001253               1.000000000               0.000000372              -0.000001793               1.000000000               0.000000025              -0.000002690               1.000000000              -0.000000742              -0.000004139               1.000000000              -0.000002011              -0.000006322               1.000000000               0.000000024              -0.000000093               1.000000000              -0.000000020              -0.000000047               1.000000000               0.000000003              -0.000000013               1.000000000               0.000000011               0.000000135               1.000000000              -0.000000024               0.000000220               1.000000000              -0.000000012               0.000000191               1.000000000               0.000000011              -0.000000026               1.000000000               0.000000064              -0.000000466               1.000000000               0.000000118              -0.000001112               1.000000000               0.000000188              -0.000001885               1.000000000               0.000000256              -0.000002724               1.000000000               0.000000227              -0.000003664               1.000000000              -0.000000032              -0.000004838               1.000000000              -0.000000668              -0.000006459               1.000000000              -0.000001791              -0.000008709               1.000000000              -0.000003459              -0.000011742               1.000000000              -0.000005672              -0.000015657               1.000000000               0.000000002              -0.000000150               1.000000000              -0.000000001               0.000000021               1.000000000               0.000000002               0.000000129               1.000000000              -0.000000001               0.000000207               1.000000000               0.000000022               0.000000084               1.000000000               0.000000018              -0.000000305               1.000000000               0.000000053              -0.000001021               1.000000000               0.000000083              -0.000002055               1.000000000               0.000000110              -0.000003368               1.000000000               0.000000106              -0.000004849               1.000000000              -0.000000024              -0.000006516               1.000000000              -0.000000417              -0.000008473               1.000000000              -0.000001237              -0.000010940               1.000000000              -0.000002597              -0.000014093               1.000000000              -0.000004547              -0.000018065               1.000000000              -0.000007076              -0.000022928               1.000000000              -0.000010119              -0.000028685               1.000000000               0.000000004              -0.000000137               1.000000000               0.000000021               0.000000125               1.000000000              -0.000000011               0.000000207               1.000000000               0.000000001               0.000000082               1.000000000              -0.000000005              -0.000000396               1.000000000               0.000000023              -0.000001372               1.000000000               0.000000085              -0.000002782               1.000000000               0.000000092              -0.000004648               1.000000000               0.000000058              -0.000006830               1.000000000              -0.000000112              -0.000009308               1.000000000              -0.000000533              -0.000012155               1.000000000              -0.000001395              -0.000015573               1.000000000              -0.000002811              -0.000019753               1.000000000              -0.000004849              -0.000024824               1.000000000              -0.000007489              -0.000030849               1.000000000              -0.000010675              -0.000037773               1.000000000              -0.000014318              -0.000045491               1.000000000              -0.000000007              -0.000000022               1.000000000               0.000000031               0.000000179               1.000000000              -0.000000023               0.000000177               1.000000000              -0.000000007              -0.000000313               1.000000000               0.000000010              -0.000001396               1.000000000               0.000000038              -0.000003063               1.000000000               0.000000053              -0.000005355               1.000000000               0.000000006              -0.000008163               1.000000000              -0.000000132              -0.000011455               1.000000000              -0.000000489              -0.000015235               1.000000000              -0.000001235              -0.000019677               1.000000000              -0.000002534              -0.000024965               1.000000000              -0.000004452              -0.000031264               1.000000000              -0.000006983              -0.000038637               1.000000000              -0.000010048              -0.000047050               1.000000000              -0.000013553              -0.000056387               1.000000000              -0.000017370              -0.000066423               1.000000000              -0.000000037               0.000000139               1.000000000               0.000000031               0.000000153               1.000000000              -0.000000010               0.000000107               1.000000000              -0.000000021              -0.000000544               1.000000000              -0.000000006              -0.000001740               1.000000000               0.000000010              -0.000003510               1.000000000               0.000000059              -0.000005922               1.000000000               0.000000037              -0.000008857               1.000000000              -0.000000045              -0.000012327               1.000000000              -0.000000217              -0.000016243               1.000000000              -0.000000573              -0.000020720               1.000000000              -0.000001245              -0.000025820               1.000000000              -0.000002325              -0.000031729               1.000000000              -0.000003832              -0.000038494               1.000000000              -0.000005765              -0.000046233               1.000000000              -0.000008055              -0.000054895               1.000000000              -0.000010657              -0.000064523               1.000000000              -0.000000030               0.000000266               1.000000000               0.000000001               0.000000138               1.000000000               0.000000022              -0.000000031               1.000000000              -0.000000031              -0.000000777               1.000000000               0.000000006              -0.000002113               1.000000000               0.000000006              -0.000003960               1.000000000               0.000000033              -0.000006410               1.000000000               0.000000033              -0.000009427               1.000000000              -0.000000003              -0.000012998               1.000000000              -0.000000077              -0.000017054               1.000000000              -0.000000213              -0.000021630               1.000000000              -0.000000480              -0.000026733               1.000000000              -0.000000971              -0.000032469               1.000000000              -0.000001729              -0.000038900               1.000000000              -0.000002762              -0.000046103               1.000000000              -0.000004066              -0.000054116               1.000000000              -0.000005624              -0.000062969               1.000000000               0.000000002               0.000000341               1.000000000              -0.000000043               0.000000158               1.000000000               0.000000050              -0.000000226               1.000000000              -0.000000026              -0.000001008               1.000000000              -0.000000018              -0.000002430               1.000000000              -0.000000011              -0.000004392               1.000000000               0.000000008              -0.000006863               1.000000000               0.000000034              -0.000009944               1.000000000               0.000000026              -0.000013545               1.000000000               0.000000002              -0.000017707               1.000000000              -0.000000042              -0.000022345               1.000000000              -0.000000111              -0.000027519               1.000000000              -0.000000257              -0.000033215               1.000000000              -0.000000531              -0.000039523               1.000000000              -0.000000956              -0.000046448               1.000000000              -0.000001526              -0.000054068               1.000000000              -0.000002225              -0.000062372               1.000000000               0.000000018               0.000000386               1.000000000              -0.000000070               0.000000187               1.000000000               0.000000043              -0.000000384               1.000000000               0.000000004              -0.000001272               1.000000000              -0.000000013              -0.000002723               1.000000000               0.000000003              -0.000004781               1.000000000              -0.000000003              -0.000007274               1.000000000               0.000000016              -0.000010350               1.000000000               0.000000023              -0.000013963               1.000000000               0.000000021              -0.000018135               1.000000000               0.000000016              -0.000022819               1.000000000               0.000000016              -0.000028036               1.000000000               0.000000012              -0.000033738               1.000000000              -0.000000018              -0.000039999               1.000000000              -0.000000110              -0.000046795               1.000000000              -0.000000271              -0.000054206               1.000000000              -0.000000494              -0.000062192               1.000000000               0.000000023               0.000000415               1.000000000              -0.000000059               0.000000162               1.000000000               0.000000020              -0.000000499               1.000000000               0.000000013              -0.000001478               1.000000000              -0.000000014              -0.000002950               1.000000000               0.000000004              -0.000005045               1.000000000              -0.000000005              -0.000007647               1.000000000              -0.000000006              -0.000010716               1.000000000               0.000000008              -0.000014337               1.000000000               0.000000013              -0.000018487               1.000000000               0.000000014              -0.000023157               1.000000000               0.000000021              -0.000028362               1.000000000               0.000000038              -0.000034062               1.000000000               0.000000067              -0.000040283               1.000000000               0.000000095              -0.000047007               1.000000000               0.000000097              -0.000054283               1.000000000               0.000000061              -0.000062092               1.000000000               0.000000013               0.000000459               1.000000000              -0.000000039               0.000000151               1.000000000               0.000000000              -0.000000590               1.000000000               0.000000016              -0.000001646               1.000000000              -0.000000014              -0.000003156               1.000000000              -0.000000007              -0.000005240               1.000000000               0.000000001              -0.000007881               1.000000000              -0.000000001              -0.000010967               1.000000000               0.000000008              -0.000014596               1.000000000               0.000000012              -0.000018728               1.000000000               0.000000008              -0.000023378               1.000000000               0.000000003              -0.000028552               1.000000000               0.000000006              -0.000034241               1.000000000               0.000000020              -0.000040438               1.000000000               0.000000045              -0.000047132               1.000000000               0.000000074              -0.000054335               1.000000000               0.000000094              -0.000062046               1.000000000              -0.000000004               0.000000469               1.000000000              -0.000000017               0.000000161               1.000000000              -0.000000000              -0.000000623               1.000000000               0.000000023              -0.000001769               1.000000000              -0.000000002              -0.000003298               1.000000000               0.000000004              -0.000005374               1.000000000               0.000000009              -0.000008045               1.000000000              -0.000000007              -0.000011142               1.000000000              -0.000000018              -0.000014770               1.000000000              -0.000000013              -0.000018901               1.000000000              -0.000000005              -0.000023540               1.000000000              -0.000000003              -0.000028689               1.000000000              -0.000000012              -0.000034360               1.000000000              -0.000000025              -0.000040536               1.000000000              -0.000000035              -0.000047219               1.000000000              -0.000000036              -0.000054402               1.000000000              -0.000000027              -0.000062087               1.000000000               0.000000000               0.000000429               1.000000000               0.000000000               0.000000117               1.000000000              -0.000000000              -0.000000640               1.000000000              -0.000000000              -0.000001768               1.000000000               0.000000000              -0.000003312               1.000000000               0.000000000              -0.000005406               1.000000000              -0.000000000              -0.000008079               1.000000000              -0.000000000              -0.000011173               1.000000000              -0.000000000              -0.000014814               1.000000000              -0.000000000              -0.000018968               1.000000000              -0.000000000              -0.000023620               1.000000000              -0.000000000              -0.000028753               1.000000000              -0.000000000              -0.000034397               1.000000000               0.000000000              -0.000040545               1.000000000               0.000000000              -0.000047215               1.000000000              -0.000000000              -0.000054397               1.000000000               0.000000000              -0.000062090               1.000000000               0.000000024              -0.000000000               1.000000000              -0.000000020              -0.000000000               1.000000000              -0.000000085               0.000000000               1.000000000              -0.000000064               0.000000000               1.000000000               0.000000007               0.000000000               1.000000000               0.000000082              -0.000000000               1.000000000               0.000000139              -0.000000000               1.000000000               0.000000141               0.000000000               1.000000000               0.000000086               0.000000000               1.000000000              -0.000000002              -0.000000000               1.000000000              -0.000000106               0.000000000               1.000000000              -0.000000198              -0.000000000               1.000000000              -0.000000243              -0.000000000               1.000000000              -0.000000220              -0.000000000               1.000000000              -0.000000140              -0.000000000               1.000000000              -0.000000048              -0.000000000               1.000000000               0.000000007              -0.000000000               1.000000000              -0.000000019               0.000000008               1.000000000               0.000000010               0.000000029               1.000000000               0.000000063               0.000000038               1.000000000               0.000000059               0.000000032               1.000000000               0.000000011               0.000000034               1.000000000              -0.000000040              -0.000000008               1.000000000              -0.000000084              -0.000000055               1.000000000              -0.000000104              -0.000000092               1.000000000              -0.000000096              -0.000000114               1.000000000              -0.000000072              -0.000000109               1.000000000              -0.000000033              -0.000000087               1.000000000               0.000000026              -0.000000080               1.000000000               0.000000093              -0.000000091               1.000000000               0.000000142              -0.000000098               1.000000000               0.000000150              -0.000000063               1.000000000               0.000000107               0.000000027               1.000000000               0.000000026               0.000000124               1.000000000              -0.000000005               0.000000038               1.000000000               0.000000006               0.000000004               1.000000000              -0.000000006               0.000000019               1.000000000              -0.000000035              -0.000000011               1.000000000              -0.000000032              -0.000000052               1.000000000              -0.000000030              -0.000000070               1.000000000              -0.000000027              -0.000000059               1.000000000              -0.000000008              -0.000000017               1.000000000               0.000000029               0.000000064               1.000000000               0.000000092               0.000000154               1.000000000               0.000000177               0.000000213               1.000000000               0.000000250               0.000000258               1.000000000               0.000000270               0.000000324               1.000000000               0.000000204               0.000000442               1.000000000               0.000000061               0.000000615               1.000000000              -0.000000105               0.000000804               1.000000000              -0.000000206               0.000000951               1.000000000               0.000000031               0.000000055               1.000000000              -0.000000014              -0.000000012               1.000000000              -0.000000040              -0.000000043               1.000000000               0.000000005              -0.000000070               1.000000000               0.000000019              -0.000000060               1.000000000               0.000000031               0.000000009               1.000000000               0.000000060               0.000000106               1.000000000               0.000000081               0.000000221               1.000000000               0.000000096               0.000000299               1.000000000               0.000000097               0.000000300               1.000000000               0.000000059               0.000000255               1.000000000              -0.000000044               0.000000218               1.000000000              -0.000000220               0.000000219               1.000000000              -0.000000423               0.000000240               1.000000000              -0.000000555               0.000000182               1.000000000              -0.000000491              -0.000000098               1.000000000              -0.000000097              -0.000000756               1.000000000              -0.000000013              -0.000000003               1.000000000               0.000000007              -0.000000035               1.000000000               0.000000030              -0.000000068               1.000000000               0.000000003              -0.000000015               1.000000000              -0.000000008               0.000000081               1.000000000               0.000000003               0.000000187               1.000000000               0.000000011               0.000000257               1.000000000               0.000000016               0.000000226               1.000000000              -0.000000004               0.000000056               1.000000000              -0.000000055              -0.000000227               1.000000000              -0.000000157              -0.000000552               1.000000000              -0.000000303              -0.000000884               1.000000000              -0.000000417              -0.000001253               1.000000000              -0.000000372              -0.000001793               1.000000000              -0.000000025              -0.000002690               1.000000000               0.000000742              -0.000004139               1.000000000               0.000002011              -0.000006322               1.000000000              -0.000000024              -0.000000093               1.000000000               0.000000020              -0.000000047               1.000000000              -0.000000003              -0.000000013               1.000000000              -0.000000011               0.000000135               1.000000000               0.000000024               0.000000220               1.000000000               0.000000012               0.000000191               1.000000000              -0.000000011              -0.000000026               1.000000000              -0.000000064              -0.000000466               1.000000000              -0.000000118              -0.000001112               1.000000000              -0.000000188              -0.000001885               1.000000000              -0.000000256              -0.000002724               1.000000000              -0.000000227              -0.000003664               1.000000000               0.000000032              -0.000004838               1.000000000               0.000000668              -0.000006459               1.000000000               0.000001791              -0.000008709               1.000000000               0.000003459              -0.000011742               1.000000000               0.000005672              -0.000015657               1.000000000              -0.000000002              -0.000000150               1.000000000               0.000000001               0.000000021               1.000000000              -0.000000002               0.000000129               1.000000000               0.000000001               0.000000207               1.000000000              -0.000000022               0.000000084               1.000000000              -0.000000018              -0.000000305               1.000000000              -0.000000053              -0.000001021               1.000000000              -0.000000083              -0.000002055               1.000000000              -0.000000110              -0.000003368               1.000000000              -0.000000106              -0.000004849               1.000000000               0.000000024              -0.000006516               1.000000000               0.000000417              -0.000008473               1.000000000               0.000001237              -0.000010940               1.000000000               0.000002597              -0.000014093               1.000000000               0.000004547              -0.000018065               1.000000000               0.000007076              -0.000022928               1.000000000               0.000010119              -0.000028685               1.000000000              -0.000000004              -0.000000137               1.000000000              -0.000000021               0.000000125               1.000000000               0.000000011               0.000000207               1.000000000              -0.000000001               0.000000082               1.000000000               0.000000005              -0.000000396               1.000000000              -0.000000023              -0.000001372               1.000000000              -0.000000085              -0.000002782               1.000000000              -0.000000092              -0.000004648               1.000000000              -0.000000058              -0.000006830               1.000000000               0.000000112              -0.000009308               1.000000000               0.000000533              -0.000012155               1.000000000               0.000001395              -0.000015573               1.000000000               0.000002811              -0.000019753               1.000000000               0.000004849              -0.000024824               1.000000000               0.000007489              -0.000030849               1.000000000               0.000010675              -0.000037773               1.000000000               0.000014318              -0.000045491               1.000000000               0.000000007              -0.000000022               1.000000000              -0.000000031               0.000000179               1.000000000               0.000000023               0.000000177               1.000000000               0.000000007              -0.000000313               1.000000000              -0.000000010              -0.000001396               1.000000000              -0.000000038              -0.000003063               1.000000000              -0.000000053              -0.000005355               1.000000000              -0.000000006              -0.000008163               1.000000000               0.000000132              -0.000011455               1.000000000               0.000000489              -0.000015235               1.000000000               0.000001235              -0.000019677               1.000000000               0.000002534              -0.000024965               1.000000000               0.000004452              -0.000031264               1.000000000               0.000006983              -0.000038637               1.000000000               0.000010048              -0.000047050               1.000000000               0.000013553              -0.000056387               1.000000000               0.000017370              -0.000066423               1.000000000               0.000000037               0.000000139               1.000000000              -0.000000031               0.000000153               1.000000000               0.000000010               0.000000107               1.000000000               0.000000021              -0.000000544               1.000000000               0.000000006              -0.000001740               1.000000000              -0.000000010              -0.000003510               1.000000000              -0.000000059              -0.000005922               1.000000000              -0.000000037              -0.000008857               1.000000000               0.000000045              -0.000012327               1.000000000               0.000000217              -0.000016243               1.000000000               0.000000573              -0.000020720               1.000000000               0.000001245              -0.000025820               1.000000000               0.000002325              -0.000031729               1.000000000               0.000003832              -0.000038494               1.000000000               0.000005765              -0.000046233               1.000000000               0.000008055              -0.000054895               1.000000000               0.000010657              -0.000064523               1.000000000               0.000000030               0.000000266               1.000000000              -0.000000001               0.000000138               1.000000000              -0.000000022              -0.000000031               1.000000000               0.000000031              -0.000000777               1.000000000              -0.000000006              -0.000002113               1.000000000              -0.000000006              -0.000003960               1.000000000              -0.000000033              -0.000006410               1.000000000              -0.000000033              -0.000009427               1.000000000               0.000000003              -0.000012998               1.000000000               0.000000077              -0.000017054               1.000000000               0.000000213              -0.000021630               1.000000000               0.000000480              -0.000026733               1.000000000               0.000000971              -0.000032469               1.000000000               0.000001729              -0.000038900               1.000000000               0.000002762              -0.000046103               1.000000000               0.000004066              -0.000054116               1.000000000               0.000005624              -0.000062969               1.000000000              -0.000000002               0.000000341               1.000000000               0.000000043               0.000000158               1.000000000              -0.000000050              -0.000000226               1.000000000               0.000000026              -0.000001008               1.000000000               0.000000018              -0.000002430               1.000000000               0.000000011              -0.000004392               1.000000000              -0.000000008              -0.000006863               1.000000000              -0.000000034              -0.000009944               1.000000000              -0.000000026              -0.000013545               1.000000000              -0.000000002              -0.000017707               1.000000000               0.000000042              -0.000022345               1.000000000               0.000000111              -0.000027519               1.000000000               0.000000257              -0.000033215               1.000000000               0.000000531              -0.000039523               1.000000000               0.000000956              -0.000046448               1.000000000               0.000001526              -0.000054068               1.000000000               0.000002225              -0.000062372               1.000000000              -0.000000018               0.000000386               1.000000000               0.000000070               0.000000187               1.000000000              -0.000000043              -0.000000384               1.000000000              -0.000000004              -0.000001272               1.000000000               0.000000013              -0.000002723               1.000000000              -0.000000003              -0.000004781               1.000000000               0.000000003              -0.000007274               1.000000000              -0.000000016              -0.000010350               1.000000000              -0.000000023              -0.000013963               1.000000000              -0.000000021              -0.000018135               1.000000000              -0.000000016              -0.000022819               1.000000000              -0.000000016              -0.000028036               1.000000000              -0.000000012              -0.000033738               1.000000000               0.000000018              -0.000039999               1.000000000               0.000000110              -0.000046795               1.000000000               0.000000271              -0.000054206               1.000000000               0.000000494              -0.000062192               1.000000000              -0.000000023               0.000000415               1.000000000               0.000000059               0.000000162               1.000000000              -0.000000020              -0.000000499               1.000000000              -0.000000013              -0.000001478               1.000000000               0.000000014              -0.000002950               1.000000000              -0.000000004              -0.000005045               1.000000000               0.000000005              -0.000007647               1.000000000               0.000000006              -0.000010716               1.000000000              -0.000000008              -0.000014337               1.000000000              -0.000000013              -0.000018487               1.000000000              -0.000000014              -0.000023157               1.000000000              -0.000000021              -0.000028362               1.000000000              -0.000000038              -0.000034062               1.000000000              -0.000000067              -0.000040283               1.000000000              -0.000000095              -0.000047007               1.000000000              -0.000000097              -0.000054283               1.000000000              -0.000000061              -0.000062092               1.000000000              -0.000000013               0.000000459               1.000000000               0.000000039               0.000000151               1.000000000              -0.000000000              -0.000000590               1.000000000              -0.000000016              -0.000001646               1.000000000               0.000000014              -0.000003156               1.000000000               0.000000007              -0.000005240               1.000000000              -0.000000001              -0.000007881               1.000000000               0.000000001              -0.000010967               1.000000000              -0.000000008              -0.000014596               1.000000000              -0.000000012              -0.000018728               1.000000000              -0.000000008              -0.000023378               1.000000000              -0.000000003              -0.000028552               1.000000000              -0.000000006              -0.000034241               1.000000000              -0.000000020              -0.000040438               1.000000000              -0.000000045              -0.000047132               1.000000000              -0.000000074              -0.000054335               1.000000000              -0.000000094              -0.000062046               1.000000000               0.000000004               0.000000469               1.000000000               0.000000017               0.000000161               1.000000000               0.000000000              -0.000000623               1.000000000              -0.000000023              -0.000001769               1.000000000               0.000000002              -0.000003298               1.000000000              -0.000000004              -0.000005374               1.000000000              -0.000000009              -0.000008045               1.000000000               0.000000007              -0.000011142               1.000000000               0.000000018              -0.000014770               1.000000000               0.000000013              -0.000018901               1.000000000               0.000000005              -0.000023540               1.000000000               0.000000003              -0.000028689               1.000000000               0.000000012              -0.000034360               1.000000000               0.000000025              -0.000040536               1.000000000               0.000000035              -0.000047219               1.000000000               0.000000036              -0.000054402               1.000000000               0.000000027              -0.000062087               1.000000000               0.000000000               0.000000429               1.000000000               0.000000000               0.000000117               1.000000000              -0.000000000              -0.000000640               1.000000000              -0.000000000              -0.000001768               1.000000000               0.000000000              -0.000003312               1.000000000               0.000000000              -0.000005406               1.000000000              -0.000000000              -0.000008079               1.000000000              -0.000000000              -0.000011173               1.000000000              -0.000000000              -0.000014814               1.000000000              -0.000000000              -0.000018968               1.000000000              -0.000000000              -0.000023620               1.000000000              -0.000000000              -0.000028753               1.000000000              -0.000000000              -0.000034397               1.000000000               0.000000000              -0.000040545               1.000000000               0.000000000              -0.000047215               1.000000000              -0.000000000              -0.000054397               1.000000000               0.000000000              -0.000062090               1.000000000               0.000000024              -0.000000000               1.000000000              -0.000000020              -0.000000000               1.000000000              -0.000000085               0.000000000               1.000000000              -0.000000064               0.000000000               1.000000000               0.000000007               0.000000000               1.000000000               0.000000082              -0.000000000               1.000000000               0.000000139              -0.000000000               1.000000000               0.000000141               0.000000000               1.000000000               0.000000086               0.000000000               1.000000000              -0.000000002              -0.000000000               1.000000000              -0.000000106               0.000000000               1.000000000              -0.000000198              -0.000000000               1.000000000              -0.000000243              -0.000000000               1.000000000              -0.000000220              -0.000000000               1.000000000              -0.000000140              -0.000000000               1.000000000              -0.000000048              -0.000000000               1.000000000               0.000000007              -0.000000000               1.000000000              -0.000000019              -0.000000008               1.000000000               0.000000010              -0.000000029               1.000000000               0.000000063              -0.000000038               1.000000000               0.000000059              -0.000000032               1.000000000               0.000000011              -0.000000034               1.000000000              -0.000000040               0.000000008               1.000000000              -0.000000084               0.000000055               1.000000000              -0.000000104               0.000000092               1.000000000              -0.000000096               0.000000114               1.000000000              -0.000000072               0.000000109               1.000000000              -0.000000033               0.000000087               1.000000000               0.000000026               0.000000080               1.000000000               0.000000093               0.000000091               1.000000000               0.000000142               0.000000098               1.000000000               0.000000150               0.000000063               1.000000000               0.000000107              -0.000000027               1.000000000               0.000000026              -0.000000124               1.000000000              -0.000000005              -0.000000038               1.000000000               0.000000006              -0.000000004               1.000000000              -0.000000006              -0.000000019               1.000000000              -0.000000035               0.000000011               1.000000000              -0.000000032               0.000000052               1.000000000              -0.000000030               0.000000070               1.000000000              -0.000000027               0.000000059               1.000000000              -0.000000008               0.000000017               1.000000000               0.000000029              -0.000000064               1.000000000               0.000000092              -0.000000154               1.000000000               0.000000177              -0.000000213               1.000000000               0.000000250              -0.000000258               1.000000000               0.000000270              -0.000000324               1.000000000               0.000000204              -0.000000442               1.000000000               0.000000061              -0.000000615               1.000000000              -0.000000105              -0.000000804               1.000000000              -0.000000206              -0.000000951               1.000000000               0.000000031              -0.000000055               1.000000000              -0.000000014               0.000000012               1.000000000              -0.000000040               0.000000043               1.000000000               0.000000005               0.000000070               1.000000000               0.000000019               0.000000060               1.000000000               0.000000031              -0.000000009               1.000000000               0.000000060              -0.000000106               1.000000000               0.000000081              -0.000000221               1.000000000               0.000000096              -0.000000299               1.000000000               0.000000097              -0.000000300               1.000000000               0.000000059              -0.000000255               1.000000000              -0.000000044              -0.000000218               1.000000000              -0.000000220              -0.000000219               1.000000000              -0.000000423              -0.000000240               1.000000000              -0.000000555              -0.000000182               1.000000000              -0.000000491               0.000000098               1.000000000              -0.000000097               0.000000756               1.000000000              -0.000000013               0.000000003               1.000000000               0.000000007               0.000000035               1.000000000               0.000000030               0.000000068               1.000000000               0.000000003               0.000000015               1.000000000              -0.000000008              -0.000000081               1.000000000               0.000000003              -0.000000187               1.000000000               0.000000011              -0.000000257               1.000000000               0.000000016              -0.000000226               1.000000000              -0.000000004              -0.000000056               1.000000000              -0.000000055               0.000000227               1.000000000              -0.000000157               0.000000552               1.000000000              -0.000000303               0.000000884               1.000000000              -0.000000417               0.000001253               1.000000000              -0.000000372               0.000001793               1.000000000              -0.000000025               0.000002690               1.000000000               0.000000742               0.000004139               1.000000000               0.000002011               0.000006322               1.000000000              -0.000000024               0.000000093               1.000000000               0.000000020               0.000000047               1.000000000              -0.000000003               0.000000013               1.000000000              -0.000000011              -0.000000135               1.000000000               0.000000024              -0.000000220               1.000000000               0.000000012              -0.000000191               1.000000000              -0.000000011               0.000000026               1.000000000              -0.000000064               0.000000466               1.000000000              -0.000000118               0.000001112               1.000000000              -0.000000188               0.000001885               1.000000000              -0.000000256               0.000002724               1.000000000              -0.000000227               0.000003664               1.000000000               0.000000032               0.000004838               1.000000000               0.000000668               0.000006459               1.000000000               0.000001791               0.000008709               1.000000000               0.000003459               0.000011742               1.000000000               0.000005672               0.000015657               1.000000000              -0.000000002               0.000000150               1.000000000               0.000000001              -0.000000021               1.000000000              -0.000000002              -0.000000129               1.000000000               0.000000001              -0.000000207               1.000000000              -0.000000022              -0.000000084               1.000000000              -0.000000018               0.000000305               1.000000000              -0.000000053               0.000001021               1.000000000              -0.000000083               0.000002055               1.000000000              -0.000000110               0.000003368               1.000000000              -0.000000106               0.000004849               1.000000000               0.000000024               0.000006516               1.000000000               0.000000417               0.000008473               1.000000000               0.000001237               0.000010940               1.000000000               0.000002597               0.000014093               1.000000000               0.000004547               0.000018065               1.000000000               0.000007076               0.000022928               1.000000000               0.000010119               0.000028685               1.000000000              -0.000000004               0.000000137               1.000000000              -0.000000021              -0.000000125               1.000000000               0.000000011              -0.000000207               1.000000000              -0.000000001              -0.000000082               1.000000000               0.000000005               0.000000396               1.000000000              -0.000000023               0.000001372               1.000000000              -0.000000085               0.000002782               1.000000000              -0.000000092               0.000004648               1.000000000              -0.000000058               0.000006830               1.000000000               0.000000112               0.000009308               1.000000000               0.000000533               0.000012155               1.000000000               0.000001395               0.000015573               1.000000000               0.000002811               0.000019753               1.000000000               0.000004849               0.000024824               1.000000000               0.000007489               0.000030849               1.000000000               0.000010675               0.000037773               1.000000000               0.000014318               0.000045491               1.000000000               0.000000007               0.000000022               1.000000000              -0.000000031              -0.000000179               1.000000000               0.000000023              -0.000000177               1.000000000               0.000000007               0.000000313               1.000000000              -0.000000010               0.000001396               1.000000000              -0.000000038               0.000003063               1.000000000              -0.000000053               0.000005355               1.000000000              -0.000000006               0.000008163               1.000000000               0.000000132               0.000011455               1.000000000               0.000000489               0.000015235               1.000000000               0.000001235               0.000019677               1.000000000               0.000002534               0.000024965               1.000000000               0.000004452               0.000031264               1.000000000               0.000006983               0.000038637               1.000000000               0.000010048               0.000047050               1.000000000               0.000013553               0.000056387               1.000000000               0.000017370               0.000066423               1.000000000               0.000000037              -0.000000139               1.000000000              -0.000000031              -0.000000153               1.000000000               0.000000010              -0.000000107               1.000000000               0.000000021               0.000000544               1.000000000               0.000000006               0.000001740               1.000000000              -0.000000010               0.000003510               1.000000000              -0.000000059               0.000005922               1.000000000              -0.000000037               0.000008857               1.000000000               0.000000045               0.000012327               1.000000000               0.000000217               0.000016243               1.000000000               0.000000573               0.000020720               1.000000000               0.000001245               0.000025820               1.000000000               0.000002325               0.000031729               1.000000000               0.000003832               0.000038494               1.000000000               0.000005765               0.000046233               1.000000000               0.000008055               0.000054895               1.000000000               0.000010657               0.000064523               1.000000000               0.000000030              -0.000000266               1.000000000              -0.000000001              -0.000000138               1.000000000              -0.000000022               0.000000031               1.000000000               0.000000031               0.000000777               1.000000000              -0.000000006               0.000002113               1.000000000              -0.000000006               0.000003960               1.000000000              -0.000000033               0.000006410               1.000000000              -0.000000033               0.000009427               1.000000000               0.000000003               0.000012998               1.000000000               0.000000077               0.000017054               1.000000000               0.000000213               0.000021630               1.000000000               0.000000480               0.000026733               1.000000000               0.000000971               0.000032469               1.000000000               0.000001729               0.000038900               1.000000000               0.000002762               0.000046103               1.000000000               0.000004066               0.000054116               1.000000000               0.000005624               0.000062969               1.000000000              -0.000000002              -0.000000341               1.000000000               0.000000043              -0.000000158               1.000000000              -0.000000050               0.000000226               1.000000000               0.000000026               0.000001008               1.000000000               0.000000018               0.000002430               1.000000000               0.000000011               0.000004392               1.000000000              -0.000000008               0.000006863               1.000000000              -0.000000034               0.000009944               1.000000000              -0.000000026               0.000013545               1.000000000              -0.000000002               0.000017707               1.000000000               0.000000042               0.000022345               1.000000000               0.000000111               0.000027519               1.000000000               0.000000257               0.000033215               1.000000000               0.000000531               0.000039523               1.000000000               0.000000956               0.000046448               1.000000000               0.000001526               0.000054068               1.000000000               0.000002225               0.000062372               1.000000000              -0.000000018              -0.000000386               1.000000000               0.000000070              -0.000000187               1.000000000              -0.000000043               0.000000384               1.000000000              -0.000000004               0.000001272               1.000000000               0.000000013               0.000002723               1.000000000              -0.000000003               0.000004781               1.000000000               0.000000003               0.000007274               1.000000000              -0.000000016               0.000010350               1.000000000              -0.000000023               0.000013963               1.000000000              -0.000000021               0.000018135               1.000000000              -0.000000016               0.000022819               1.000000000              -0.000000016               0.000028036               1.000000000              -0.000000012               0.000033738               1.000000000               0.000000018               0.000039999               1.000000000               0.000000110               0.000046795               1.000000000               0.000000271               0.000054206               1.000000000               0.000000494               0.000062192               1.000000000              -0.000000023              -0.000000415               1.000000000               0.000000059              -0.000000162               1.000000000              -0.000000020               0.000000499               1.000000000              -0.000000013               0.000001478               1.000000000               0.000000014               0.000002950               1.000000000              -0.000000004               0.000005045               1.000000000               0.000000005               0.000007647               1.000000000               0.000000006               0.000010716               1.000000000              -0.000000008               0.000014337               1.000000000              -0.000000013               0.000018487               1.000000000              -0.000000014               0.000023157               1.000000000              -0.000000021               0.000028362               1.000000000              -0.000000038               0.000034062               1.000000000              -0.000000067               0.000040283               1.000000000              -0.000000095               0.000047007               1.000000000              -0.000000097               0.000054283               1.000000000              -0.000000061               0.000062092               1.000000000              -0.000000013              -0.000000459               1.000000000               0.000000039              -0.000000151               1.000000000              -0.000000000               0.000000590               1.000000000              -0.000000016               0.000001646               1.000000000               0.000000014               0.000003156               1.000000000               0.000000007               0.000005240               1.000000000              -0.000000001               0.000007881               1.000000000               0.000000001               0.000010967               1.000000000              -0.000000008               0.000014596               1.000000000              -0.000000012               0.000018728               1.000000000              -0.000000008               0.000023378               1.000000000              -0.000000003               0.000028552               1.000000000              -0.000000006               0.000034241               1.000000000              -0.000000020               0.000040438               1.000000000              -0.000000045               0.000047132               1.000000000              -0.000000074               0.000054335               1.000000000              -0.000000094               0.000062046               1.000000000               0.000000004              -0.000000469               1.000000000               0.000000017              -0.000000161               1.000000000               0.000000000               0.000000623               1.000000000              -0.000000023               0.000001769               1.000000000               0.000000002               0.000003298               1.000000000              -0.000000004               0.000005374               1.000000000              -0.000000009               0.000008045               1.000000000               0.000000007               0.000011142               1.000000000               0.000000018               0.000014770               1.000000000               0.000000013               0.000018901               1.000000000               0.000000005               0.000023540               1.000000000               0.000000003               0.000028689               1.000000000               0.000000012               0.000034360               1.000000000               0.000000025               0.000040536               1.000000000               0.000000035               0.000047219               1.000000000               0.000000036               0.000054402               1.000000000               0.000000027               0.000062087               1.000000000               0.000000000              -0.000000429               1.000000000              -0.000000000              -0.000000117               1.000000000               0.000000000               0.000000640               1.000000000              -0.000000000               0.000001768               1.000000000              -0.000000000               0.000003312               1.000000000              -0.000000000               0.000005406               1.000000000              -0.000000000               0.000008079               1.000000000              -0.000000000               0.000011173               1.000000000               0.000000000               0.000014814               1.000000000               0.000000000               0.000018968               1.000000000               0.000000000               0.000023620               1.000000000               0.000000000               0.000028753               1.000000000               0.000000000               0.000034397               1.000000000              -0.000000000               0.000040545               1.000000000              -0.000000000               0.000047215               1.000000000              -0.000000000               0.000054397               1.000000000              -0.000000000               0.000062090               1.000000000 </DataArray>
<DataArray type="Float64"                                    Name="stress"                                                      NumberOfComponents="10" format="ascii">
              0.000001317              -0.000002453              -0.000000000               0.000000800              -0.000001085              -0.000000284               0.000000000               0.000000000               0.000000000               0.000000000               0.000001588              -0.000003983               0.000000000               0.000001093              -0.000001692              -0.000000599               0.000000000               0.000000000               0.000000000               0.000000000              -0.000000258              -0.000005025              -0.000000000               0.000000531              -0.000001852              -0.000001321               0.000000000               0.000000000               0.000000000               0.000000000              -0.000003774              -0.000005249              -0.000000000              -0.000000759              -0.000001497              -0.000002256               0.000000000               0.000000000               0.000000000               0.000000000              -0.000005262              -0.000004546               0.000000000              -0.000001405              -0.000001047              -0.000002452               0.000000000               0.000000000               0.000000000               0.000000000              -0.000003885              -0.000000424               0.000000000              -0.000001404               0.000000327              -0.000001077               0.000000000               0.000000000               0.000000000               0.000000000              -0.000000320               0.000004420              -0.000000000              -0.000000673               0.000001698               0.000001025               0.000000000               0.000000000               0.000000000               0.000000000               0.000004298               0.000008325              -0.000000000               0.000000571               0.000002585               0.000003156               0.000000000               0.000000000               0.000000000               0.000000000               0.000007893               0.000010379              -0.000000000               0.000001662               0.000002906               0.000004568               0.000000000               0.000000000               0.000000000               0.000000000               0.000009412               0.000010084              -0.000000000               0.000002269               0.000002605               0.000004874               0.000000000               0.000000000               0.000000000               0.000000000               0.000008634               0.000008322              -0.000000000               0.000002197               0.000002042               0.000004239               0.000000000               0.000000000               0.000000000               0.000000000               0.000005586               0.000006569              -0.000000000               0.000001274               0.000001765               0.000003039               0.000000000               0.000000000               0.000000000               0.000000000               0.000001028               0.000005159               0.000000000              -0.000000259               0.000001806               0.000001547               0.000000000               0.000000000               0.000000000               0.000000000              -0.000003208               0.000003491               0.000000000              -0.000001640               0.000001710               0.000000071               0.000000000               0.000000000               0.000000000               0.000000000              -0.000005107               0.000000852               0.000000000              -0.000002022               0.000000958              -0.000001064               0.000000000               0.000000000               0.000000000               0.000000000              -0.000003777              -0.000002514               0.000000000              -0.000001102              -0.000000471              -0.000001573               0.000000000               0.000000000               0.000000000               0.000000000              -0.000002586              -0.000004838               0.000000000              -0.000000365              -0.000001491              -0.000001856               0.000000000               0.000000000               0.000000000               0.000000000              -0.000002765              -0.000003463               0.000000027              -0.000000604              -0.000000953              -0.000001557               0.000000000               0.000000000               0.000000000               0.000000000              -0.000002664              -0.000001952              -0.000001252              -0.000000755              -0.000000399              -0.000001154               0.000000000               0.000000000               0.000000000               0.000000000              -0.000001399              -0.000001261              -0.000001617              -0.000000367              -0.000000298              -0.000000665               0.000000000               0.000000000               0.000000000               0.000000000               0.000001556               0.000001324              -0.000000360               0.000000418               0.000000302               0.000000720               0.000000000               0.000000000               0.000000000               0.000000000               0.000003178               0.000003668               0.000001429               0.000000733               0.000000978               0.000001711               0.000000000               0.000000000               0.000000000               0.000000000               0.000003321               0.000004242               0.000003054               0.000000715               0.000001176               0.000001891               0.000000000               0.000000000               0.000000000               0.000000000               0.000002324               0.000003088               0.000003381               0.000000485               0.000000868               0.000001353               0.000000000               0.000000000               0.000000000               0.000000000               0.000000456               0.000000559               0.000002454               0.000000101               0.000000153               0.000000254               0.000000000               0.000000000               0.000000000               0.000000000              -0.000001498              -0.000002842               0.000000522              -0.000000207              -0.000000878              -0.000001085               0.000000000               0.000000000               0.000000000               0.000000000              -0.000003219              -0.000005977              -0.000001738              -0.000000460              -0.000001839              -0.000002299               0.000000000               0.000000000               0.000000000               0.000000000              -0.000004820              -0.000008041              -0.000003468              -0.000000802              -0.000002413              -0.000003215               0.000000000               0.000000000               0.000000000               0.000000000              -0.000005926              -0.000009414              -0.000004361              -0.000001045              -0.000002790              -0.000003835               0.000000000               0.000000000               0.000000000               0.000000000              -0.000005849              -0.000010819              -0.000004598              -0.000000841              -0.000003326              -0.000004167               0.000000000               0.000000000               0.000000000               0.000000000              -0.000004399              -0.000012808              -0.000004408              -0.000000049              -0.000004253              -0.000004302               0.000000000               0.000000000               0.000000000               0.000000000              -0.000002204              -0.000015408              -0.000003823               0.000001100              -0.000005502              -0.000004403               0.000000000               0.000000000               0.000000000               0.000000000              -0.000000535              -0.000018096              -0.000002399               0.000002061              -0.000006719              -0.000004658               0.000000000               0.000000000               0.000000000               0.000000000              -0.000000103              -0.000019617              -0.000001327               0.000002413              -0.000007343              -0.000004930               0.000000000               0.000000000               0.000000000               0.000000000              -0.000000212              -0.000001027               0.000000510               0.000000049              -0.000000358              -0.000000310               0.000000000               0.000000000               0.000000000               0.000000000               0.000000440               0.000003066               0.000000952              -0.000000218               0.000001095               0.000000876               0.000000000               0.000000000               0.000000000               0.000000000               0.000001527               0.000005930               0.000002004              -0.000000169               0.000002033               0.000001864               0.000000000               0.000000000               0.000000000               0.000000000               0.000002668               0.000006883               0.000001663               0.000000140               0.000002248               0.000002388               0.000000000               0.000000000               0.000000000               0.000000000               0.000002469               0.000004920               0.000000198               0.000000311               0.000001536               0.000001847               0.000000000               0.000000000               0.000000000               0.000000000               0.000001062              -0.000000762              -0.000001241               0.000000493              -0.000000419               0.000000075               0.000000000               0.000000000               0.000000000               0.000000000              -0.000001632              -0.000007545              -0.000002606               0.000000331              -0.000002625              -0.000002294               0.000000000               0.000000000               0.000000000               0.000000000              -0.000005094              -0.000013588              -0.000003569              -0.000000212              -0.000004459              -0.000004670               0.000000000               0.000000000               0.000000000               0.000000000              -0.000008260              -0.000016895              -0.000003748              -0.000000986              -0.000005303              -0.000006289               0.000000000               0.000000000               0.000000000               0.000000000              -0.000010274              -0.000016518              -0.000002833              -0.000001788              -0.000004910              -0.000006698               0.000000000               0.000000000               0.000000000               0.000000000              -0.000010071              -0.000013879              -0.000001301              -0.000002042              -0.000003946              -0.000005987               0.000000000               0.000000000               0.000000000               0.000000000              -0.000007003              -0.000011058               0.000000129              -0.000001244              -0.000003271              -0.000004515               0.000000000               0.000000000               0.000000000               0.000000000              -0.000001605              -0.000008889               0.000001085               0.000000509              -0.000003133              -0.000002623               0.000000000               0.000000000               0.000000000               0.000000000               0.000004132              -0.000006617               0.000001472               0.000002377              -0.000002998              -0.000000621               0.000000000               0.000000000               0.000000000               0.000000000               0.000007384              -0.000002240               0.000001508               0.000003049              -0.000001763               0.000001286               0.000000000               0.000000000               0.000000000               0.000000000               0.000005637               0.000006191               0.000001352               0.000001340               0.000001617               0.000002957               0.000000000               0.000000000               0.000000000               0.000000000               0.000005444               0.000015558              -0.000000104               0.000000097               0.000005154               0.000005250               0.000000000               0.000000000               0.000000000               0.000000000               0.000004473               0.000006654               0.000001984               0.000000846               0.000001936               0.000002782               0.000000000               0.000000000               0.000000000               0.000000000               0.000004414               0.000006151               0.000000962               0.000000886               0.000001755               0.000002641               0.000000000               0.000000000               0.000000000               0.000000000               0.000002454               0.000005494              -0.000000643               0.000000233               0.000001753               0.000001987               0.000000000               0.000000000               0.000000000               0.000000000              -0.000000984              -0.000000683              -0.000000754              -0.000000284              -0.000000133              -0.000000417               0.000000000               0.000000000               0.000000000               0.000000000              -0.000003378              -0.000008335              -0.000001058              -0.000000225              -0.000002703              -0.000002928               0.000000000               0.000000000               0.000000000               0.000000000              -0.000006011              -0.000013995              -0.000001737              -0.000000505              -0.000004497              -0.000005001               0.000000000               0.000000000               0.000000000               0.000000000              -0.000006836              -0.000015092              -0.000002056              -0.000000677              -0.000004805              -0.000005482               0.000000000               0.000000000               0.000000000               0.000000000              -0.000005118              -0.000010127              -0.000001600              -0.000000653              -0.000003158              -0.000003811               0.000000000               0.000000000               0.000000000               0.000000000              -0.000001548               0.000000540               0.000000044              -0.000000648               0.000000396              -0.000000252               0.000000000               0.000000000               0.000000000               0.000000000               0.000003871               0.000014006               0.000001987              -0.000000299               0.000004768               0.000004469               0.000000000               0.000000000               0.000000000               0.000000000               0.000011057               0.000027072               0.000003135               0.000000762               0.000008770               0.000009532               0.000000000               0.000000000               0.000000000               0.000000000               0.000019228               0.000039158               0.000003034               0.000002316               0.000012281               0.000014596               0.000000000               0.000000000               0.000000000               0.000000000               0.000026196               0.000051717               0.000001762               0.000003359               0.000016119               0.000019478               0.000000000               0.000000000               0.000000000               0.000000000               0.000029073               0.000067542               0.000000088               0.000002460               0.000021694               0.000024154               0.000000000               0.000000000               0.000000000               0.000000000               0.000025609               0.000089327              -0.000000974              -0.000001563               0.000030296               0.000028734               0.000000000               0.000000000               0.000000000               0.000000000               0.000014851               0.000118858              -0.000000696              -0.000009288               0.000042715               0.000033427               0.000000000               0.000000000               0.000000000               0.000000000               0.000013330               0.000145694              -0.000003433              -0.000013213               0.000052968               0.000039755               0.000000000               0.000000000               0.000000000               0.000000000               0.000001264               0.000010578              -0.000000386              -0.000000848               0.000003809               0.000002960               0.000000000               0.000000000               0.000000000               0.000000000               0.000001211               0.000004267              -0.000000466              -0.000000079               0.000001449               0.000001369               0.000000000               0.000000000               0.000000000               0.000000000              -0.000000203              -0.000003616              -0.000000670               0.000000376              -0.000001331              -0.000000955               0.000000000               0.000000000               0.000000000               0.000000000              -0.000004053              -0.000013331              -0.000000334               0.000000146              -0.000004493              -0.000004346               0.000000000               0.000000000               0.000000000               0.000000000              -0.000005635              -0.000015696              -0.000000592              -0.000000151              -0.000005182              -0.000005333               0.000000000               0.000000000               0.000000000               0.000000000              -0.000004052              -0.000008540              -0.000000510              -0.000000452              -0.000002696              -0.000003148               0.000000000               0.000000000               0.000000000               0.000000000               0.000000820               0.000007713               0.000000472              -0.000000657               0.000002790               0.000002133               0.000000000               0.000000000               0.000000000               0.000000000               0.000008737               0.000031129               0.000002140              -0.000000615               0.000010581               0.000009966               0.000000000               0.000000000               0.000000000               0.000000000               0.000018795               0.000057423               0.000003436              -0.000000130               0.000019184               0.000019054               0.000000000               0.000000000               0.000000000               0.000000000               0.000030048               0.000082432               0.000003047               0.000000964               0.000027156               0.000028120               0.000000000               0.000000000               0.000000000               0.000000000               0.000041681               0.000105579               0.000000466               0.000002433               0.000034382               0.000036815               0.000000000               0.000000000               0.000000000               0.000000000               0.000050964               0.000128884              -0.000003880               0.000003001               0.000041961               0.000044962               0.000000000               0.000000000               0.000000000               0.000000000               0.000054582               0.000155421              -0.000008540               0.000001041               0.000051460               0.000052500               0.000000000               0.000000000               0.000000000               0.000000000               0.000050726               0.000187927              -0.000011695              -0.000004468               0.000064131               0.000059663               0.000000000               0.000000000               0.000000000               0.000000000               0.000039223               0.000226889              -0.000011861              -0.000013653               0.000080180               0.000066527               0.000000000               0.000000000               0.000000000               0.000000000               0.000021252               0.000271268              -0.000007854              -0.000025939               0.000099068               0.000073129               0.000000000               0.000000000               0.000000000               0.000000000               0.000018047               0.000306307              -0.000008805              -0.000031521               0.000112608               0.000081088               0.000000000               0.000000000               0.000000000               0.000000000              -0.000001300               0.000003629              -0.000003864              -0.000000941               0.000001523               0.000000582               0.000000000               0.000000000               0.000000000               0.000000000              -0.000003196              -0.000006050              -0.000000471              -0.000000442              -0.000001869              -0.000002312               0.000000000               0.000000000               0.000000000               0.000000000              -0.000004841              -0.000014906               0.000000620               0.000000048              -0.000004985              -0.000004937               0.000000000               0.000000000               0.000000000               0.000000000              -0.000005342              -0.000013656              -0.000000562              -0.000000296              -0.000004453              -0.000004750               0.000000000               0.000000000               0.000000000               0.000000000              -0.000000327               0.000002282              -0.000000206              -0.000000408               0.000000897               0.000000489               0.000000000               0.000000000               0.000000000               0.000000000               0.000010460               0.000030060               0.000000486               0.000000165               0.000009965               0.000010130               0.000000000               0.000000000               0.000000000               0.000000000               0.000023306               0.000065578               0.000001749               0.000000543               0.000021678               0.000022221               0.000000000               0.000000000               0.000000000               0.000000000               0.000036808               0.000103875               0.000002646               0.000000819               0.000034352               0.000035170               0.000000000               0.000000000               0.000000000               0.000000000               0.000050234               0.000140933               0.000001543               0.000001221               0.000046570               0.000047791               0.000000000               0.000000000               0.000000000               0.000000000               0.000063331               0.000175199              -0.000002413               0.000001849               0.000057783               0.000059632               0.000000000               0.000000000               0.000000000               0.000000000               0.000073452               0.000208851              -0.000008761               0.000001438               0.000069137               0.000070575               0.000000000               0.000000000               0.000000000               0.000000000               0.000077443               0.000245072              -0.000015689              -0.000001593               0.000082221               0.000080628               0.000000000               0.000000000               0.000000000               0.000000000               0.000073673               0.000286675              -0.000020890              -0.000008207               0.000098293               0.000090086               0.000000000               0.000000000               0.000000000               0.000000000               0.000062128               0.000333278              -0.000022600              -0.000018362               0.000117212               0.000098850               0.000000000               0.000000000               0.000000000               0.000000000               0.000044408               0.000382624              -0.000019840              -0.000031175               0.000137932               0.000106757               0.000000000               0.000000000               0.000000000               0.000000000               0.000022932               0.000431712              -0.000012038              -0.000045364               0.000159024               0.000113660               0.000000000               0.000000000               0.000000000               0.000000000               0.000018419               0.000466336              -0.000010812              -0.000051385               0.000172572               0.000121187               0.000000000               0.000000000               0.000000000               0.000000000              -0.000004305              -0.000011119              -0.000003995              -0.000000225              -0.000003632              -0.000003856               0.000000000               0.000000000               0.000000000               0.000000000              -0.000007212              -0.000017386              -0.000000304              -0.000000531              -0.000005618              -0.000006149               0.000000000               0.000000000               0.000000000               0.000000000              -0.000004257              -0.000013680               0.000000415               0.000000114              -0.000004598              -0.000004484               0.000000000               0.000000000               0.000000000               0.000000000               0.000003282               0.000007774              -0.000000099               0.000000259               0.000002505               0.000002764               0.000000000               0.000000000               0.000000000               0.000000000               0.000014578               0.000043617               0.000000864               0.000000015               0.000014534               0.000014549               0.000000000               0.000000000               0.000000000               0.000000000               0.000030904               0.000090321               0.000001536               0.000000299               0.000030007               0.000030306               0.000000000               0.000000000               0.000000000               0.000000000               0.000048254               0.000140322               0.000002212               0.000000555               0.000046589               0.000047143               0.000000000               0.000000000               0.000000000               0.000000000               0.000065299               0.000189926               0.000000948               0.000000746               0.000063059               0.000063806               0.000000000               0.000000000               0.000000000               0.000000000               0.000080990               0.000235925              -0.000003133               0.000000881               0.000078347               0.000079228               0.000000000               0.000000000               0.000000000               0.000000000               0.000093224               0.000280117              -0.000010270              -0.000000056               0.000093390               0.000093334               0.000000000               0.000000000               0.000000000               0.000000000               0.000098916               0.000326102              -0.000018583              -0.000003669               0.000109923               0.000106253               0.000000000               0.000000000               0.000000000               0.000000000               0.000096211               0.000376798              -0.000025521              -0.000011020               0.000129271               0.000118251               0.000000000               0.000000000               0.000000000               0.000000000               0.000084849               0.000431904              -0.000028917              -0.000022169               0.000151356               0.000129187               0.000000000               0.000000000               0.000000000               0.000000000               0.000066973               0.000488716              -0.000027990              -0.000035975               0.000174895               0.000138921               0.000000000               0.000000000               0.000000000               0.000000000               0.000045343               0.000544041              -0.000022542              -0.000051002               0.000198346               0.000147344               0.000000000               0.000000000               0.000000000               0.000000000               0.000022685               0.000594227              -0.000012976              -0.000065771               0.000219997               0.000154226               0.000000000               0.000000000               0.000000000               0.000000000               0.000017142               0.000626698              -0.000010675              -0.000071909               0.000232867               0.000160958               0.000000000               0.000000000               0.000000000               0.000000000              -0.000006995              -0.000023546              -0.000001956               0.000000320              -0.000007955              -0.000007635               0.000000000               0.000000000               0.000000000               0.000000000              -0.000007377              -0.000017671              -0.000000731              -0.000000557              -0.000005705              -0.000006262               0.000000000               0.000000000               0.000000000               0.000000000               0.000001148               0.000003473               0.000000251              -0.000000004               0.000001159               0.000001155               0.000000000               0.000000000               0.000000000               0.000000000               0.000016020               0.000045041               0.000000223               0.000000377               0.000014888               0.000015265               0.000000000               0.000000000               0.000000000               0.000000000               0.000034828               0.000100600               0.000000793               0.000000486               0.000033371               0.000033857               0.000000000               0.000000000               0.000000000               0.000000000               0.000056723               0.000161559               0.000001772               0.000001076               0.000053494               0.000054570               0.000000000               0.000000000               0.000000000               0.000000000               0.000076872               0.000222417               0.000001161               0.000001025               0.000073797               0.000074822               0.000000000               0.000000000               0.000000000               0.000000000               0.000094439               0.000279864              -0.000001809               0.000000432               0.000093143               0.000093575               0.000000000               0.000000000               0.000000000               0.000000000               0.000109259               0.000334755              -0.000008111              -0.000000872               0.000111874               0.000111002               0.000000000               0.000000000               0.000000000               0.000000000               0.000118034               0.000390632              -0.000016474              -0.000004566               0.000131731               0.000127165               0.000000000               0.000000000               0.000000000               0.000000000               0.000117939               0.000450654              -0.000024363              -0.000012105               0.000154251               0.000142147               0.000000000               0.000000000               0.000000000               0.000000000               0.000108492               0.000515242              -0.000029231              -0.000023721               0.000179653               0.000155932               0.000000000               0.000000000               0.000000000               0.000000000               0.000091699               0.000581974              -0.000029853              -0.000038360               0.000206776               0.000168416               0.000000000               0.000000000               0.000000000               0.000000000               0.000070272               0.000647550              -0.000026134              -0.000054592               0.000234045               0.000179453               0.000000000               0.000000000               0.000000000               0.000000000               0.000047050               0.000708640              -0.000019071              -0.000070936               0.000259856               0.000188920               0.000000000               0.000000000               0.000000000               0.000000000               0.000023837               0.000762050              -0.000010270              -0.000086317               0.000282786               0.000196469               0.000000000               0.000000000               0.000000000               0.000000000               0.000016080               0.000794772              -0.000008387              -0.000093316               0.000296027               0.000202710               0.000000000               0.000000000               0.000000000               0.000000000              -0.000004269              -0.000024110               0.000001447               0.000001413              -0.000008508              -0.000007095               0.000000000               0.000000000               0.000000000               0.000000000              -0.000003186              -0.000008536              -0.000000935              -0.000000128              -0.000002803              -0.000002931               0.000000000               0.000000000               0.000000000               0.000000000               0.000007652               0.000025436               0.000000417              -0.000000310               0.000008582               0.000008272               0.000000000               0.000000000               0.000000000               0.000000000               0.000029611               0.000084697               0.000001634               0.000000517               0.000028060               0.000028577               0.000000000               0.000000000               0.000000000               0.000000000               0.000051832               0.000151414               0.000002204               0.000000510               0.000050301               0.000050811               0.000000000               0.000000000               0.000000000               0.000000000               0.000075441               0.000220021               0.000002940               0.000000788               0.000073077               0.000073865               0.000000000               0.000000000               0.000000000               0.000000000               0.000096955               0.000287817               0.000001522               0.000000381               0.000095811               0.000096192               0.000000000               0.000000000               0.000000000               0.000000000               0.000115250               0.000350829              -0.000002068              -0.000000635               0.000117153               0.000116519               0.000000000               0.000000000               0.000000000               0.000000000               0.000129963               0.000413325              -0.000008250              -0.000002930               0.000138750               0.000135821               0.000000000               0.000000000               0.000000000               0.000000000               0.000136851               0.000477902              -0.000015436              -0.000008419               0.000162105               0.000153687               0.000000000               0.000000000               0.000000000               0.000000000               0.000134939               0.000548346              -0.000021828              -0.000017941               0.000188760               0.000170819               0.000000000               0.000000000               0.000000000               0.000000000               0.000124615               0.000622848              -0.000025117              -0.000031125               0.000217989               0.000186864               0.000000000               0.000000000               0.000000000               0.000000000               0.000108945               0.000699170              -0.000024412              -0.000046542               0.000248568               0.000202027               0.000000000               0.000000000               0.000000000               0.000000000               0.000089967               0.000773109              -0.000019788              -0.000062901               0.000278668               0.000215767               0.000000000               0.000000000               0.000000000               0.000000000               0.000070116               0.000842324              -0.000012769              -0.000078997               0.000307104               0.000228107               0.000000000               0.000000000               0.000000000               0.000000000               0.000050587               0.000904274              -0.000005302              -0.000094064               0.000332776               0.000238712               0.000000000               0.000000000               0.000000000               0.000000000               0.000039226               0.000936767              -0.000002186              -0.000102386               0.000346381               0.000243995               0.000000000               0.000000000               0.000000000               0.000000000               0.000000243              -0.000012802               0.000005170               0.000001691              -0.000004831              -0.000003140               0.000000000               0.000000000               0.000000000               0.000000000               0.000002701               0.000003316              -0.000000236               0.000000598               0.000000906               0.000001504               0.000000000               0.000000000               0.000000000               0.000000000               0.000012727               0.000044147              -0.000000775              -0.000000746               0.000014964               0.000014218               0.000000000               0.000000000               0.000000000               0.000000000               0.000037541               0.000110971               0.000000522               0.000000207               0.000036921               0.000037128               0.000000000               0.000000000               0.000000000               0.000000000               0.000060671               0.000179069               0.000000881               0.000000368               0.000059566               0.000059934               0.000000000               0.000000000               0.000000000               0.000000000               0.000085234               0.000250831               0.000001438               0.000000609               0.000083407               0.000084015               0.000000000               0.000000000               0.000000000               0.000000000               0.000107806               0.000321272               0.000000663               0.000000268               0.000107000               0.000107268               0.000000000               0.000000000               0.000000000               0.000000000               0.000127604               0.000388834              -0.000002629              -0.000000753               0.000129861               0.000129108               0.000000000               0.000000000               0.000000000               0.000000000               0.000144626               0.000454340              -0.000007176              -0.000002558               0.000152298               0.000149740               0.000000000               0.000000000               0.000000000               0.000000000               0.000156199               0.000520075              -0.000012532              -0.000006435               0.000175501               0.000169067               0.000000000               0.000000000               0.000000000               0.000000000               0.000160316               0.000588926              -0.000017737              -0.000013497               0.000200806               0.000187309               0.000000000               0.000000000               0.000000000               0.000000000               0.000156721               0.000661288              -0.000021315              -0.000023891               0.000228391               0.000204500               0.000000000               0.000000000               0.000000000               0.000000000               0.000147462               0.000736429              -0.000021844              -0.000036755               0.000257726               0.000220970               0.000000000               0.000000000               0.000000000               0.000000000               0.000134560               0.000812462              -0.000018926              -0.000051098               0.000287850               0.000236753               0.000000000               0.000000000               0.000000000               0.000000000               0.000120064               0.000887838              -0.000013121              -0.000065956               0.000317928               0.000251973               0.000000000               0.000000000               0.000000000               0.000000000               0.000106097               0.000962319              -0.000005896              -0.000080503               0.000347604               0.000267101               0.000000000               0.000000000               0.000000000               0.000000000               0.000092955               0.000996291               0.000000251              -0.000089678               0.000361986               0.000272309               0.000000000               0.000000000               0.000000000               0.000000000               0.000001341               0.000000844               0.000006463               0.000000397               0.000000149               0.000000546               0.000000000               0.000000000               0.000000000               0.000000000               0.000008458               0.000015982               0.000001669               0.000001174               0.000004936               0.000006110               0.000000000               0.000000000               0.000000000               0.000000000               0.000018165               0.000060596              -0.000001461              -0.000000762               0.000020453               0.000019690               0.000000000               0.000000000               0.000000000               0.000000000               0.000041982               0.000127551               0.000000052              -0.000000201               0.000042583               0.000042383               0.000000000               0.000000000               0.000000000               0.000000000               0.000066422               0.000196491               0.000000754               0.000000347               0.000065381               0.000065728               0.000000000               0.000000000               0.000000000               0.000000000               0.000089965               0.000265931               0.000000562               0.000000496               0.000088478               0.000088973               0.000000000               0.000000000               0.000000000               0.000000000               0.000113758               0.000336112               0.000000914               0.000000645               0.000111821               0.000112466               0.000000000               0.000000000               0.000000000               0.000000000               0.000134818               0.000405309              -0.000000573              -0.000000107               0.000135137               0.000135030               0.000000000               0.000000000               0.000000000               0.000000000               0.000153745               0.000471496              -0.000002889              -0.000001283               0.000157591               0.000156309               0.000000000               0.000000000               0.000000000               0.000000000               0.000170487               0.000537691              -0.000006298              -0.000003279               0.000180322               0.000177043               0.000000000               0.000000000               0.000000000               0.000000000               0.000182735               0.000604125              -0.000009904              -0.000006990               0.000203703               0.000196713               0.000000000               0.000000000               0.000000000               0.000000000               0.000189154               0.000672995              -0.000013555              -0.000013192               0.000228727               0.000215535               0.000000000               0.000000000               0.000000000               0.000000000               0.000190032               0.000744324              -0.000015697              -0.000021778               0.000255365               0.000233587               0.000000000               0.000000000               0.000000000               0.000000000               0.000186960               0.000817654              -0.000015558              -0.000032097               0.000283247               0.000251151               0.000000000               0.000000000               0.000000000               0.000000000               0.000181022               0.000891418              -0.000012428              -0.000043544               0.000311651               0.000268107               0.000000000               0.000000000               0.000000000               0.000000000               0.000173703               0.000965364              -0.000006965              -0.000055532               0.000340296               0.000284764               0.000000000               0.000000000               0.000000000               0.000000000               0.000162575               0.000996490              -0.000000741              -0.000063595               0.000353358               0.000289763               0.000000000               0.000000000               0.000000000               0.000000000               0.000001230               0.000010221               0.000004507              -0.000000816               0.000003679               0.000002863               0.000000000               0.000000000               0.000000000               0.000000000               0.000013358               0.000030094               0.000003651               0.000001247               0.000009615               0.000010863               0.000000000               0.000000000               0.000000000               0.000000000               0.000025398               0.000076913              -0.000000855              -0.000000090               0.000025667               0.000025578               0.000000000               0.000000000               0.000000000               0.000000000               0.000044814               0.000140346              -0.000001365              -0.000000738               0.000047028               0.000046290               0.000000000               0.000000000               0.000000000               0.000000000               0.000071173               0.000211954               0.000000531               0.000000196               0.000070585               0.000070781               0.000000000               0.000000000               0.000000000               0.000000000               0.000093803               0.000279390               0.000000060               0.000000252               0.000093045               0.000093297               0.000000000               0.000000000               0.000000000               0.000000000               0.000117433               0.000348305               0.000000708               0.000000499               0.000115934               0.000116433               0.000000000               0.000000000               0.000000000               0.000000000               0.000139858               0.000417968               0.000000623               0.000000201               0.000139254               0.000139455               0.000000000               0.000000000               0.000000000               0.000000000               0.000160617               0.000485541              -0.000000338              -0.000000461               0.000161999               0.000161538               0.000000000               0.000000000               0.000000000               0.000000000               0.000180333               0.000552183              -0.000001919              -0.000001398               0.000184525               0.000183127               0.000000000               0.000000000               0.000000000               0.000000000               0.000198097               0.000618022              -0.000003806              -0.000002966               0.000206994               0.000204028               0.000000000               0.000000000               0.000000000               0.000000000               0.000212838               0.000685023              -0.000006089              -0.000005814               0.000230276               0.000224463               0.000000000               0.000000000               0.000000000               0.000000000               0.000223367               0.000753457              -0.000008099              -0.000010420               0.000254623               0.000244203               0.000000000               0.000000000               0.000000000               0.000000000               0.000230184               0.000823733              -0.000009268              -0.000016648               0.000280124               0.000263477               0.000000000               0.000000000               0.000000000               0.000000000               0.000234209               0.000895162              -0.000008600              -0.000024067               0.000306407               0.000282340               0.000000000               0.000000000               0.000000000               0.000000000               0.000236069               0.000967139              -0.000005707              -0.000032366               0.000333165               0.000300799               0.000000000               0.000000000               0.000000000               0.000000000               0.000230783               0.000998018              -0.000001702              -0.000038209               0.000345406               0.000307197               0.000000000               0.000000000               0.000000000               0.000000000               0.000002397               0.000017781               0.000001594              -0.000001324               0.000006368               0.000005044               0.000000000               0.000000000               0.000000000               0.000000000               0.000016160               0.000044666               0.000003765               0.000000477               0.000014730               0.000015206               0.000000000               0.000000000               0.000000000               0.000000000               0.000032928               0.000093197               0.000000938               0.000000698               0.000030833               0.000031531               0.000000000               0.000000000               0.000000000               0.000000000               0.000048577               0.000150996              -0.000001772              -0.000000658               0.000050551               0.000049893               0.000000000               0.000000000               0.000000000               0.000000000               0.000073812               0.000223185               0.000000484              -0.000000219               0.000074467               0.000074248               0.000000000               0.000000000               0.000000000               0.000000000               0.000096530               0.000290485               0.000000430              -0.000000112               0.000096865               0.000096753               0.000000000               0.000000000               0.000000000               0.000000000               0.000119587               0.000356990              -0.000000184               0.000000221               0.000118922               0.000119143               0.000000000               0.000000000               0.000000000               0.000000000               0.000143403               0.000426379               0.000000454               0.000000479               0.000141965               0.000142444               0.000000000               0.000000000               0.000000000               0.000000000               0.000165607               0.000495137               0.000000348               0.000000210               0.000164974               0.000165184               0.000000000               0.000000000               0.000000000               0.000000000               0.000186956               0.000562359               0.000000131              -0.000000186               0.000187513               0.000187327               0.000000000               0.000000000               0.000000000               0.000000000               0.000207850               0.000629224              -0.000000384              -0.000000709               0.000209976               0.000209267               0.000000000               0.000000000               0.000000000               0.000000000               0.000227490               0.000695050              -0.000001122              -0.000001573               0.000232205               0.000230633               0.000000000               0.000000000               0.000000000               0.000000000               0.000245353               0.000761741              -0.000002021              -0.000003210               0.000254981               0.000251771               0.000000000               0.000000000               0.000000000               0.000000000               0.000260732               0.000829432              -0.000002842              -0.000005904               0.000278443               0.000272538               0.000000000               0.000000000               0.000000000               0.000000000               0.000273986               0.000898524              -0.000003147              -0.000009571               0.000302695               0.000293124               0.000000000               0.000000000               0.000000000               0.000000000               0.000285831               0.000968286              -0.000002328              -0.000013849               0.000327375               0.000313526               0.000000000               0.000000000               0.000000000               0.000000000               0.000288298               0.000999650              -0.000000727              -0.000016844               0.000338828               0.000321984               0.000000000               0.000000000               0.000000000               0.000000000               0.000006066               0.000026829               0.000000951              -0.000001079               0.000009303               0.000008224               0.000000000               0.000000000               0.000000000               0.000000000               0.000017841               0.000056706               0.000002979              -0.000000398               0.000019034               0.000018636               0.000000000               0.000000000               0.000000000               0.000000000               0.000037543               0.000106326               0.000001688               0.000000788               0.000035179               0.000035967               0.000000000               0.000000000               0.000000000               0.000000000               0.000052987               0.000159883              -0.000001453              -0.000000115               0.000053332               0.000053217               0.000000000               0.000000000               0.000000000               0.000000000               0.000076793               0.000230544              -0.000000088              -0.000000021               0.000076854               0.000076834               0.000000000               0.000000000               0.000000000               0.000000000               0.000100807               0.000301382               0.000000840               0.000000130               0.000100416               0.000100546               0.000000000               0.000000000               0.000000000               0.000000000               0.000121971               0.000365726              -0.000000269               0.000000023               0.000121900               0.000121923               0.000000000               0.000000000               0.000000000               0.000000000               0.000144623               0.000432220               0.000000101               0.000000206               0.000144003               0.000144209               0.000000000               0.000000000               0.000000000               0.000000000               0.000167632               0.000501220               0.000000305               0.000000210               0.000167002               0.000167211               0.000000000               0.000000000               0.000000000               0.000000000               0.000189696               0.000568095               0.000000376               0.000000124               0.000189322               0.000189446               0.000000000               0.000000000               0.000000000               0.000000000               0.000212155               0.000635610               0.000000495               0.000000107               0.000211832               0.000211939               0.000000000               0.000000000               0.000000000               0.000000000               0.000234317               0.000701972               0.000000603               0.000000122               0.000233948               0.000234070               0.000000000               0.000000000               0.000000000               0.000000000               0.000256065               0.000768158               0.000000489               0.000000005               0.000256048               0.000256053               0.000000000               0.000000000               0.000000000               0.000000000               0.000276882               0.000834401               0.000000366              -0.000000469               0.000278287               0.000277818               0.000000000               0.000000000               0.000000000               0.000000000               0.000296586               0.000901697               0.000000080              -0.000001492               0.000301060               0.000299568               0.000000000               0.000000000               0.000000000               0.000000000               0.000315201               0.000969564              -0.000000070              -0.000002995               0.000324183               0.000321188               0.000000000               0.000000000               0.000000000               0.000000000               0.000322803               0.001001549               0.000000209              -0.000004143               0.000335227               0.000331085               0.000000000               0.000000000               0.000000000               0.000000000               0.000011204               0.000035655               0.000001353              -0.000000255               0.000011970               0.000011715               0.000000000               0.000000000               0.000000000               0.000000000               0.000020246               0.000065931               0.000002906              -0.000000649               0.000022193               0.000021544               0.000000000               0.000000000               0.000000000               0.000000000               0.000039670               0.000116921               0.000002090               0.000000261               0.000038886               0.000039147               0.000000000               0.000000000               0.000000000               0.000000000               0.000055773               0.000168421              -0.000001343              -0.000000138               0.000056186               0.000056048               0.000000000               0.000000000               0.000000000               0.000000000               0.000077762               0.000234993              -0.000001148              -0.000000213               0.000078401               0.000078188               0.000000000               0.000000000               0.000000000               0.000000000               0.000102389               0.000307615               0.000000493              -0.000000056               0.000102556               0.000102500               0.000000000               0.000000000               0.000000000               0.000000000               0.000123694               0.000372246               0.000000049              -0.000000145               0.000124129               0.000123984               0.000000000               0.000000000               0.000000000               0.000000000               0.000145715               0.000436811              -0.000000075               0.000000042               0.000145588               0.000145630               0.000000000               0.000000000               0.000000000               0.000000000               0.000169129               0.000505011               0.000000125               0.000000297               0.000168236               0.000168533               0.000000000               0.000000000               0.000000000               0.000000000               0.000191244               0.000571276               0.000000119               0.000000307               0.000190321               0.000190628               0.000000000               0.000000000               0.000000000               0.000000000               0.000213482               0.000638545               0.000000167               0.000000237               0.000212767               0.000213005               0.000000000               0.000000000               0.000000000               0.000000000               0.000236009               0.000705696               0.000000397               0.000000292               0.000235133               0.000235424               0.000000000               0.000000000               0.000000000               0.000000000               0.000258865               0.000772368               0.000000485               0.000000528               0.000257277               0.000257805               0.000000000               0.000000000               0.000000000               0.000000000               0.000281741               0.000838338               0.000000548               0.000000860               0.000279156               0.000280017               0.000000000               0.000000000               0.000000000               0.000000000               0.000304463               0.000904563               0.000000456               0.000001103               0.000301150               0.000302253               0.000000000               0.000000000               0.000000000               0.000000000               0.000326468               0.000970995               0.000000269               0.000001051               0.000323311               0.000324362               0.000000000               0.000000000               0.000000000               0.000000000               0.000336652               0.001003290               0.000000199               0.000000833               0.000334149               0.000334982               0.000000000               0.000000000               0.000000000               0.000000000               0.000012642               0.000039745              -0.000000656              -0.000000227               0.000013324               0.000013097               0.000000000               0.000000000               0.000000000               0.000000000               0.000021789               0.000071175               0.000000766              -0.000000726               0.000023967               0.000023241               0.000000000               0.000000000               0.000000000               0.000000000               0.000041465               0.000124760               0.000001632              -0.000000046               0.000041601               0.000041556               0.000000000               0.000000000               0.000000000               0.000000000               0.000058773               0.000174842              -0.000000054               0.000000185               0.000058219               0.000058403               0.000000000               0.000000000               0.000000000               0.000000000               0.000078502               0.000236867              -0.000000351              -0.000000170               0.000079012               0.000078841               0.000000000               0.000000000               0.000000000               0.000000000               0.000103330               0.000310926               0.000000432              -0.000000117               0.000103680               0.000103563               0.000000000               0.000000000               0.000000000               0.000000000               0.000125544               0.000376765              -0.000000056              -0.000000017               0.000125593               0.000125576               0.000000000               0.000000000               0.000000000               0.000000000               0.000146618               0.000439845              -0.000000332               0.000000001               0.000146613               0.000146614               0.000000000               0.000000000               0.000000000               0.000000000               0.000169472               0.000507698              -0.000000136               0.000000090               0.000169201               0.000169291               0.000000000               0.000000000               0.000000000               0.000000000               0.000191611               0.000573793              -0.000000144               0.000000130               0.000191219               0.000191349               0.000000000               0.000000000               0.000000000               0.000000000               0.000213548               0.000639939              -0.000000265               0.000000088               0.000213281               0.000213370               0.000000000               0.000000000               0.000000000               0.000000000               0.000235706               0.000706759              -0.000000261               0.000000045               0.000235569               0.000235614               0.000000000               0.000000000               0.000000000               0.000000000               0.000258038               0.000773486              -0.000000197               0.000000078               0.000257800               0.000257879               0.000000000               0.000000000               0.000000000               0.000000000               0.000280427               0.000839657              -0.000000045               0.000000203               0.000279815               0.000280018               0.000000000               0.000000000               0.000000000               0.000000000               0.000303042               0.000905894               0.000000048               0.000000404               0.000301827               0.000302231               0.000000000               0.000000000               0.000000000               0.000000000               0.000325599               0.000971892               0.000000065               0.000000613               0.000323756               0.000324369               0.000000000               0.000000000               0.000000000               0.000000000               0.000336700               0.001004387              -0.000000002               0.000000714               0.000334554               0.000335269               0.000000000               0.000000000               0.000000000               0.000000000               0.000011830               0.000040340              -0.000000000              -0.000000606               0.000013649               0.000013042               0.000000000               0.000000000               0.000000000               0.000000000               0.000021915               0.000071701               0.000000000              -0.000000745               0.000024148               0.000023404               0.000000000               0.000000000               0.000000000               0.000000000               0.000041953               0.000125507               0.000000000               0.000000044               0.000041821               0.000041865               0.000000000               0.000000000               0.000000000               0.000000000               0.000060574               0.000176479              -0.000000000               0.000000656               0.000058607               0.000059263               0.000000000               0.000000000               0.000000000               0.000000000               0.000079811               0.000238488               0.000000000               0.000000118               0.000079456               0.000079574               0.000000000               0.000000000               0.000000000               0.000000000               0.000104570               0.000312553               0.000000000               0.000000144               0.000104135               0.000104280               0.000000000               0.000000000               0.000000000               0.000000000               0.000126458               0.000377924              -0.000000000               0.000000181               0.000125913               0.000126094               0.000000000               0.000000000               0.000000000               0.000000000               0.000146455               0.000440752               0.000000000              -0.000000174               0.000146974               0.000146800               0.000000000               0.000000000               0.000000000               0.000000000               0.000168654               0.000509173              -0.000000000              -0.000000401               0.000169856               0.000169455               0.000000000               0.000000000               0.000000000               0.000000000               0.000190961               0.000575345              -0.000000000              -0.000000308               0.000191882               0.000191574               0.000000000               0.000000000               0.000000000               0.000000000               0.000213071               0.000640275              -0.000000000              -0.000000133               0.000213467               0.000213334               0.000000000               0.000000000               0.000000000               0.000000000               0.000235059               0.000705972               0.000000000              -0.000000099               0.000235355               0.000235255               0.000000000               0.000000000               0.000000000               0.000000000               0.000256771               0.000772306               0.000000000              -0.000000249               0.000257516               0.000257266               0.000000000               0.000000000               0.000000000               0.000000000               0.000278371               0.000838785               0.000000000              -0.000000459               0.000279745               0.000279286               0.000000000               0.000000000               0.000000000               0.000000000               0.000300280               0.000905614               0.000000000              -0.000000597               0.000302067               0.000301471               0.000000000               0.000000000               0.000000000               0.000000000               0.000322448               0.000971980               0.000000000              -0.000000580               0.000324183               0.000323604               0.000000000               0.000000000               0.000000000               0.000000000               0.000333593               0.001004687               0.000000000              -0.000000488               0.000335055               0.000334567               0.000000000               0.000000000               0.000000000               0.000000000               0.000000000               0.000000000               0.000000000               0.000000000               0.000000000               0.000000000               0.000000000               0.000000000               0.000000000               0.000000000               0.000000000               0.000000000               0.000000000               0.000000000               0.000000000               0.000000000               0.000000000               0.000000000               0.000000000               0.000000000               0.000000000               0.000000000               0.000000000               0.000000000               0.000000000               0.000000000               0.000000000               0.000000000               0.000000000               0.000000000               0.000000000               0.000000000               0.000000000               0.000000000               0.000000000               0.000000000               0.000000000               0.000000000               0.000000000               0.000000000               0.000000000               0.000000000               0.000000000               0.000000000               0.000000000               0.000000000               0.000000000               0.000000000               0.000000000               0.000000000               0.000000000               0.000000000               0.000000000               0.000000000               0.000000000               0.000000000               0.000000000               0.000000000               0.000000000               0.000000000               0.000000000               0.000000000               0.000000000               0.000000000               0.000000000               0.000000000               0.000000000               0.000000000               0.000000000               0.000000000               0.000000000               0.000000000               0.000000000               0.000000000               0.000000000               0.000000000               0.000000000               0.000000000               0.000000000               0.000000000               0.000000000               0.000000000               0.000000000               0.000000000               0.000000000               0.000000000               0.000000000               0.000000000               0.000000000               0.000000000               0.000000000               0.000000000               0.000000000               0.000000000               0.000000000               0.000000000               0.000000000               0.000000000               0.000000000               0.000000000               0.000000000               0.000000000               0.000000000               0.000000000               0.000000000               0.000000000               0.000000000               0.000000000               0.000000000               0.000000000               0.000000000               0.000000000               0.000000000               0.000000000               0.000000000               0.000000000               0.000000000               0.000000000               0.000000000               0.000000000               0.000000000               0.000000000               0.000000000               0.000000000               0.000000000               0.000000000               0.000000000               0.000000000               0.000000000               0.000000000               0.000000000               0.000000000               0.000000000               0.000000000               0.000000000               0.000000000               0.000000000               0.000000000               0.000000000               0.000000000               0.000000000               0.000000000               0.000000000               0.000000000               0.000000000               0.000000000               0.000000000               0.000000000               0.000000000               0.000000000               0.000000000               0.000000000               0.000000000               0.000000000               0.000000000               0.000000000               0.000000000               0.000000000               0.000000000               0.000000000               0.000000000               0.000000000               0.000000000               0.000000000               0.000000000               0.000000000               0.000000000               0.000000000               0.000000000               0.000000000              -0.000002765              -0.000003463              -0.000000027              -0.000000604              -0.000000953              -0.000001557               0.000000000               0.000000000               0.000000000               0.000000000              -0.000002664              -0.000001952               0.000001252              -0.000000755              -0.000000399              -0.000001154               0.000000000               0.000000000               0.000000000               0.000000000              -0.000001399              -0.000001261               0.000001617              -0.000000367              -0.000000298              -0.000000665               0.000000000               0.000000000               0.000000000               0.000000000               0.000001556               0.000001324               0.000000360               0.000000418               0.000000302               0.000000720               0.000000000               0.000000000               0.000000000               0.000000000               0.000003178               0.000003668              -0.000001429               0.000000733               0.000000978               0.000001711               0.000000000               0.000000000               0.000000000               0.000000000               0.000003321               0.000004242              -0.000003054               0.000000715               0.000001176               0.000001891               0.000000000               0.000000000               0.000000000               0.000000000               0.000002324               0.000003088              -0.000003381               0.000000485               0.000000868               0.000001353               0.000000000               0.000000000               0.000000000               0.000000000               0.000000456               0.000000559              -0.000002454               0.000000101               0.000000153               0.000000254               0.000000000               0.000000000               0.000000000               0.000000000              -0.000001498              -0.000002842              -0.000000522              -0.000000207              -0.000000878              -0.000001085               0.000000000               0.000000000               0.000000000               0.000000000              -0.000003219              -0.000005977               0.000001738              -0.000000460              -0.000001839              -0.000002299               0.000000000               0.000000000               0.000000000               0.000000000              -0.000004820              -0.000008041               0.000003468              -0.000000802              -0.000002413              -0.000003215               0.000000000               0.000000000               0.000000000               0.000000000              -0.000005926              -0.000009414               0.000004361              -0.000001045              -0.000002790              -0.000003835               0.000000000               0.000000000               0.000000000               0.000000000              -0.000005849              -0.000010819               0.000004598              -0.000000841              -0.000003326              -0.000004167               0.000000000               0.000000000               0.000000000               0.000000000              -0.000004399              -0.000012808               0.000004408              -0.000000049              -0.000004253              -0.000004302               0.000000000               0.000000000               0.000000000               0.000000000              -0.000002204              -0.000015408               0.000003823               0.000001100              -0.000005502              -0.000004403               0.000000000               0.000000000               0.000000000               0.000000000              -0.000000535              -0.000018096               0.000002399               0.000002061              -0.000006719              -0.000004658               0.000000000               0.000000000               0.000000000               0.000000000              -0.000000103              -0.000019617               0.000001327               0.000002413              -0.000007343              -0.000004930               0.000000000               0.000000000               0.000000000               0.000000000              -0.000000212              -0.000001027              -0.000000510               0.000000049              -0.000000358              -0.000000310               0.000000000               0.000000000               0.000000000               0.000000000               0.000000440               0.000003066              -0.000000952              -0.000000218               0.000001095               0.000000876               0.000000000               0.000000000               0.000000000               0.000000000               0.000001527               0.000005930              -0.000002004              -0.000000169               0.000002033               0.000001864               0.000000000               0.000000000               0.000000000               0.000000000               0.000002668               0.000006883              -0.000001663               0.000000140               0.000002248               0.000002388               0.000000000               0.000000000               0.000000000               0.000000000               0.000002469               0.000004920              -0.000000198               0.000000311               0.000001536               0.000001847               0.000000000               0.000000000               0.000000000               0.000000000               0.000001062              -0.000000762               0.000001241               0.000000493              -0.000000419               0.000000075               0.000000000               0.000000000               0.000000000               0.000000000              -0.000001632              -0.000007545               0.000002606               0.000000331              -0.000002625              -0.000002294               0.000000000               0.000000000               0.000000000               0.000000000              -0.000005094              -0.000013588               0.000003569              -0.000000212              -0.000004459              -0.000004670               0.000000000               0.000000000               0.000000000               0.000000000              -0.000008260              -0.000016895               0.000003748              -0.000000986              -0.000005303              -0.000006289               0.000000000               0.000000000               0.000000000               0.000000000              -0.000010274              -0.000016518               0.000002833              -0.000001788              -0.000004910              -0.000006698               0.000000000               0.000000000               0.000000000               0.000000000              -0.000010071              -0.000013879               0.000001301              -0.000002042              -0.000003946              -0.000005987               0.000000000               0.000000000               0.000000000               0.000000000              -0.000007003              -0.000011058              -0.000000129              -0.000001244              -0.000003271              -0.000004515               0.000000000               0.000000000               0.000000000               0.000000000              -0.000001605              -0.000008889              -0.000001085               0.000000509              -0.000003133              -0.000002623               0.000000000               0.000000000               0.000000000               0.000000000               0.000004132              -0.000006617              -0.000001472               0.000002377              -0.000002998              -0.000000621               0.000000000               0.000000000               0.000000000               0.000000000               0.000007384              -0.000002240              -0.000001508               0.000003049              -0.000001763               0.000001286               0.000000000               0.000000000               0.000000000               0.000000000               0.000005637               0.000006191              -0.000001352               0.000001340               0.000001617               0.000002957               0.000000000               0.000000000               0.000000000               0.000000000               0.000005444               0.000015558               0.000000104               0.000000097               0.000005154               0.000005250               0.000000000               0.000000000               0.000000000               0.000000000               0.000004473               0.000006654              -0.000001984               0.000000846               0.000001936               0.000002782               0.000000000               0.000000000               0.000000000               0.000000000               0.000004414               0.000006151              -0.000000962               0.000000886               0.000001755               0.000002641               0.000000000               0.000000000               0.000000000               0.000000000               0.000002454               0.000005494               0.000000643               0.000000233               0.000001753               0.000001987               0.000000000               0.000000000               0.000000000               0.000000000              -0.000000984              -0.000000683               0.000000754              -0.000000284              -0.000000133              -0.000000417               0.000000000               0.000000000               0.000000000               0.000000000              -0.000003378              -0.000008335               0.000001058              -0.000000225              -0.000002703              -0.000002928               0.000000000               0.000000000               0.000000000               0.000000000              -0.000006011              -0.000013995               0.000001737              -0.000000505              -0.000004497              -0.000005001               0.000000000               0.000000000               0.000000000               0.000000000              -0.000006836              -0.000015092               0.000002056              -0.000000677              -0.000004805              -0.000005482               0.000000000               0.000000000               0.000000000               0.000000000              -0.000005118              -0.000010127               0.000001600              -0.000000653              -0.000003158              -0.000003811               0.000000000               0.000000000               0.000000000               0.000000000              -0.000001548               0.000000540              -0.000000044              -0.000000648               0.000000396              -0.000000252               0.000000000               0.000000000               0.000000000               0.000000000               0.000003871               0.000014006              -0.000001987              -0.000000299               0.000004768               0.000004469               0.000000000               0.000000000               0.000000000               0.000000000               0.000011057               0.000027072              -0.000003135               0.000000762               0.000008770               0.000009532               0.000000000               0.000000000               0.000000000               0.000000000               0.000019228               0.000039158              -0.000003034               0.000002316               0.000012281               0.000014596               0.000000000               0.000000000               0.000000000               0.000000000               0.000026196               0.000051717              -0.000001762               0.000003359               0.000016119               0.000019478               0.000000000               0.000000000               0.000000000               0.000000000               0.000029073               0.000067542              -0.000000088               0.000002460               0.000021694               0.000024154               0.000000000               0.000000000               0.000000000               0.000000000               0.000025609               0.000089327               0.000000974              -0.000001563               0.000030296               0.000028734               0.000000000               0.000000000               0.000000000               0.000000000               0.000014851               0.000118858               0.000000696              -0.000009288               0.000042715               0.000033427               0.000000000               0.000000000               0.000000000               0.000000000               0.000013330               0.000145694               0.000003433              -0.000013213               0.000052968               0.000039755               0.000000000               0.000000000               0.000000000               0.000000000               0.000001264               0.000010578               0.000000386              -0.000000848               0.000003809               0.000002960               0.000000000               0.000000000               0.000000000               0.000000000               0.000001211               0.000004267               0.000000466              -0.000000079               0.000001449               0.000001369               0.000000000               0.000000000               0.000000000               0.000000000              -0.000000203              -0.000003616               0.000000670               0.000000376              -0.000001331              -0.000000955               0.000000000               0.000000000               0.000000000               0.000000000              -0.000004053              -0.000013331               0.000000334               0.000000146              -0.000004493              -0.000004346               0.000000000               0.000000000               0.000000000               0.000000000              -0.000005635              -0.000015696               0.000000592              -0.000000151              -0.000005182              -0.000005333               0.000000000               0.000000000               0.000000000               0.000000000              -0.000004052              -0.000008540               0.000000510              -0.000000452              -0.000002696              -0.000003148               0.000000000               0.000000000               0.000000000               0.000000000               0.000000820               0.000007713              -0.000000472              -0.000000657               0.000002790               0.000002133               0.000000000               0.000000000               0.000000000               0.000000000               0.000008737               0.000031129              -0.000002140              -0.000000615               0.000010581               0.000009966               0.000000000               0.000000000               0.000000000               0.000000000               0.000018795               0.000057423              -0.000003436              -0.000000130               0.000019184               0.000019054               0.000000000               0.000000000               0.000000000               0.000000000               0.000030048               0.000082432              -0.000003047               0.000000964               0.000027156               0.000028120               0.000000000               0.000000000               0.000000000               0.000000000               0.000041681               0.000105579              -0.000000466               0.000002433               0.000034382               0.000036815               0.000000000               0.000000000               0.000000000               0.000000000               0.000050964               0.000128884               0.000003880               0.000003001               0.000041961               0.000044962               0.000000000               0.000000000               0.000000000               0.000000000               0.000054582               0.000155421               0.000008540               0.000001041               0.000051460               0.000052500               0.000000000               0.000000000               0.000000000               0.000000000               0.000050726               0.000187927               0.000011695              -0.000004468               0.000064131               0.000059663               0.000000000               0.000000000               0.000000000               0.000000000               0.000039223               0.000226889               0.000011861              -0.000013653               0.000080180               0.000066527               0.000000000               0.000000000               0.000000000               0.000000000               0.000021252               0.000271268               0.000007854              -0.000025939               0.000099068               0.000073129               0.000000000               0.000000000               0.000000000               0.000000000               0.000018047               0.000306307               0.000008805              -0.000031521               0.000112608               0.000081088               0.000000000               0.000000000               0.000000000               0.000000000              -0.000001300               0.000003629               0.000003864              -0.000000941               0.000001523               0.000000582               0.000000000               0.000000000               0.000000000               0.000000000              -0.000003196              -0.000006050               0.000000471              -0.000000442              -0.000001869              -0.000002312               0.000000000               0.000000000               0.000000000               0.000000000              -0.000004841              -0.000014906              -0.000000620               0.000000048              -0.000004985              -0.000004937               0.000000000               0.000000000               0.000000000               0.000000000              -0.000005342              -0.000013656               0.000000562              -0.000000296              -0.000004453              -0.000004750               0.000000000               0.000000000               0.000000000               0.000000000              -0.000000327               0.000002282               0.000000206              -0.000000408               0.000000897               0.000000489               0.000000000               0.000000000               0.000000000               0.000000000               0.000010460               0.000030060              -0.000000486               0.000000165               0.000009965               0.000010130               0.000000000               0.000000000               0.000000000               0.000000000               0.000023306               0.000065578              -0.000001749               0.000000543               0.000021678               0.000022221               0.000000000               0.000000000               0.000000000               0.000000000               0.000036808               0.000103875              -0.000002646               0.000000819               0.000034352               0.000035170               0.000000000               0.000000000               0.000000000               0.000000000               0.000050234               0.000140933              -0.000001543               0.000001221               0.000046570               0.000047791               0.000000000               0.000000000               0.000000000               0.000000000               0.000063331               0.000175199               0.000002413               0.000001849               0.000057783               0.000059632               0.000000000               0.000000000               0.000000000               0.000000000               0.000073452               0.000208851               0.000008761               0.000001438               0.000069137               0.000070575               0.000000000               0.000000000               0.000000000               0.000000000               0.000077443               0.000245072               0.000015689              -0.000001593               0.000082221               0.000080628               0.000000000               0.000000000               0.000000000               0.000000000               0.000073673               0.000286675               0.000020890              -0.000008207               0.000098293               0.000090086               0.000000000               0.000000000               0.000000000               0.000000000               0.000062128               0.000333278               0.000022600              -0.000018362               0.000117212               0.000098850               0.000000000               0.000000000               0.000000000               0.000000000               0.000044408               0.000382624               0.000019840              -0.000031175               0.000137932               0.000106757               0.000000000               0.000000000               0.000000000               0.000000000               0.000022932               0.000431712               0.000012038              -0.000045364               0.000159024               0.000113660               0.000000000               0.000000000               0.000000000               0.000000000               0.000018419               0.000466336               0.000010812              -0.000051385               0.000172572               0.000121187               0.000000000               0.000000000               0.000000000               0.000000000              -0.000004305              -0.000011119               0.000003995              -0.000000225              -0.000003632              -0.000003856               0.000000000               0.000000000               0.000000000               0.000000000              -0.000007212              -0.000017386               0.000000304              -0.000000531              -0.000005618              -0.000006149               0.000000000               0.000000000               0.000000000               0.000000000              -0.000004257              -0.000013680              -0.000000415               0.000000114              -0.000004598              -0.000004484               0.000000000               0.000000000               0.000000000               0.000000000               0.000003282               0.000007774               0.000000099               0.000000259               0.000002505               0.000002764               0.000000000               0.000000000               0.000000000               0.000000000               0.000014578               0.000043617              -0.000000864               0.000000015               0.000014534               0.000014549               0.000000000               0.000000000               0.000000000               0.000000000               0.000030904               0.000090321              -0.000001536               0.000000299               0.000030007               0.000030306               0.000000000               0.000000000               0.000000000               0.000000000               0.000048254               0.000140322              -0.000002212               0.000000555               0.000046589               0.000047143               0.000000000               0.000000000               0.000000000               0.000000000               0.000065299               0.000189926              -0.000000948               0.000000746               0.000063059               0.000063806               0.000000000               0.000000000               0.000000000               0.000000000               0.000080990               0.000235925               0.000003133               0.000000881               0.000078347               0.000079228               0.000000000               0.000000000               0.000000000               0.000000000               0.000093224               0.000280117               0.000010270              -0.000000056               0.000093390               0.000093334               0.000000000               0.000000000               0.000000000               0.000000000               0.000098916               0.000326102               0.000018583              -0.000003669               0.000109923               0.000106253               0.000000000               0.000000000               0.000000000               0.000000000               0.000096211               0.000376798               0.000025521              -0.000011020               0.000129271               0.000118251               0.000000000               0.000000000               0.000000000               0.000000000               0.000084849               0.000431904               0.000028917              -0.000022169               0.000151356               0.000129187               0.000000000               0.000000000               0.000000000               0.000000000               0.000066973               0.000488716               0.000027990              -0.000035975               0.000174895               0.000138921               0.000000000               0.000000000               0.000000000               0.000000000               0.000045343               0.000544041               0.000022542              -0.000051002               0.000198346               0.000147344               0.000000000               0.000000000               0.000000000               0.000000000               0.000022685               0.000594227               0.000012976              -0.000065771               0.000219997               0.000154226               0.000000000               0.000000000               0.000000000               0.000000000               0.000017142               0.000626698               0.000010675              -0.000071909               0.000232867               0.000160958               0.000000000               0.000000000               0.000000000               0.000000000              -0.000006995              -0.000023546               0.000001956               0.000000320              -0.000007955              -0.000007635               0.000000000               0.000000000               0.000000000               0.000000000              -0.000007377              -0.000017671               0.000000731              -0.000000557              -0.000005705              -0.000006262               0.000000000               0.000000000               0.000000000               0.000000000               0.000001148               0.000003473              -0.000000251              -0.000000004               0.000001159               0.000001155               0.000000000               0.000000000               0.000000000               0.000000000               0.000016020               0.000045041              -0.000000223               0.000000377               0.000014888               0.000015265               0.000000000               0.000000000               0.000000000               0.000000000               0.000034828               0.000100600              -0.000000793               0.000000486               0.000033371               0.000033857               0.000000000               0.000000000               0.000000000               0.000000000               0.000056723               0.000161559              -0.000001772               0.000001076               0.000053494               0.000054570               0.000000000               0.000000000               0.000000000               0.000000000               0.000076872               0.000222417              -0.000001161               0.000001025               0.000073797               0.000074822               0.000000000               0.000000000               0.000000000               0.000000000               0.000094439               0.000279864               0.000001809               0.000000432               0.000093143               0.000093575               0.000000000               0.000000000               0.000000000               0.000000000               0.000109259               0.000334755               0.000008111              -0.000000872               0.000111874               0.000111002               0.000000000               0.000000000               0.000000000               0.000000000               0.000118034               0.000390632               0.000016474              -0.000004566               0.000131731               0.000127165               0.000000000               0.000000000               0.000000000               0.000000000               0.000117939               0.000450654               0.000024363              -0.000012105               0.000154251               0.000142147               0.000000000               0.000000000               0.000000000               0.000000000               0.000108492               0.000515242               0.000029231              -0.000023721               0.000179653               0.000155932               0.000000000               0.000000000               0.000000000               0.000000000               0.000091699               0.000581974               0.000029853              -0.000038360               0.000206776               0.000168416               0.000000000               0.000000000               0.000000000               0.000000000               0.000070272               0.000647550               0.000026134              -0.000054592               0.000234045               0.000179453               0.000000000               0.000000000               0.000000000               0.000000000               0.000047050               0.000708640               0.000019071              -0.000070936               0.000259856               0.000188920               0.000000000               0.000000000               0.000000000               0.000000000               0.000023837               0.000762050               0.000010270              -0.000086317               0.000282786               0.000196469               0.000000000               0.000000000               0.000000000               0.000000000               0.000016080               0.000794772               0.000008387              -0.000093316               0.000296027               0.000202710               0.000000000               0.000000000               0.000000000               0.000000000              -0.000004269              -0.000024110              -0.000001447               0.000001413              -0.000008508              -0.000007095               0.000000000               0.000000000               0.000000000               0.000000000              -0.000003186              -0.000008536               0.000000935              -0.000000128              -0.000002803              -0.000002931               0.000000000               0.000000000               0.000000000               0.000000000               0.000007652               0.000025436              -0.000000417              -0.000000310               0.000008582               0.000008272               0.000000000               0.000000000               0.000000000               0.000000000               0.000029611               0.000084697              -0.000001634               0.000000517               0.000028060               0.000028577               0.000000000               0.000000000               0.000000000               0.000000000               0.000051832               0.000151414              -0.000002204               0.000000510               0.000050301               0.000050811               0.000000000               0.000000000               0.000000000               0.000000000               0.000075441               0.000220021              -0.000002940               0.000000788               0.000073077               0.000073865               0.000000000               0.000000000               0.000000000               0.000000000               0.000096955               0.000287817              -0.000001522               0.000000381               0.000095811               0.000096192               0.000000000               0.000000000               0.000000000               0.000000000               0.000115250               0.000350829               0.000002068              -0.000000635               0.000117153               0.000116519               0.000000000               0.000000000               0.000000000               0.000000000               0.000129963               0.000413325               0.000008250              -0.000002930               0.000138750               0.000135821               0.000000000               0.000000000               0.000000000               0.000000000               0.000136851               0.000477902               0.000015436              -0.000008419               0.000162105               0.000153687               0.000000000               0.000000000               0.000000000               0.000000000               0.000134939               0.000548346               0.000021828              -0.000017941               0.000188760               0.000170819               0.000000000               0.000000000               0.000000000               0.000000000               0.000124615               0.000622848               0.000025117              -0.000031125               0.000217989               0.000186864               0.000000000               0.000000000               0.000000000               0.000000000               0.000108945               0.000699170               0.000024412              -0.000046542               0.000248568               0.000202027               0.000000000               0.000000000               0.000000000               0.000000000               0.000089967               0.000773109               0.000019788              -0.000062901               0.000278668               0.000215767               0.000000000               0.000000000               0.000000000               0.000000000               0.000070116               0.000842324               0.000012769              -0.000078997               0.000307104               0.000228107               0.000000000               0.000000000               0.000000000               0.000000000               0.000050587               0.000904274               0.000005302              -0.000094064               0.000332776               0.000238712               0.000000000               0.000000000               0.000000000               0.000000000               0.000039226               0.000936767               0.000002186              -0.000102386               0.000346381               0.000243995               0.000000000               0.000000000               0.000000000               0.000000000               0.000000243              -0.000012802              -0.000005170               0.000001691              -0.000004831              -0.000003140               0.000000000               0.000000000               0.000000000               0.000000000               0.000002701               0.000003316               0.000000236               0.000000598               0.000000906               0.000001504               0.000000000               0.000000000               0.000000000               0.000000000               0.000012727               0.000044147               0.000000775              -0.000000746               0.000014964               0.000014218               0.000000000               0.000000000               0.000000000               0.000000000               0.000037541               0.000110971              -0.000000522               0.000000207               0.000036921               0.000037128               0.000000000               0.000000000               0.000000000               0.000000000               0.000060671               0.000179069              -0.000000881               0.000000368               0.000059566               0.000059934               0.000000000               0.000000000               0.000000000               0.000000000               0.000085234               0.000250831              -0.000001438               0.000000609               0.000083407               0.000084015               0.000000000               0.000000000               0.000000000               0.000000000               0.000107806               0.000321272              -0.000000663               0.000000268               0.000107000               0.000107268               0.000000000               0.000000000               0.000000000               0.000000000               0.000127604               0.000388834               0.000002629              -0.000000753               0.000129861               0.000129108               0.000000000               0.000000000               0.000000000               0.000000000               0.000144626               0.000454340               0.000007176              -0.000002558               0.000152298               0.000149740               0.000000000               0.000000000               0.000000000               0.000000000               0.000156199               0.000520075               0.000012532              -0.000006435               0.000175501               0.000169067               0.000000000               0.000000000               0.000000000               0.000000000               0.000160316               0.000588926               0.000017737              -0.000013497               0.000200806               0.000187309               0.000000000               0.000000000               0.000000000               0.000000000               0.000156721               0.000661288               0.000021315              -0.000023891               0.000228391               0.000204500               0.000000000               0.000000000               0.000000000               0.000000000               0.000147462               0.000736429               0.000021844              -0.000036755               0.000257726               0.000220970               0.000000000               0.000000000               0.000000000               0.000000000               0.000134560               0.000812462               0.000018926              -0.000051098               0.000287850               0.000236753               0.000000000               0.000000000               0.000000000               0.000000000               0.000120064               0.000887838               0.000013121              -0.000065956               0.000317928               0.000251973               0.000000000               0.000000000               0.000000000               0.000000000               0.000106097               0.000962319               0.000005896              -0.000080503               0.000347604               0.000267101               0.000000000               0.000000000               0.000000000               0.000000000               0.000092955               0.000996291              -0.000000251              -0.000089678               0.000361986               0.000272309               0.000000000               0.000000000               0.000000000               0.000000000               0.000001341               0.000000844              -0.000006463               0.000000397               0.000000149               0.000000546               0.000000000               0.000000000               0.000000000               0.000000000               0.000008458               0.000015982              -0.000001669               0.000001174               0.000004936               0.000006110               0.000000000               0.000000000               0.000000000               0.000000000               0.000018165               0.000060596               0.000001461              -0.000000762               0.000020453               0.000019690               0.000000000               0.000000000               0.000000000               0.000000000               0.000041982               0.000127551              -0.000000052              -0.000000201               0.000042583               0.000042383               0.000000000               0.000000000               0.000000000               0.000000000               0.000066422               0.000196491              -0.000000754               0.000000347               0.000065381               0.000065728               0.000000000               0.000000000               0.000000000               0.000000000               0.000089965               0.000265931              -0.000000562               0.000000496               0.000088478               0.000088973               0.000000000               0.000000000               0.000000000               0.000000000               0.000113758               0.000336112              -0.000000914               0.000000645               0.000111821               0.000112466               0.000000000               0.000000000               0.000000000               0.000000000               0.000134818               0.000405309               0.000000573              -0.000000107               0.000135137               0.000135030               0.000000000               0.000000000               0.000000000               0.000000000               0.000153745               0.000471496               0.000002889              -0.000001283               0.000157591               0.000156309               0.000000000               0.000000000               0.000000000               0.000000000               0.000170487               0.000537691               0.000006298              -0.000003279               0.000180322               0.000177043               0.000000000               0.000000000               0.000000000               0.000000000               0.000182735               0.000604125               0.000009904              -0.000006990               0.000203703               0.000196713               0.000000000               0.000000000               0.000000000               0.000000000               0.000189154               0.000672995               0.000013555              -0.000013192               0.000228727               0.000215535               0.000000000               0.000000000               0.000000000               0.000000000               0.000190032               0.000744324               0.000015697              -0.000021778               0.000255365               0.000233587               0.000000000               0.000000000               0.000000000               0.000000000               0.000186960               0.000817654               0.000015558              -0.000032097               0.000283247               0.000251151               0.000000000               0.000000000               0.000000000               0.000000000               0.000181022               0.000891418               0.000012428              -0.000043544               0.000311651               0.000268107               0.000000000               0.000000000               0.000000000               0.000000000               0.000173703               0.000965364               0.000006965              -0.000055532               0.000340296               0.000284764               0.000000000               0.000000000               0.000000000               0.000000000               0.000162575               0.000996490               0.000000741              -0.000063595               0.000353358               0.000289763               0.000000000               0.000000000               0.000000000               0.000000000               0.000001230               0.000010221              -0.000004507              -0.000000816               0.000003679               0.000002863               0.000000000               0.000000000               0.000000000               0.000000000               0.000013358               0.000030094              -0.000003651               0.000001247               0.000009615               0.000010863               0.000000000               0.000000000               0.000000000               0.000000000               0.000025398               0.000076913               0.000000855              -0.000000090               0.000025667               0.000025578               0.000000000               0.000000000               0.000000000               0.000000000               0.000044814               0.000140346               0.000001365              -0.000000738               0.000047028               0.000046290               0.000000000               0.000000000               0.000000000               0.000000000               0.000071173               0.000211954              -0.000000531               0.000000196               0.000070585               0.000070781               0.000000000               0.000000000               0.000000000               0.000000000               0.000093803               0.000279390              -0.000000060               0.000000252               0.000093045               0.000093297               0.000000000               0.000000000               0.000000000               0.000000000               0.000117433               0.000348305              -0.000000708               0.000000499               0.000115934               0.000116433               0.000000000               0.000000000               0.000000000               0.000000000               0.000139858               0.000417968              -0.000000623               0.000000201               0.000139254               0.000139455               0.000000000               0.000000000               0.000000000               0.000000000               0.000160617               0.000485541               0.000000338              -0.000000461               0.000161999               0.000161538               0.000000000               0.000000000               0.000000000               0.000000000               0.000180333               0.000552183               0.000001919              -0.000001398               0.000184525               0.000183127               0.000000000               0.000000000               0.000000000               0.000000000               0.000198097               0.000618022               0.000003806              -0.000002966               0.000206994               0.000204028               0.000000000               0.000000000               0.000000000               0.000000000               0.000212838               0.000685023               0.000006089              -0.000005814               0.000230276               0.000224463               0.000000000               0.000000000               0.000000000               0.000000000               0.000223367               0.000753457               0.000008099              -0.000010420               0.000254623               0.000244203               0.000000000               0.000000000               0.000000000               0.000000000               0.000230184               0.000823733               0.000009268              -0.000016648               0.000280124               0.000263477               0.000000000               0.000000000               0.000000000               0.000000000               0.000234209               0.000895162               0.000008600              -0.000024067               0.000306407               0.000282340               0.000000000               0.000000000               0.000000000               0.000000000               0.000236069               0.000967139               0.000005707              -0.000032366               0.000333165               0.000300799               0.000000000               0.000000000               0.000000000               0.000000000               0.000230783               0.000998018               0.000001702              -0.000038209               0.000345406               0.000307197               0.000000000               0.000000000               0.000000000               0.000000000               0.000002397               0.000017781              -0.000001594              -0.000001324               0.000006368               0.000005044               0.000000000               0.000000000               0.000000000               0.000000000               0.000016160               0.000044666              -0.000003765               0.000000477               0.000014730               0.000015206               0.000000000               0.000000000               0.000000000               0.000000000               0.000032928               0.000093197              -0.000000938               0.000000698               0.000030833               0.000031531               0.000000000               0.000000000               0.000000000               0.000000000               0.000048577               0.000150996               0.000001772              -0.000000658               0.000050551               0.000049893               0.000000000               0.000000000               0.000000000               0.000000000               0.000073812               0.000223185              -0.000000484              -0.000000219               0.000074467               0.000074248               0.000000000               0.000000000               0.000000000               0.000000000               0.000096530               0.000290485              -0.000000430              -0.000000112               0.000096865               0.000096753               0.000000000               0.000000000               0.000000000               0.000000000               0.000119587               0.000356990               0.000000184               0.000000221               0.000118922               0.000119143               0.000000000               0.000000000               0.000000000               0.000000000               0.000143403               0.000426379              -0.000000454               0.000000479               0.000141965               0.000142444               0.000000000               0.000000000               0.000000000               0.000000000               0.000165607               0.000495137              -0.000000348               0.000000210               0.000164974               0.000165184               0.000000000               0.000000000               0.000000000               0.000000000               0.000186956               0.000562359              -0.000000131              -0.000000186               0.000187513               0.000187327               0.000000000               0.000000000               0.000000000               0.000000000               0.000207850               0.000629224               0.000000384              -0.000000709               0.000209976               0.000209267               0.000000000               0.000000000               0.000000000               0.000000000               0.000227490               0.000695050               0.000001122              -0.000001573               0.000232205               0.000230633               0.000000000               0.000000000               0.000000000               0.000000000               0.000245353               0.000761741               0.000002021              -0.000003210               0.000254981               0.000251771               0.000000000               0.000000000               0.000000000               0.000000000               0.000260732               0.000829432               0.000002842              -0.000005904               0.000278443               0.000272538               0.000000000               0.000000000               0.000000000               0.000000000               0.000273986               0.000898524               0.000003147              -0.000009571               0.000302695               0.000293124               0.000000000               0.000000000               0.000000000               0.000000000               0.000285831               0.000968286               0.000002328              -0.000013849               0.000327375               0.000313526               0.000000000               0.000000000               0.000000000               0.000000000               0.000288298               0.000999650               0.000000727              -0.000016844               0.000338828               0.000321984               0.000000000               0.000000000               0.000000000               0.000000000               0.000006066               0.000026829              -0.000000951              -0.000001079               0.000009303               0.000008224               0.000000000               0.000000000               0.000000000               0.000000000               0.000017841               0.000056706              -0.000002979              -0.000000398               0.000019034               0.000018636               0.000000000               0.000000000               0.000000000               0.000000000               0.000037543               0.000106326              -0.000001688               0.000000788               0.000035179               0.000035967               0.000000000               0.000000000               0.000000000               0.000000000               0.000052987               0.000159883               0.000001453              -0.000000115               0.000053332               0.000053217               0.000000000               0.000000000               0.000000000               0.000000000               0.000076793               0.000230544               0.000000088              -0.000000021               0.000076854               0.000076834               0.000000000               0.000000000               0.000000000               0.000000000               0.000100807               0.000301382              -0.000000840               0.000000130               0.000100416               0.000100546               0.000000000               0.000000000               0.000000000               0.000000000               0.000121971               0.000365726               0.000000269               0.000000023               0.000121900               0.000121923               0.000000000               0.000000000               0.000000000               0.000000000               0.000144623               0.000432220              -0.000000101               0.000000206               0.000144003               0.000144209               0.000000000               0.000000000               0.000000000               0.000000000               0.000167632               0.000501220              -0.000000305               0.000000210               0.000167002               0.000167211               0.000000000               0.000000000               0.000000000               0.000000000               0.000189696               0.000568095              -0.000000376               0.000000124               0.000189322               0.000189446               0.000000000               0.000000000               0.000000000               0.000000000               0.000212155               0.000635610              -0.000000495               0.000000107               0.000211832               0.000211939               0.000000000               0.000000000               0.000000000               0.000000000               0.000234317               0.000701972              -0.000000603               0.000000122               0.000233948               0.000234070               0.000000000               0.000000000               0.000000000               0.000000000               0.000256065               0.000768158              -0.000000489               0.000000005               0.000256048               0.000256053               0.000000000               0.000000000               0.000000000               0.000000000               0.000276882               0.000834401              -0.000000366              -0.000000469               0.000278287               0.000277818               0.000000000               0.000000000               0.000000000               0.000000000               0.000296586               0.000901697              -0.000000080              -0.000001492               0.000301060               0.000299568               0.000000000               0.000000000               0.000000000               0.000000000               0.000315201               0.000969564               0.000000070              -0.000002995               0.000324183               0.000321188               0.000000000               0.000000000               0.000000000               0.000000000               0.000322803               0.001001549              -0.000000209              -0.000004143               0.000335227               0.000331085               0.000000000               0.000000000               0.000000000               0.000000000               0.000011204               0.000035655              -0.000001353              -0.000000255               0.000011970               0.000011715               0.000000000               0.000000000               0.000000000               0.000000000               0.000020246               0.000065931              -0.000002906              -0.000000649               0.000022193               0.000021544               0.000000000               0.000000000               0.000000000               0.000000000               0.000039670               0.000116921              -0.000002090               0.000000261               0.000038886               0.000039147               0.000000000               0.000000000               0.000000000               0.000000000               0.000055773               0.000168421               0.000001343              -0.000000138               0.000056186               0.000056048               0.000000000               0.000000000               0.000000000               0.000000000               0.000077762               0.000234993               0.000001148              -0.000000213               0.000078401               0.000078188               0.000000000               0.000000000               0.000000000               0.000000000               0.000102389               0.000307615              -0.000000493              -0.000000056               0.000102556               0.000102500               0.000000000               0.000000000               0.000000000               0.000000000               0.000123694               0.000372246              -0.000000049              -0.000000145               0.000124129               0.000123984               0.000000000               0.000000000               0.000000000               0.000000000               0.000145715               0.000436811               0.000000075               0.000000042               0.000145588               0.000145630               0.000000000               0.000000000               0.000000000               0.000000000               0.000169129               0.000505011              -0.000000125               0.000000297               0.000168236               0.000168533               0.000000000               0.000000000               0.000000000               0.000000000               0.000191244               0.000571276              -0.000000119               0.000000307               0.000190321               0.000190628               0.000000000               0.000000000               0.000000000               0.000000000               0.000213482               0.000638545              -0.000000167               0.000000237               0.000212767               0.000213005               0.000000000               0.000000000               0.000000000               0.000000000               0.000236009               0.000705696              -0.000000397               0.000000292               0.000235133               0.000235424               0.000000000               0.000000000               0.000000000               0.000000000               0.000258865               0.000772368              -0.000000485               0.000000528               0.000257277               0.000257805               0.000000000               0.000000000               0.000000000               0.000000000               0.000281741               0.000838338              -0.000000548               0.000000860               0.000279156               0.000280017               0.000000000               0.000000000               0.000000000               0.000000000               0.000304463               0.000904563              -0.000000456               0.000001103               0.000301150               0.000302253               0.000000000               0.000000000               0.000000000               0.000000000               0.000326468               0.000970995              -0.000000269               0.000001051               0.000323311               0.000324362               0.000000000               0.000000000               0.000000000               0.000000000               0.000336652               0.001003290              -0.000000199               0.000000833               0.000334149               0.000334982               0.000000000               0.000000000               0.000000000               0.000000000               0.000012642               0.000039745               0.000000656              -0.000000227               0.000013324               0.000013097               0.000000000               0.000000000               0.000000000               0.000000000               0.000021789               0.000071175              -0.000000766              -0.000000726               0.000023967               0.000023241               0.000000000               0.000000000               0.000000000               0.000000000               0.000041465               0.000124760              -0.000001632              -0.000000046               0.000041601               0.000041556               0.000000000               0.000000000               0.000000000               0.000000000               0.000058773               0.000174842               0.000000054               0.000000185               0.000058219               0.000058403               0.000000000               0.000000000               0.000000000               0.000000000               0.000078502               0.000236867               0.000000351              -0.000000170               0.000079012               0.000078841               0.000000000               0.000000000               0.000000000               0.000000000               0.000103330               0.000310926              -0.000000432              -0.000000117               0.000103680               0.000103563               0.000000000               0.000000000               0.000000000               0.000000000               0.000125544               0.000376765               0.000000056              -0.000000017               0.000125593               0.000125576               0.000000000               0.000000000               0.000000000               0.000000000               0.000146618               0.000439845               0.000000332               0.000000001               0.000146613               0.000146614               0.000000000               0.000000000               0.000000000               0.000000000               0.000169472               0.000507698               0.000000136               0.000000090               0.000169201               0.000169291               0.000000000               0.000000000               0.000000000               0.000000000               0.000191611               0.000573793               0.000000144               0.000000130               0.000191219               0.000191349               0.000000000               0.000000000               0.000000000               0.000000000               0.000213548               0.000639939               0.000000265               0.000000088               0.000213281               0.000213370               0.000000000               0.000000000               0.000000000               0.000000000               0.000235706               0.000706759               0.000000261               0.000000045               0.000235569               0.000235614               0.000000000               0.000000000               0.000000000               0.000000000               0.000258038               0.000773486               0.000000197               0.000000078               0.000257800               0.000257879               0.000000000               0.000000000               0.000000000               0.000000000               0.000280427               0.000839657               0.000000045               0.000000203               0.000279815               0.000280018               0.000000000               0.000000000               0.000000000               0.000000000               0.000303042               0.000905894              -0.000000048               0.000000404               0.000301827               0.000302231               0.000000000               0.000000000               0.000000000               0.000000000               0.000325599               0.000971892              -0.000000065               0.000000613               0.000323756               0.000324369               0.000000000               0.000000000               0.000000000               0.000000000               0.000336700               0.001004387               0.000000002               0.000000714               0.000334554               0.000335269               0.000000000               0.000000000               0.000000000               0.000000000               0.000011830               0.000040340              -0.000000000              -0.000000606               0.000013649               0.000013042               0.000000000               0.000000000               0.000000000               0.000000000               0.000021915               0.000071701               0.000000000              -0.000000745               0.000024148               0.000023404               0.000000000               0.000000000               0.000000000               0.000000000               0.000041953               0.000125507               0.000000000               0.000000044               0.000041821               0.000041865               0.000000000               0.000000000               0.000000000               0.000000000               0.000060574               0.000176479              -0.000000000               0.000000656               0.000058607               0.000059263               0.000000000               0.000000000               0.000000000               0.000000000               0.000079811               0.000238488              -0.000000000               0.000000118               0.000079456               0.000079574               0.000000000               0.000000000               0.000000000               0.000000000               0.000104570               0.000312553               0.000000000               0.000000144               0.000104135               0.000104280               0.000000000               0.000000000               0.000000000               0.000000000               0.000126458               0.000377924               0.000000000               0.000000181               0.000125913               0.000126094               0.000000000               0.000000000               0.000000000               0.000000000               0.000146455               0.000440752              -0.000000000              -0.000000174               0.000146974               0.000146800               0.000000000               0.000000000               0.000000000               0.000000000               0.000168654               0.000509173               0.000000000              -0.000000401               0.000169856               0.000169455               0.000000000               0.000000000               0.000000000               0.000000000               0.000190961               0.000575345               0.000000000              -0.000000308               0.000191882               0.000191574               0.000000000               0.000000000               0.000000000               0.000000000               0.000213071               0.000640275               0.000000000              -0.000000133               0.000213467               0.000213334               0.000000000               0.000000000               0.000000000               0.000000000               0.000235059               0.000705972               0.000000000              -0.000000099               0.000235355               0.000235255               0.000000000               0.000000000               0.000000000               0.000000000               0.000256771               0.000772306              -0.000000000              -0.000000249               0.000257516               0.000257266               0.000000000               0.000000000               0.000000000               0.000000000               0.000278371               0.000838785              -0.000000000              -0.000000459               0.000279745               0.000279286               0.000000000               0.000000000               0.000000000               0.000000000               0.000300280               0.000905614               0.000000000              -0.000000597               0.000302067               0.000301471               0.000000000               0.000000000               0.000000000               0.000000000               0.000322448               0.000971980               0.000000000              -0.000000580               0.000324183               0.000323604               0.000000000               0.000000000               0.000000000               0.000000000               0.000333593               0.001004687              -0.000000000              -0.000000488               0.000335055               0.000334567               0.000000000               0.000000000               0.000000000               0.000000000               0.000001317              -0.000002453              -0.000000000               0.000000800              -0.000001085              -0.000000284               0.000000000               0.000000000               0.000000000               0.000000000               0.000001588              -0.000003983               0.000000000               0.000001093              -0.000001692              -0.000000599               0.000000000               0.000000000               0.000000000               0.000000000              -0.000000258              -0.000005025               0.000000000               0.000000531              -0.000001852              -0.000001321               0.000000000               0.000000000               0.000000000               0.000000000              -0.000003774              -0.000005249               0.000000000              -0.000000759              -0.000001497              -0.000002256               0.000000000               0.000000000               0.000000000               0.000000000              -0.000005262              -0.000004546               0.000000000              -0.000001405              -0.000001047              -0.000002452               0.000000000               0.000000000               0.000000000               0.000000000              -0.000003885              -0.000000424               0.000000000              -0.000001404               0.000000327              -0.000001077               0.000000000               0.000000000               0.000000000               0.000000000              -0.000000320               0.000004420              -0.000000000              -0.000000673               0.000001698               0.000001025               0.000000000               0.000000000               0.000000000               0.000000000               0.000004298               0.000008325               0.000000000               0.000000571               0.000002585               0.000003156               0.000000000               0.000000000               0.000000000               0.000000000               0.000007893               0.000010379               0.000000000               0.000001662               0.000002906               0.000004568               0.000000000               0.000000000               0.000000000               0.000000000               0.000009412               0.000010084               0.000000000               0.000002269               0.000002605               0.000004874               0.000000000               0.000000000               0.000000000               0.000000000               0.000008634               0.000008322              -0.000000000               0.000002197               0.000002042               0.000004239               0.000000000               0.000000000               0.000000000               0.000000000               0.000005586               0.000006569               0.000000000               0.000001274               0.000001765               0.000003039               0.000000000               0.000000000               0.000000000               0.000000000               0.000001028               0.000005159               0.000000000              -0.000000259               0.000001806               0.000001547               0.000000000               0.000000000               0.000000000               0.000000000              -0.000003208               0.000003491               0.000000000              -0.000001640               0.000001710               0.000000071               0.000000000               0.000000000               0.000000000               0.000000000              -0.000005107               0.000000852               0.000000000              -0.000002022               0.000000958              -0.000001064               0.000000000               0.000000000               0.000000000               0.000000000              -0.000003777              -0.000002514               0.000000000              -0.000001102              -0.000000471              -0.000001573               0.000000000               0.000000000               0.000000000               0.000000000              -0.000002586              -0.000004838              -0.000000000              -0.000000365              -0.000001491              -0.000001856               0.000000000               0.000000000               0.000000000               0.000000000              -0.000002765              -0.000003463               0.000000027              -0.000000604              -0.000000953              -0.000001557               0.000000000               0.000000000               0.000000000               0.000000000              -0.000002664              -0.000001952              -0.000001252              -0.000000755              -0.000000399              -0.000001154               0.000000000               0.000000000               0.000000000               0.000000000              -0.000001399              -0.000001261              -0.000001617              -0.000000367              -0.000000298              -0.000000665               0.000000000               0.000000000               0.000000000               0.000000000               0.000001556               0.000001324              -0.000000360               0.000000418               0.000000302               0.000000720               0.000000000               0.000000000               0.000000000               0.000000000               0.000003178               0.000003668               0.000001429               0.000000733               0.000000978               0.000001711               0.000000000               0.000000000               0.000000000               0.000000000               0.000003321               0.000004242               0.000003054               0.000000715               0.000001176               0.000001891               0.000000000               0.000000000               0.000000000               0.000000000               0.000002324               0.000003088               0.000003381               0.000000485               0.000000868               0.000001353               0.000000000               0.000000000               0.000000000               0.000000000               0.000000456               0.000000559               0.000002454               0.000000101               0.000000153               0.000000254               0.000000000               0.000000000               0.000000000               0.000000000              -0.000001498              -0.000002842               0.000000522              -0.000000207              -0.000000878              -0.000001085               0.000000000               0.000000000               0.000000000               0.000000000              -0.000003219              -0.000005977              -0.000001738              -0.000000460              -0.000001839              -0.000002299               0.000000000               0.000000000               0.000000000               0.000000000              -0.000004820              -0.000008041              -0.000003468              -0.000000802              -0.000002413              -0.000003215               0.000000000               0.000000000               0.000000000               0.000000000              -0.000005926              -0.000009414              -0.000004361              -0.000001045              -0.000002790              -0.000003835               0.000000000               0.000000000               0.000000000               0.000000000              -0.000005849              -0.000010819              -0.000004598              -0.000000841              -0.000003326              -0.000004167               0.000000000               0.000000000               0.000000000               0.000000000              -0.000004399              -0.000012808              -0.000004408              -0.000000049              -0.000004253              -0.000004302               0.000000000               0.000000000               0.000000000               0.000000000              -0.000002204              -0.000015408              -0.000003823               0.000001100              -0.000005502              -0.000004403               0.000000000               0.000000000               0.000000000               0.000000000              -0.000000535              -0.000018096              -0.000002399               0.000002061              -0.000006719              -0.000004658               0.000000000               0.000000000               0.000000000               0.000000000              -0.000000103              -0.000019617              -0.000001327               0.000002413              -0.000007343              -0.000004930               0.000000000               0.000000000               0.000000000               0.000000000              -0.000000212              -0.000001027               0.000000510               0.000000049              -0.000000358              -0.000000310               0.000000000               0.000000000               0.000000000               0.000000000               0.000000440               0.000003066               0.000000952              -0.000000218               0.000001095               0.000000876               0.000000000               0.000000000               0.000000000               0.000000000               0.000001527               0.000005930               0.000002004              -0.000000169               0.000002033               0.000001864               0.000000000               0.000000000               0.000000000               0.000000000               0.000002668               0.000006883               0.000001663               0.000000140               0.000002248               0.000002388               0.000000000               0.000000000               0.000000000               0.000000000               0.000002469               0.000004920               0.000000198               0.000000311               0.000001536               0.000001847               0.000000000               0.000000000               0.000000000               0.000000000               0.000001062              -0.000000762              -0.000001241               0.000000493              -0.000000419               0.000000075               0.000000000               0.000000000               0.000000000               0.000000000              -0.000001632              -0.000007545              -0.000002606               0.000000331              -0.000002625              -0.000002294               0.000000000               0.000000000               0.000000000               0.000000000              -0.000005094              -0.000013588              -0.000003569              -0.000000212              -0.000004459              -0.000004670               0.000000000               0.000000000               0.000000000               0.000000000              -0.000008260              -0.000016895              -0.000003748              -0.000000986              -0.000005303              -0.000006289               0.000000000               0.000000000               0.000000000               0.000000000              -0.000010274              -0.000016518              -0.000002833              -0.000001788              -0.000004910              -0.000006698               0.000000000               0.000000000               0.000000000               0.000000000              -0.000010071              -0.000013879              -0.000001301              -0.000002042              -0.000003946              -0.000005987               0.000000000               0.000000000               0.000000000               0.000000000              -0.000007003              -0.000011058               0.000000129              -0.000001244              -0.000003271              -0.000004515               0.000000000               0.000000000               0.000000000               0.000000000              -0.000001605              -0.000008889               0.000001085               0.000000509              -0.000003133              -0.000002623               0.000000000               0.000000000               0.000000000               0.000000000               0.000004132              -0.000006617               0.000001472               0.000002377              -0.000002998              -0.000000621               0.000000000               0.000000000               0.000000000               0.000000000               0.000007384              -0.000002240               0.000001508               0.000003049              -0.000001763               0.000001286               0.000000000               0.000000000               0.000000000               0.000000000               0.000005637               0.000006191               0.000001352               0.000001340               0.000001617               0.000002957               0.000000000               0.000000000               0.000000000               0.000000000               0.000005444               0.000015558              -0.000000104               0.000000097               0.000005154               0.000005250               0.000000000               0.000000000               0.000000000               0.000000000               0.000004473               0.000006654               0.000001984               0.000000846               0.000001936               0.000002782               0.000000000               0.000000000               0.000000000               0.000000000               0.000004414               0.000006151               0.000000962               0.000000886               0.000001755               0.000002641               0.000000000               0.000000000               0.000000000               0.000000000               0.000002454               0.000005494              -0.000000643               0.000000233               0.000001753               0.000001987               0.000000000               0.000000000               0.000000000               0.000000000              -0.000000984              -0.000000683              -0.000000754              -0.000000284              -0.000000133              -0.000000417               0.000000000               0.000000000               0.000000000               0.000000000              -0.000003378              -0.000008335              -0.000001058              -0.000000225              -0.000002703              -0.000002928               0.000000000               0.000000000               0.000000000               0.000000000              -0.000006011              -0.000013995              -0.000001737              -0.000000505              -0.000004497              -0.000005001               0.000000000               0.000000000               0.000000000               0.000000000              -0.000006836              -0.000015092              -0.000002056              -0.000000677              -0.000004805              -0.000005482               0.000000000               0.000000000               0.000000000               0.000000000              -0.000005118              -0.000010127              -0.000001600              -0.000000653              -0.000003158              -0.000003811               0.000000000               0.000000000               0.000000000               0.000000000              -0.000001548               0.000000540               0.000000044              -0.000000648               0.000000396              -0.000000252               0.000000000               0.000000000               0.000000000               0.000000000               0.000003871               0.000014006               0.000001987              -0.000000299               0.000004768               0.000004469               0.000000000               0.000000000               0.000000000               0.000000000               0.000011057               0.000027072               0.000003135               0.000000762               0.000008770               0.000009532               0.000000000               0.000000000               0.000000000               0.000000000               0.000019228               0.000039158               0.000003034               0.000002316               0.000012281               0.000014596               0.000000000               0.000000000               0.000000000               0.000000000               0.000026196               0.000051717               0.000001762               0.000003359               0.000016119               0.000019478               0.000000000               0.000000000               0.000000000               0.000000000               0.000029073               0.000067542               0.000000088               0.000002460               0.000021694               0.000024154               0.000000000               0.000000000               0.000000000               0.000000000               0.000025609               0.000089327              -0.000000974              -0.000001563               0.000030296               0.000028734               0.000000000               0.000000000               0.000000000               0.000000000               0.000014851               0.000118858              -0.000000696              -0.000009288               0.000042715               0.000033427               0.000000000               0.000000000               0.000000000               0.000000000               0.000013330               0.000145694              -0.000003433              -0.000013213               0.000052968               0.000039755               0.000000000               0.000000000               0.000000000               0.000000000               0.000001264               0.000010578              -0.000000386              -0.000000848               0.000003809               0.000002960               0.000000000               0.000000000               0.000000000               0.000000000               0.000001211               0.000004267              -0.000000466              -0.000000079               0.000001449               0.000001369               0.000000000               0.000000000               0.000000000               0.000000000              -0.000000203              -0.000003616              -0.000000670               0.000000376              -0.000001331              -0.000000955               0.000000000               0.000000000               0.000000000               0.000000000              -0.000004053              -0.000013331              -0.000000334               0.000000146              -0.000004493              -0.000004346               0.000000000               0.000000000               0.000000000               0.000000000              -0.000005635              -0.000015696              -0.000000592              -0.000000151              -0.000005182              -0.000005333               0.000000000               0.000000000               0.000000000               0.000000000              -0.000004052              -0.000008540              -0.000000510              -0.000000452              -0.000002696              -0.000003148               0.000000000               0.000000000               0.000000000               0.000000000               0.000000820               0.000007713               0.000000472              -0.000000657               0.000002790               0.000002133               0.000000000               0.000000000               0.000000000               0.000000000               0.000008737               0.000031129               0.000002140              -0.000000615               0.000010581               0.000009966               0.000000000               0.000000000               0.000000000               0.000000000               0.000018795               0.000057423               0.000003436              -0.000000130               0.000019184               0.000019054               0.000000000               0.000000000               0.000000000               0.000000000               0.000030048               0.000082432               0.000003047               0.000000964               0.000027156               0.000028120               0.000000000               0.000000000               0.000000000               0.000000000               0.000041681               0.000105579               0.000000466               0.000002433               0.000034382               0.000036815               0.000000000               0.000000000               0.000000000               0.000000000               0.000050964               0.000128884              -0.000003880               0.000003001               0.000041961               0.000044962               0.000000000               0.000000000               0.000000000               0.000000000               0.000054582               0.000155421              -0.000008540               0.000001041               0.000051460               0.000052500               0.000000000               0.000000000               0.000000000               0.000000000               0.000050726               0.000187927              -0.000011695              -0.000004468               0.000064131               0.000059663               0.000000000               0.000000000               0.000000000               0.000000000               0.000039223               0.000226889              -0.000011861              -0.000013653               0.000080180               0.000066527               0.000000000               0.000000000               0.000000000               0.000000000               0.000021252               0.000271268              -0.000007854              -0.000025939               0.000099068               0.000073129               0.000000000               0.000000000               0.000000000               0.000000000               0.000018047               0.000306307              -0.000008805              -0.000031521               0.000112608               0.000081088               0.000000000               0.000000000               0.000000000               0.000000000              -0.000001300               0.000003629              -0.000003864              -0.000000941               0.000001523               0.000000582               0.000000000               0.000000000               0.000000000               0.000000000              -0.000003196              -0.000006050              -0.000000471              -0.000000442              -0.000001869              -0.000002312               0.000000000               0.000000000               0.000000000               0.000000000              -0.000004841              -0.000014906               0.000000620               0.000000048              -0.000004985              -0.000004937               0.000000000               0.000000000               0.000000000               0.000000000              -0.000005342              -0.000013656              -0.000000562              -0.000000296              -0.000004453              -0.000004750               0.000000000               0.000000000               0.000000000               0.000000000              -0.000000327               0.000002282              -0.000000206              -0.000000408               0.000000897               0.000000489               0.000000000               0.000000000               0.000000000               0.000000000               0.000010460               0.000030060               0.000000486               0.000000165               0.000009965               0.000010130               0.000000000               0.000000000               0.000000000               0.000000000               0.000023306               0.000065578               0.000001749               0.000000543               0.000021678               0.000022221               0.000000000               0.000000000               0.000000000               0.000000000               0.000036808               0.000103875               0.000002646               0.000000819               0.000034352               0.000035170               0.000000000               0.000000000               0.000000000               0.000000000               0.000050234               0.000140933               0.000001543               0.000001221               0.000046570               0.000047791               0.000000000               0.000000000               0.000000000               0.000000000               0.000063331               0.000175199              -0.000002413               0.000001849               0.000057783               0.000059632               0.000000000               0.000000000               0.000000000               0.000000000               0.000073452               0.000208851              -0.000008761               0.000001438               0.000069137               0.000070575               0.000000000               0.000000000               0.000000000               0.000000000               0.000077443               0.000245072              -0.000015689              -0.000001593               0.000082221               0.000080628               0.000000000               0.000000000               0.000000000               0.000000000               0.000073673               0.000286675              -0.000020890              -0.000008207               0.000098293               0.000090086               0.000000000               0.000000000               0.000000000               0.000000000               0.000062128               0.000333278              -0.000022600              -0.000018362               0.000117212               0.000098850               0.000000000               0.000000000               0.000000000               0.000000000               0.000044408               0.000382624              -0.000019840              -0.000031175               0.000137932               0.000106757               0.000000000               0.000000000               0.000000000               0.000000000               0.000022932               0.000431712              -0.000012038              -0.000045364               0.000159024               0.000113660               0.000000000               0.000000000               0.000000000               0.000000000               0.000018419               0.000466336              -0.000010812              -0.000051385               0.000172572               0.000121187               0.000000000               0.000000000               0.000000000               0.000000000              -0.000004305              -0.000011119              -0.000003995              -0.000000225              -0.000003632              -0.000003856               0.000000000               0.000000000               0.000000000               0.000000000              -0.000007212              -0.000017386              -0.000000304              -0.000000531              -0.000005618              -0.000006149               0.000000000               0.000000000               0.000000000               0.000000000              -0.000004257              -0.000013680               0.000000415               0.000000114              -0.000004598              -0.000004484               0.000000000               0.000000000               0.000000000               0.000000000               0.000003282               0.000007774              -0.000000099               0.000000259               0.000002505               0.000002764               0.000000000               0.000000000               0.000000000               0.000000000               0.000014578               0.000043617               0.000000864               0.000000015               0.000014534               0.000014549               0.000000000               0.000000000               0.000000000               0.000000000               0.000030904               0.000090321               0.000001536               0.000000299               0.000030007               0.000030306               0.000000000               0.000000000               0.000000000               0.000000000               0.000048254               0.000140322               0.000002212               0.000000555               0.000046589               0.000047143               0.000000000               0.000000000               0.000000000               0.000000000               0.000065299               0.000189926               0.000000948               0.000000746               0.000063059               0.000063806               0.000000000               0.000000000               0.000000000               0.000000000               0.000080990               0.000235925              -0.000003133               0.000000881               0.000078347               0.000079228               0.000000000               0.000000000               0.000000000               0.000000000               0.000093224               0.000280117              -0.000010270              -0.000000056               0.000093390               0.000093334               0.000000000               0.000000000               0.000000000               0.000000000               0.000098916               0.000326102              -0.000018583              -0.000003669               0.000109923               0.000106253               0.000000000               0.000000000               0.000000000               0.000000000               0.000096211               0.000376798              -0.000025521              -0.000011020               0.000129271               0.000118251               0.000000000               0.000000000               0.000000000               0.000000000               0.000084849               0.000431904              -0.000028917              -0.000022169               0.000151356               0.000129187               0.000000000               0.000000000               0.000000000               0.000000000               0.000066973               0.000488716              -0.000027990              -0.000035975               0.000174895               0.000138921               0.000000000               0.000000000               0.000000000               0.000000000               0.000045343               0.000544041              -0.000022542              -0.000051002               0.000198346               0.000147344               0.000000000               0.000000000               0.000000000               0.000000000               0.000022685               0.000594227              -0.000012976              -0.000065771               0.000219997               0.000154226               0.000000000               0.000000000               0.000000000               0.000000000               0.000017142               0.000626698              -0.000010675              -0.000071909               0.000232867               0.000160958               0.000000000               0.000000000               0.000000000               0.000000000              -0.000006995              -0.000023546              -0.000001956               0.000000320              -0.000007955              -0.000007635               0.000000000               0.000000000               0.000000000               0.000000000              -0.000007377              -0.000017671              -0.000000731              -0.000000557              -0.000005705              -0.000006262               0.000000000               0.000000000               0.000000000               0.000000000               0.000001148               0.000003473               0.000000251              -0.000000004               0.000001159               0.000001155               0.000000000               0.000000000               0.000000000               0.000000000               0.000016020               0.000045041               0.000000223               0.000000377               0.000014888               0.000015265               0.000000000               0.000000000               0.000000000               0.000000000               0.000034828               0.000100600               0.000000793               0.000000486               0.000033371               0.000033857               0.000000000               0.000000000               0.000000000               0.000000000               0.000056723               0.000161559               0.000001772               0.000001076               0.000053494               0.000054570               0.000000000               0.000000000               0.000000000               0.000000000               0.000076872               0.000222417               0.000001161               0.000001025               0.000073797               0.000074822               0.000000000               0.000000000               0.000000000               0.000000000               0.000094439               0.000279864              -0.000001809               0.000000432               0.000093143               0.000093575               0.000000000               0.000000000               0.000000000               0.000000000               0.000109259               0.000334755              -0.000008111              -0.000000872               0.000111874               0.000111002               0.000000000               0.000000000               0.000000000               0.000000000               0.000118034               0.000390632              -0.000016474              -0.000004566               0.000131731               0.000127165               0.000000000               0.000000000               0.000000000               0.000000000               0.000117939               0.000450654              -0.000024363              -0.000012105               0.000154251               0.000142147               0.000000000               0.000000000               0.000000000               0.000000000               0.000108492               0.000515242              -0.000029231              -0.000023721               0.000179653               0.000155932               0.000000000               0.000000000               0.000000000               0.000000000               0.000091699               0.000581974              -0.000029853              -0.000038360               0.000206776               0.000168416               0.000000000               0.000000000               0.000000000               0.000000000               0.000070272               0.000647550              -0.000026134              -0.000054592               0.000234045               0.000179453               0.000000000               0.000000000               0.000000000               0.000000000               0.000047050               0.000708640              -0.000019071              -0.000070936               0.000259856               0.000188920               0.000000000               0.000000000               0.000000000               0.000000000               0.000023837               0.000762050              -0.000010270              -0.000086317               0.000282786               0.000196469               0.000000000               0.000000000               0.000000000               0.000000000               0.000016080               0.000794772              -0.000008387              -0.000093316               0.000296027               0.000202710               0.000000000               0.000000000               0.000000000               0.000000000              -0.000004269              -0.000024110               0.000001447               0.000001413              -0.000008508              -0.000007095               0.000000000               0.000000000               0.000000000               0.000000000              -0.000003186              -0.000008536              -0.000000935              -0.000000128              -0.000002803              -0.000002931               0.000000000               0.000000000               0.000000000               0.000000000               0.000007652               0.000025436               0.000000417              -0.000000310               0.000008582               0.000008272               0.000000000               0.000000000               0.000000000               0.000000000               0.000029611               0.000084697               0.000001634               0.000000517               0.000028060               0.000028577               0.000000000               0.000000000               0.000000000               0.000000000               0.000051832               0.000151414               0.000002204               0.000000510               0.000050301               0.000050811               0.000000000               0.000000000               0.000000000               0.000000000               0.000075441               0.000220021               0.000002940               0.000000788               0.000073077               0.000073865               0.000000000               0.000000000               0.000000000               0.000000000               0.000096955               0.000287817               0.000001522               0.000000381               0.000095811               0.000096192               0.000000000               0.000000000               0.000000000               0.000000000               0.000115250               0.000350829              -0.000002068              -0.000000635               0.000117153               0.000116519               0.000000000               0.000000000               0.000000000               0.000000000               0.000129963               0.000413325              -0.000008250              -0.000002930               0.000138750               0.000135821               0.000000000               0.000000000               0.000000000               0.000000000               0.000136851               0.000477902              -0.000015436              -0.000008419               0.000162105               0.000153687               0.000000000               0.000000000               0.000000000               0.000000000               0.000134939               0.000548346              -0.000021828              -0.000017941               0.000188760               0.000170819               0.000000000               0.000000000               0.000000000               0.000000000               0.000124615               0.000622848              -0.000025117              -0.000031125               0.000217989               0.000186864               0.000000000               0.000000000               0.000000000               0.000000000               0.000108945               0.000699170              -0.000024412              -0.000046542               0.000248568               0.000202027               0.000000000               0.000000000               0.000000000               0.000000000               0.000089967               0.000773109              -0.000019788              -0.000062901               0.000278668               0.000215767               0.000000000               0.000000000               0.000000000               0.000000000               0.000070116               0.000842324              -0.000012769              -0.000078997               0.000307104               0.000228107               0.000000000               0.000000000               0.000000000               0.000000000               0.000050587               0.000904274              -0.000005302              -0.000094064               0.000332776               0.000238712               0.000000000               0.000000000               0.000000000               0.000000000               0.000039226               0.000936767              -0.000002186              -0.000102386               0.000346381               0.000243995               0.000000000               0.000000000               0.000000000               0.000000000               0.000000243              -0.000012802               0.000005170               0.000001691              -0.000004831              -0.000003140               0.000000000               0.000000000               0.000000000               0.000000000               0.000002701               0.000003316              -0.000000236               0.000000598               0.000000906               0.000001504               0.000000000               0.000000000               0.000000000               0.000000000               0.000012727               0.000044147              -0.000000775              -0.000000746               0.000014964               0.000014218               0.000000000               0.000000000               0.000000000               0.000000000               0.000037541               0.000110971               0.000000522               0.000000207               0.000036921               0.000037128               0.000000000               0.000000000               0.000000000               0.000000000               0.000060671               0.000179069               0.000000881               0.000000368               0.000059566               0.000059934               0.000000000               0.000000000               0.000000000               0.000000000               0.000085234               0.000250831               0.000001438               0.000000609               0.000083407               0.000084015               0.000000000               0.000000000               0.000000000               0.000000000               0.000107806               0.000321272               0.000000663               0.000000268               0.000107000               0.000107268               0.000000000               0.000000000               0.000000000               0.000000000               0.000127604               0.000388834              -0.000002629              -0.000000753               0.000129861               0.000129108               0.000000000               0.000000000               0.000000000               0.000000000               0.000144626               0.000454340              -0.000007176              -0.000002558               0.000152298               0.000149740               0.000000000               0.000000000               0.000000000               0.000000000               0.000156199               0.000520075              -0.000012532              -0.000006435               0.000175501               0.000169067               0.000000000               0.000000000               0.000000000               0.000000000               0.000160316               0.000588926              -0.000017737              -0.000013497               0.000200806               0.000187309               0.000000000               0.000000000               0.000000000               0.000000000               0.000156721               0.000661288              -0.000021315              -0.000023891               0.000228391               0.000204500               0.000000000               0.000000000               0.000000000               0.000000000               0.000147462               0.000736429              -0.000021844              -0.000036755               0.000257726               0.000220970               0.000000000               0.000000000               0.000000000               0.000000000               0.000134560               0.000812462              -0.000018926              -0.000051098               0.000287850               0.000236753               0.000000000               0.000000000               0.000000000               0.000000000               0.000120064               0.000887838              -0.000013121              -0.000065956               0.000317928               0.000251973               0.000000000               0.000000000               0.000000000               0.000000000               0.000106097               0.000962319              -0.000005896              -0.000080503               0.000347604               0.000267101               0.000000000               0.000000000               0.000000000               0.000000000               0.000092955               0.000996291               0.000000251              -0.000089678               0.000361986               0.000272309               0.000000000               0.000000000               0.000000000               0.000000000               0.000001341               0.000000844               0.000006463               0.000000397               0.000000149               0.000000546               0.000000000               0.000000000               0.000000000               0.000000000               0.000008458               0.000015982               0.000001669               0.000001174               0.000004936               0.000006110               0.000000000               0.000000000               0.000000000               0.000000000               0.000018165               0.000060596              -0.000001461              -0.000000762               0.000020453               0.000019690               0.000000000               0.000000000               0.000000000               0.000000000               0.000041982               0.000127551               0.000000052              -0.000000201               0.000042583               0.000042383               0.000000000               0.000000000               0.000000000               0.000000000               0.000066422               0.000196491               0.000000754               0.000000347               0.000065381               0.000065728               0.000000000               0.000000000               0.000000000               0.000000000               0.000089965               0.000265931               0.000000562               0.000000496               0.000088478               0.000088973               0.000000000               0.000000000               0.000000000               0.000000000               0.000113758               0.000336112               0.000000914               0.000000645               0.000111821               0.000112466               0.000000000               0.000000000               0.000000000               0.000000000               0.000134818               0.000405309              -0.000000573              -0.000000107               0.000135137               0.000135030               0.000000000               0.000000000               0.000000000               0.000000000               0.000153745               0.000471496              -0.000002889              -0.000001283               0.000157591               0.000156309               0.000000000               0.000000000               0.000000000               0.000000000               0.000170487               0.000537691              -0.000006298              -0.000003279               0.000180322               0.000177043               0.000000000               0.000000000               0.000000000               0.000000000               0.000182735               0.000604125              -0.000009904              -0.000006990               0.000203703               0.000196713               0.000000000               0.000000000               0.000000000               0.000000000               0.000189154               0.000672995              -0.000013555              -0.000013192               0.000228727               0.000215535               0.000000000               0.000000000               0.000000000               0.000000000               0.000190032               0.000744324              -0.000015697              -0.000021778               0.000255365               0.000233587               0.000000000               0.000000000               0.000000000               0.000000000               0.000186960               0.000817654              -0.000015558              -0.000032097               0.000283247               0.000251151               0.000000000               0.000000000               0.000000000               0.000000000               0.000181022               0.000891418              -0.000012428              -0.000043544               0.000311651               0.000268107               0.000000000               0.000000000               0.000000000               0.000000000               0.000173703               0.000965364              -0.000006965              -0.000055532               0.000340296               0.000284764               0.000000000               0.000000000               0.000000000               0.000000000               0.000162575               0.000996490              -0.000000741              -0.000063595               0.000353358               0.000289763               0.000000000               0.000000000               0.000000000               0.000000000               0.000001230               0.000010221               0.000004507              -0.000000816               0.000003679               0.000002863               0.000000000               0.000000000               0.000000000               0.000000000               0.000013358               0.000030094               0.000003651               0.000001247               0.000009615               0.000010863               0.000000000               0.000000000               0.000000000               0.000000000               0.000025398               0.000076913              -0.000000855              -0.000000090               0.000025667               0.000025578               0.000000000               0.000000000               0.000000000               0.000000000               0.000044814               0.000140346              -0.000001365              -0.000000738               0.000047028               0.000046290               0.000000000               0.000000000               0.000000000               0.000000000               0.000071173               0.000211954               0.000000531               0.000000196               0.000070585               0.000070781               0.000000000               0.000000000               0.000000000               0.000000000               0.000093803               0.000279390               0.000000060               0.000000252               0.000093045               0.000093297               0.000000000               0.000000000               0.000000000               0.000000000               0.000117433               0.000348305               0.000000708               0.000000499               0.000115934               0.000116433               0.000000000               0.000000000               0.000000000               0.000000000               0.000139858               0.000417968               0.000000623               0.000000201               0.000139254               0.000139455               0.000000000               0.000000000               0.000000000               0.000000000               0.000160617               0.000485541              -0.000000338              -0.000000461               0.000161999               0.000161538               0.000000000               0.000000000               0.000000000               0.000000000               0.000180333               0.000552183              -0.000001919              -0.000001398               0.000184525               0.000183127               0.000000000               0.000000000               0.000000000               0.000000000               0.000198097               0.000618022              -0.000003806              -0.000002966               0.000206994               0.000204028               0.000000000               0.000000000               0.000000000               0.000000000               0.000212838               0.000685023              -0.000006089              -0.000005814               0.000230276               0.000224463               0.000000000               0.000000000               0.000000000               0.000000000               0.000223367               0.000753457              -0.000008099              -0.000010420               0.000254623               0.000244203               0.000000000               0.000000000               0.000000000               0.000000000               0.000230184               0.000823733              -0.000009268              -0.000016648               0.000280124               0.000263477               0.000000000               0.000000000               0.000000000               0.000000000               0.000234209               0.000895162              -0.000008600              -0.000024067               0.000306407               0.000282340               0.000000000               0.000000000               0.000000000               0.000000000               0.000236069               0.000967139              -0.000005707              -0.000032366               0.000333165               0.000300799               0.000000000               0.000000000               0.000000000               0.000000000               0.000230783               0.000998018              -0.000001702              -0.000038209               0.000345406               0.000307197               0.000000000               0.000000000               0.000000000               0.000000000               0.000002397               0.000017781               0.000001594              -0.000001324               0.000006368               0.000005044               0.000000000               0.000000000               0.000000000               0.000000000               0.000016160               0.000044666               0.000003765               0.000000477               0.000014730               0.000015206               0.000000000               0.000000000               0.000000000               0.000000000               0.000032928               0.000093197               0.000000938               0.000000698               0.000030833               0.000031531               0.000000000               0.000000000               0.000000000               0.000000000               0.000048577               0.000150996              -0.000001772              -0.000000658               0.000050551               0.000049893               0.000000000               0.000000000               0.000000000               0.000000000               0.000073812               0.000223185               0.000000484              -0.000000219               0.000074467               0.000074248               0.000000000               0.000000000               0.000000000               0.000000000               0.000096530               0.000290485               0.000000430              -0.000000112               0.000096865               0.000096753               0.000000000               0.000000000               0.000000000               0.000000000               0.000119587               0.000356990              -0.000000184               0.000000221               0.000118922               0.000119143               0.000000000               0.000000000               0.000000000               0.000000000               0.000143403               0.000426379               0.000000454               0.000000479               0.000141965               0.000142444               0.000000000               0.000000000               0.000000000               0.000000000               0.000165607               0.000495137               0.000000348               0.000000210               0.000164974               0.000165184               0.000000000               0.000000000               0.000000000               0.000000000               0.000186956               0.000562359               0.000000131              -0.000000186               0.000187513               0.000187327               0.000000000               0.000000000               0.000000000               0.000000000               0.000207850               0.000629224              -0.000000384              -0.000000709               0.000209976               0.000209267               0.000000000               0.000000000               0.000000000               0.000000000               0.000227490               0.000695050              -0.000001122              -0.000001573               0.000232205               0.000230633               0.000000000               0.000000000               0.000000000               0.000000000               0.000245353               0.000761741              -0.000002021              -0.000003210               0.000254981               0.000251771               0.000000000               0.000000000               0.000000000               0.000000000               0.000260732               0.000829432              -0.000002842              -0.000005904               0.000278443               0.000272538               0.000000000               0.000000000               0.000000000               0.000000000               0.000273986               0.000898524              -0.000003147              -0.000009571               0.000302695               0.000293124               0.000000000               0.000000000               0.000000000               0.000000000               0.000285831               0.000968286              -0.000002328              -0.000013849               0.000327375               0.000313526               0.000000000               0.000000000               0.000000000               0.000000000               0.000288298               0.000999650              -0.000000727              -0.000016844               0.000338828               0.000321984               0.000000000               0.000000000               0.000000000               0.000000000               0.000006066               0.000026829               0.000000951              -0.000001079               0.000009303               0.000008224               0.000000000               0.000000000               0.000000000               0.000000000               0.000017841               0.000056706               0.000002979              -0.000000398               0.000019034               0.000018636               0.000000000               0.000000000               0.000000000               0.000000000               0.000037543               0.000106326               0.000001688               0.000000788               0.000035179               0.000035967               0.000000000               0.000000000               0.000000000               0.000000000               0.000052987               0.000159883              -0.000001453              -0.000000115               0.000053332               0.000053217               0.000000000               0.000000000               0.000000000               0.000000000               0.000076793               0.000230544              -0.000000088              -0.000000021               0.000076854               0.000076834               0.000000000               0.000000000               0.000000000               0.000000000               0.000100807               0.000301382               0.000000840               0.000000130               0.000100416               0.000100546               0.000000000               0.000000000               0.000000000               0.000000000               0.000121971               0.000365726              -0.000000269               0.000000023               0.000121900               0.000121923               0.000000000               0.000000000               0.000000000               0.000000000               0.000144623               0.000432220               0.000000101               0.000000206               0.000144003               0.000144209               0.000000000               0.000000000               0.000000000               0.000000000               0.000167632               0.000501220               0.000000305               0.000000210               0.000167002               0.000167211               0.000000000               0.000000000               0.000000000               0.000000000               0.000189696               0.000568095               0.000000376               0.000000124               0.000189322               0.000189446               0.000000000               0.000000000               0.000000000               0.000000000               0.000212155               0.000635610               0.000000495               0.000000107               0.000211832               0.000211939               0.000000000               0.000000000               0.000000000               0.000000000               0.000234317               0.000701972               0.000000603               0.000000122               0.000233948               0.000234070               0.000000000               0.000000000               0.000000000               0.000000000               0.000256065               0.000768158               0.000000489               0.000000005               0.000256048               0.000256053               0.000000000               0.000000000               0.000000000               0.000000000               0.000276882               0.000834401               0.000000366              -0.000000469               0.000278287               0.000277818               0.000000000               0.000000000               0.000000000               0.000000000               0.000296586               0.000901697               0.000000080              -0.000001492               0.000301060               0.000299568               0.000000000               0.000000000               0.000000000               0.000000000               0.000315201               0.000969564              -0.000000070              -0.000002995               0.000324183               0.000321188               0.000000000               0.000000000               0.000000000               0.000000000               0.000322803               0.001001549               0.000000209              -0.000004143               0.000335227               0.000331085               0.000000000               0.000000000               0.000000000               0.000000000               0.000011204               0.000035655               0.000001353              -0.000000255               0.000011970               0.000011715               0.000000000               0.000000000               0.000000000               0.000000000               0.000020246               0.000065931               0.000002906              -0.000000649               0.000022193               0.000021544               0.000000000               0.000000000               0.000000000               0.000000000               0.000039670               0.000116921               0.000002090               0.000000261               0.000038886               0.000039147               0.000000000               0.000000000               0.000000000               0.000000000               0.000055773               0.000168421              -0.000001343              -0.000000138               0.000056186               0.000056048               0.000000000               0.000000000               0.000000000               0.000000000               0.000077762               0.000234993              -0.000001148              -0.000000213               0.000078401               0.000078188               0.000000000               0.000000000               0.000000000               0.000000000               0.000102389               0.000307615               0.000000493              -0.000000056               0.000102556               0.000102500               0.000000000               0.000000000               0.000000000               0.000000000               0.000123694               0.000372246               0.000000049              -0.000000145               0.000124129               0.000123984               0.000000000               0.000000000               0.000000000               0.000000000               0.000145715               0.000436811              -0.000000075               0.000000042               0.000145588               0.000145630               0.000000000               0.000000000               0.000000000               0.000000000               0.000169129               0.000505011               0.000000125               0.000000297               0.000168236               0.000168533               0.000000000               0.000000000               0.000000000               0.000000000               0.000191244               0.000571276               0.000000119               0.000000307               0.000190321               0.000190628               0.000000000               0.000000000               0.000000000               0.000000000               0.000213482               0.000638545               0.000000167               0.000000237               0.000212767               0.000213005               0.000000000               0.000000000               0.000000000               0.000000000               0.000236009               0.000705696               0.000000397               0.000000292               0.000235133               0.000235424               0.000000000               0.000000000               0.000000000               0.000000000               0.000258865               0.000772368               0.000000485               0.000000528               0.000257277               0.000257805               0.000000000               0.000000000               0.000000000               0.000000000               0.000281741               0.000838338               0.000000548               0.000000860               0.000279156               0.000280017               0.000000000               0.000000000               0.000000000               0.000000000               0.000304463               0.000904563               0.000000456               0.000001103               0.000301150               0.000302253               0.000000000               0.000000000               0.000000000               0.000000000               0.000326468               0.000970995               0.000000269               0.000001051               0.000323311               0.000324362               0.000000000               0.000000000               0.000000000               0.000000000               0.000336652               0.001003290               0.000000199               0.000000833               0.000334149               0.000334982               0.000000000               0.000000000               0.000000000               0.000000000               0.000012642               0.000039745              -0.000000656              -0.000000227               0.000013324               0.000013097               0.000000000               0.000000000               0.000000000               0.000000000               0.000021789               0.000071175               0.000000766              -0.000000726               0.000023967               0.000023241               0.000000000               0.000000000               0.000000000               0.000000000               0.000041465               0.000124760               0.000001632              -0.000000046               0.000041601               0.000041556               0.000000000               0.000000000               0.000000000               0.000000000               0.000058773               0.000174842              -0.000000054               0.000000185               0.000058219               0.000058403               0.000000000               0.000000000               0.000000000               0.000000000               0.000078502               0.000236867              -0.000000351              -0.000000170               0.000079012               0.000078841               0.000000000               0.000000000               0.000000000               0.000000000               0.000103330               0.000310926               0.000000432              -0.000000117               0.000103680               0.000103563               0.000000000               0.000000000               0.000000000               0.000000000               0.000125544               0.000376765              -0.000000056              -0.000000017               0.000125593               0.000125576               0.000000000               0.000000000               0.000000000               0.000000000               0.000146618               0.000439845              -0.000000332               0.000000001               0.000146613               0.000146614               0.000000000               0.000000000               0.000000000               0.000000000               0.000169472               0.000507698              -0.000000136               0.000000090               0.000169201               0.000169291               0.000000000               0.000000000               0.000000000               0.000000000               0.000191611               0.000573793              -0.000000144               0.000000130               0.000191219               0.000191349               0.000000000               0.000000000               0.000000000               0.000000000               0.000213548               0.000639939              -0.000000265               0.000000088               0.000213281               0.000213370               0.000000000               0.000000000               0.000000000               0.000000000               0.000235706               0.000706759              -0.000000261               0.000000045               0.000235569               0.000235614               0.000000000               0.000000000               0.000000000               0.000000000               0.000258038               0.000773486              -0.000000197               0.000000078               0.000257800               0.000257879               0.000000000               0.000000000               0.000000000               0.000000000               0.000280427               0.000839657              -0.000000045               0.000000203               0.000279815               0.000280018               0.000000000               0.000000000               0.000000000               0.000000000               0.000303042               0.000905894               0.000000048               0.000000404               0.000301827               0.000302231               0.000000000               0.000000000               0.000000000               0.000000000               0.000325599               0.000971892               0.000000065               0.000000613               0.000323756               0.000324369               0.000000000               0.000000000               0.000000000               0.000000000               0.000336700               0.001004387              -0.000000002               0.000000714               0.000334554               0.000335269               0.000000000               0.000000000               0.000000000               0.000000000               0.000000000               0.000000000               0.000000000               0.000000000               0.000000000               0.000000000               0.000000000               0.000000000               0.000000000               0.000000000               0.000000000               0.000000000               0.000000000               0.000000000               0.000000000               0.000000000               0.000000000               0.000000000               0.000000000               0.000000000               0.000000000               0.000000000               0.000000000               0.000000000               0.000000000               0.000000000               0.000000000               0.000000000               0.000000000               0.000000000               0.000000000               0.000000000               0.000000000               0.000000000               0.000000000               0.000000000               0.000000000               0.000000000               0.000000000               0.000000000               0.000000000               0.000000000               0.000000000               0.000000000               0.000000000               0.000000000               0.000000000               0.000000000               0.000000000               0.000000000               0.000000000               0.000000000               0.000000000               0.000000000               0.000000000               0.000000000               0.000000000               0.000000000               0.000000000               0.000000000               0.000000000               0.000000000               0.000000000               0.000000000               0.000000000               0.000000000               0.000000000               0.000000000               0.000000000               0.000000000               0.000000000               0.000000000               0.000000000               0.000000000               0.000000000               0.000000000               0.000000000               0.000000000               0.000000000               0.000000000               0.000000000               0.000000000               0.000000000               0.000000000               0.000000000               0.000000000               0.000000000               0.000000000               0.000000000               0.000000000               0.000000000               0.000000000               0.000000000               0.000000000               0.000000000               0.000000000               0.000000000               0.000000000               0.000000000               0.000000000               0.000000000               0.000000000               0.000000000               0.000000000               0.000000000               0.000000000               0.000000000               0.000000000               0.000000000               0.000000000               0.000000000               0.000000000               0.000000000               0.000000000               0.000000000               0.000000000               0.000000000               0.000000000               0.000000000               0.000000000               0.000000000               0.000000000               0.000000000               0.000000000               0.000000000               0.000000000               0.000000000               0.000000000               0.000000000               0.000000000               0.000000000               0.000000000               0.000000000               0.000000000               0.000000000               0.000000000               0.000000000               0.000000000               0.000000000               0.000000000               0.000000000               0.000000000               0.000000000               0.000000000               0.000000000               0.000000000               0.000000000               0.000000000               0.000000000               0.000000000               0.000000000               0.000000000               0.000000000               0.000000000               0.000000000               0.000000000               0.000000000               0.000000000               0.000000000               0.000000000               0.000000000               0.000000000               0.000000000               0.000000000               0.000000000               0.000000000               0.000000000               0.000000000               0.000000000               0.000000000               0.000000000               0.000000000               0.000000000               0.000000000               0.000000000               0.000000000               0.000000000               0.000000000               0.000000000               0.000000000               0.000000000               0.000000000               0.000000000               0.000000000               0.000000000               0.000000000               0.000000000               0.000000000               0.000000000               0.000000000               0.000000000               0.000000000               0.000000000               0.000000000               0.000000000               0.000000000               0.000000000               0.000000000               0.000000000               0.000000000               0.000000000               0.000000000               0.000000000               0.000000000               0.000000000               0.000000000               0.000000000               0.000000000               0.000000000               0.000000000               0.000000000               0.000000000               0.000000000               0.000000000               0.000000000               0.000000000               0.000000000               0.000000000               0.000000000               0.000000000               0.000000000               0.000000000               0.000000000               0.000000000               0.000000000               0.000000000               0.000000000               0.000000000               0.000000000               0.000000000               0.000000000               0.000000000               0.000000000               0.000000000               0.000000000               0.000000000               0.000000000               0.000000000               0.000000000               0.000000000               0.000000000               0.000000000               0.000000000               0.000000000               0.000000000               0.000000000               0.000000000               0.000000000               0.000000000               0.000000000               0.000000000               0.000000000               0.000000000               0.000000000               0.000000000               0.000000000               0.000000000               0.000000000               0.000000000               0.000000000               0.000000000               0.000000000               0.000000000               0.000000000               0.000000000               0.000000000               0.000000000               0.000000000               0.000000000               0.000000000               0.000000000               0.000000000               0.000000000               0.000000000               0.000000000               0.000000000               0.000000000               0.000000000               0.000000000               0.000000000               0.000000000               0.000000000               0.000000000               0.000000000               0.000000000               0.000000000               0.000000000               0.000000000               0.000000000               0.000000000               0.000000000               0.000000000               0.000000000               0.000000000               0.000000000               0.000000000               0.000000000               0.000000000               0.000000000               0.000000000               0.000000000               0.000000000               0.000000000               0.000000000               0.000000000               0.000000000               0.000000000               0.000000000               0.000000000               0.000000000               0.000000000               0.000000000               0.000000000               0.000000000               0.000000000               0.000000000               0.000000000               0.000000000               0.000000000               0.000000000               0.000000000               0.000000000               0.000000000               0.000000000               0.000000000               0.000000000               0.000000000               0.000000000               0.000000000               0.000000000               0.000000000               0.000000000               0.000000000               0.000000000               0.000000000               0.000000000               0.000000000               0.000000000               0.000000000               0.000000000              -0.000002765              -0.000003463              -0.000000027              -0.000000604              -0.000000953              -0.000001557               0.000000000               0.000000000               0.000000000               0.000000000              -0.000002664              -0.000001952               0.000001252              -0.000000755              -0.000000399              -0.000001154               0.000000000               0.000000000               0.000000000               0.000000000              -0.000001399              -0.000001261               0.000001617              -0.000000367              -0.000000298              -0.000000665               0.000000000               0.000000000               0.000000000               0.000000000               0.000001556               0.000001324               0.000000360               0.000000418               0.000000302               0.000000720               0.000000000               0.000000000               0.000000000               0.000000000               0.000003178               0.000003668              -0.000001429               0.000000733               0.000000978               0.000001711               0.000000000               0.000000000               0.000000000               0.000000000               0.000003321               0.000004242              -0.000003054               0.000000715               0.000001176               0.000001891               0.000000000               0.000000000               0.000000000               0.000000000               0.000002324               0.000003088              -0.000003381               0.000000485               0.000000868               0.000001353               0.000000000               0.000000000               0.000000000               0.000000000               0.000000456               0.000000559              -0.000002454               0.000000101               0.000000153               0.000000254               0.000000000               0.000000000               0.000000000               0.000000000              -0.000001498              -0.000002842              -0.000000522              -0.000000207              -0.000000878              -0.000001085               0.000000000               0.000000000               0.000000000               0.000000000              -0.000003219              -0.000005977               0.000001738              -0.000000460              -0.000001839              -0.000002299               0.000000000               0.000000000               0.000000000               0.000000000              -0.000004820              -0.000008041               0.000003468              -0.000000802              -0.000002413              -0.000003215               0.000000000               0.000000000               0.000000000               0.000000000              -0.000005926              -0.000009414               0.000004361              -0.000001045              -0.000002790              -0.000003835               0.000000000               0.000000000               0.000000000               0.000000000              -0.000005849              -0.000010819               0.000004598              -0.000000841              -0.000003326              -0.000004167               0.000000000               0.000000000               0.000000000               0.000000000              -0.000004399              -0.000012808               0.000004408              -0.000000049              -0.000004253              -0.000004302               0.000000000               0.000000000               0.000000000               0.000000000              -0.000002204              -0.000015408               0.000003823               0.000001100              -0.000005502              -0.000004403               0.000000000               0.000000000               0.000000000               0.000000000              -0.000000535              -0.000018096               0.000002399               0.000002061              -0.000006719              -0.000004658               0.000000000               0.000000000               0.000000000               0.000000000              -0.000000103              -0.000019617               0.000001327               0.000002413              -0.000007343              -0.000004930               0.000000000               0.000000000               0.000000000               0.000000000              -0.000000212              -0.000001027              -0.000000510               0.000000049              -0.000000358              -0.000000310               0.000000000               0.000000000               0.000000000               0.000000000               0.000000440               0.000003066              -0.000000952              -0.000000218               0.000001095               0.000000876               0.000000000               0.000000000               0.000000000               0.000000000               0.000001527               0.000005930              -0.000002004              -0.000000169               0.000002033               0.000001864               0.000000000               0.000000000               0.000000000               0.000000000               0.000002668               0.000006883              -0.000001663               0.000000140               0.000002248               0.000002388               0.000000000               0.000000000               0.000000000               0.000000000               0.000002469               0.000004920              -0.000000198               0.000000311               0.000001536               0.000001847               0.000000000               0.000000000               0.000000000               0.000000000               0.000001062              -0.000000762               0.000001241               0.000000493              -0.000000419               0.000000075               0.000000000               0.000000000               0.000000000               0.000000000              -0.000001632              -0.000007545               0.000002606               0.000000331              -0.000002625              -0.000002294               0.000000000               0.000000000               0.000000000               0.000000000              -0.000005094              -0.000013588               0.000003569              -0.000000212              -0.000004459              -0.000004670               0.000000000               0.000000000               0.000000000               0.000000000              -0.000008260              -0.000016895               0.000003748              -0.000000986              -0.000005303              -0.000006289               0.000000000               0.000000000               0.000000000               0.000000000              -0.000010274              -0.000016518               0.000002833              -0.000001788              -0.000004910              -0.000006698               0.000000000               0.000000000               0.000000000               0.000000000              -0.000010071              -0.000013879               0.000001301              -0.000002042              -0.000003946              -0.000005987               0.000000000               0.000000000               0.000000000               0.000000000              -0.000007003              -0.000011058              -0.000000129              -0.000001244              -0.000003271              -0.000004515               0.000000000               0.000000000               0.000000000               0.000000000              -0.000001605              -0.000008889              -0.000001085               0.000000509              -0.000003133              -0.000002623               0.000000000               0.000000000               0.000000000               0.000000000               0.000004132              -0.000006617              -0.000001472               0.000002377              -0.000002998              -0.000000621               0.000000000               0.000000000               0.000000000               0.000000000               0.000007384              -0.000002240              -0.000001508               0.000003049              -0.000001763               0.000001286               0.000000000               0.000000000               0.000000000               0.000000000               0.000005637               0.000006191              -0.000001352               0.000001340               0.000001617               0.000002957               0.000000000               0.000000000               0.000000000               0.000000000               0.000005444               0.000015558               0.000000104               0.000000097               0.000005154               0.000005250               0.000000000               0.000000000               0.000000000               0.000000000               0.000004473               0.000006654              -0.000001984               0.000000846               0.000001936               0.000002782               0.000000000               0.000000000               0.000000000               0.000000000               0.000004414               0.000006151              -0.000000962               0.000000886               0.000001755               0.000002641               0.000000000               0.000000000               0.000000000               0.000000000               0.000002454               0.000005494               0.000000643               0.000000233               0.000001753               0.000001987               0.000000000               0.000000000               0.000000000               0.000000000              -0.000000984              -0.000000683               0.000000754              -0.000000284              -0.000000133              -0.000000417               0.000000000               0.000000000               0.000000000               0.000000000              -0.000003378              -0.000008335               0.000001058              -0.000000225              -0.000002703              -0.000002928               0.000000000               0.000000000               0.000000000               0.000000000              -0.000006011              -0.000013995               0.000001737              -0.000000505              -0.000004497              -0.000005001               0.000000000               0.000000000               0.000000000               0.000000000              -0.000006836              -0.000015092               0.000002056              -0.000000677              -0.000004805              -0.000005482               0.000000000               0.000000000               0.000000000               0.000000000              -0.000005118              -0.000010127               0.000001600              -0.000000653              -0.000003158              -0.000003811               0.000000000               0.000000000               0.000000000               0.000000000              -0.000001548               0.000000540              -0.000000044              -0.000000648               0.000000396              -0.000000252               0.000000000               0.000000000               0.000000000               0.000000000               0.000003871               0.000014006              -0.000001987              -0.000000299               0.000004768               0.000004469               0.000000000               0.000000000               0.000000000               0.000000000               0.000011057               0.000027072              -0.000003135               0.000000762               0.000008770               0.000009532               0.000000000               0.000000000               0.000000000               0.000000000               0.000019228               0.000039158              -0.000003034               0.000002316               0.000012281               0.000014596               0.000000000               0.000000000               0.000000000               0.000000000               0.000026196               0.000051717              -0.000001762               0.000003359               0.000016119               0.000019478               0.000000000               0.000000000               0.000000000               0.000000000               0.000029073               0.000067542              -0.000000088               0.000002460               0.000021694               0.000024154               0.000000000               0.000000000               0.000000000               0.000000000               0.000025609               0.000089327               0.000000974              -0.000001563               0.000030296               0.000028734               0.000000000               0.000000000               0.000000000               0.000000000               0.000014851               0.000118858               0.000000696              -0.000009288               0.000042715               0.000033427               0.000000000               0.000000000               0.000000000               0.000000000               0.000013330               0.000145694               0.000003433              -0.000013213               0.000052968               0.000039755               0.000000000               0.000000000               0.000000000               0.000000000               0.000001264               0.000010578               0.000000386              -0.000000848               0.000003809               0.000002960               0.000000000               0.000000000               0.000000000               0.000000000               0.000001211               0.000004267               0.000000466              -0.000000079               0.000001449               0.000001369               0.000000000               0.000000000               0.000000000               0.000000000              -0.000000203              -0.000003616               0.000000670               0.000000376              -0.000001331              -0.000000955               0.000000000               0.000000000               0.000000000               0.000000000              -0.000004053              -0.000013331               0.000000334               0.000000146              -0.000004493              -0.000004346               0.000000000               0.000000000               0.000000000               0.000000000              -0.000005635              -0.000015696               0.000000592              -0.000000151              -0.000005182              -0.000005333               0.000000000               0.000000000               0.000000000               0.000000000              -0.000004052              -0.000008540               0.000000510              -0.000000452              -0.000002696              -0.000003148               0.000000000               0.000000000               0.000000000               0.000000000               0.000000820               0.000007713              -0.000000472              -0.000000657               0.000002790               0.000002133               0.000000000               0.000000000               0.000000000               0.000000000               0.000008737               0.000031129              -0.000002140              -0.000000615               0.000010581               0.000009966               0.000000000               0.000000000               0.000000000               0.000000000               0.000018795               0.000057423              -0.000003436              -0.000000130               0.000019184               0.000019054               0.000000000               0.000000000               0.000000000               0.000000000               0.000030048               0.000082432              -0.000003047               0.000000964               0.000027156               0.000028120               0.000000000               0.000000000               0.000000000               0.000000000               0.000041681               0.000105579              -0.000000466               0.000002433               0.000034382               0.000036815               0.000000000               0.000000000               0.000000000               0.000000000               0.000050964               0.000128884               0.000003880               0.000003001               0.000041961               0.000044962               0.000000000               0.000000000               0.000000000               0.000000000               0.000054582               0.000155421               0.000008540               0.000001041               0.000051460               0.000052500               0.000000000               0.000000000               0.000000000               0.000000000               0.000050726               0.000187927               0.000011695              -0.000004468               0.000064131               0.000059663               0.000000000               0.000000000               0.000000000               0.000000000               0.000039223               0.000226889               0.000011861              -0.000013653               0.000080180               0.000066527               0.000000000               0.000000000               0.000000000               0.000000000               0.000021252               0.000271268               0.000007854              -0.000025939               0.000099068               0.000073129               0.000000000               0.000000000               0.000000000               0.000000000               0.000018047               0.000306307               0.000008805              -0.000031521               0.000112608               0.000081088               0.000000000               0.000000000               0.000000000               0.000000000              -0.000001300               0.000003629               0.000003864              -0.000000941               0.000001523               0.000000582               0.000000000               0.000000000               0.000000000               0.000000000              -0.000003196              -0.000006050               0.000000471              -0.000000442              -0.000001869              -0.000002312               0.000000000               0.000000000               0.000000000               0.000000000              -0.000004841              -0.000014906              -0.000000620               0.000000048              -0.000004985              -0.000004937               0.000000000               0.000000000               0.000000000               0.000000000              -0.000005342              -0.000013656               0.000000562              -0.000000296              -0.000004453              -0.000004750               0.000000000               0.000000000               0.000000000               0.000000000              -0.000000327               0.000002282               0.000000206              -0.000000408               0.000000897               0.000000489               0.000000000               0.000000000               0.000000000               0.000000000               0.000010460               0.000030060              -0.000000486               0.000000165               0.000009965               0.000010130               0.000000000               0.000000000               0.000000000               0.000000000               0.000023306               0.000065578              -0.000001749               0.000000543               0.000021678               0.000022221               0.000000000               0.000000000               0.000000000               0.000000000               0.000036808               0.000103875              -0.000002646               0.000000819               0.000034352               0.000035170               0.000000000               0.000000000               0.000000000               0.000000000               0.000050234               0.000140933              -0.000001543               0.000001221               0.000046570               0.000047791               0.000000000               0.000000000               0.000000000               0.000000000               0.000063331               0.000175199               0.000002413               0.000001849               0.000057783               0.000059632               0.000000000               0.000000000               0.000000000               0.000000000               0.000073452               0.000208851               0.000008761               0.000001438               0.000069137               0.000070575               0.000000000               0.000000000               0.000000000               0.000000000               0.000077443               0.000245072               0.000015689              -0.000001593               0.000082221               0.000080628               0.000000000               0.000000000               0.000000000               0.000000000               0.000073673               0.000286675               0.000020890              -0.000008207               0.000098293               0.000090086               0.000000000               0.000000000               0.000000000               0.000000000               0.000062128               0.000333278               0.000022600              -0.000018362               0.000117212               0.000098850               0.000000000               0.000000000               0.000000000               0.000000000               0.000044408               0.000382624               0.000019840              -0.000031175               0.000137932               0.000106757               0.000000000               0.000000000               0.000000000               0.000000000               0.000022932               0.000431712               0.000012038              -0.000045364               0.000159024               0.000113660               0.000000000               0.000000000               0.000000000               0.000000000               0.000018419               0.000466336               0.000010812              -0.000051385               0.000172572               0.000121187               0.000000000               0.000000000               0.000000000               0.000000000              -0.000004305              -0.000011119               0.000003995              -0.000000225              -0.000003632              -0.000003856               0.000000000               0.000000000               0.000000000               0.000000000              -0.000007212              -0.000017386               0.000000304              -0.000000531              -0.000005618              -0.000006149               0.000000000               0.000000000               0.000000000               0.000000000              -0.000004257              -0.000013680              -0.000000415               0.000000114              -0.000004598              -0.000004484               0.000000000               0.000000000               0.000000000               0.000000000               0.000003282               0.000007774               0.000000099               0.000000259               0.000002505               0.000002764               0.000000000               0.000000000               0.000000000               0.000000000               0.000014578               0.000043617              -0.000000864               0.000000015               0.000014534               0.000014549               0.000000000               0.000000000               0.000000000               0.000000000               0.000030904               0.000090321              -0.000001536               0.000000299               0.000030007               0.000030306               0.000000000               0.000000000               0.000000000               0.000000000               0.000048254               0.000140322              -0.000002212               0.000000555               0.000046589               0.000047143               0.000000000               0.000000000               0.000000000               0.000000000               0.000065299               0.000189926              -0.000000948               0.000000746               0.000063059               0.000063806               0.000000000               0.000000000               0.000000000               0.000000000               0.000080990               0.000235925               0.000003133               0.000000881               0.000078347               0.000079228               0.000000000               0.000000000               0.000000000               0.000000000               0.000093224               0.000280117               0.000010270              -0.000000056               0.000093390               0.000093334               0.000000000               0.000000000               0.000000000               0.000000000               0.000098916               0.000326102               0.000018583              -0.000003669               0.000109923               0.000106253               0.000000000               0.000000000               0.000000000               0.000000000               0.000096211               0.000376798               0.000025521              -0.000011020               0.000129271               0.000118251               0.000000000               0.000000000               0.000000000               0.000000000               0.000084849               0.000431904               0.000028917              -0.000022169               0.000151356               0.000129187               0.000000000               0.000000000               0.000000000               0.000000000               0.000066973               0.000488716               0.000027990              -0.000035975               0.000174895               0.000138921               0.000000000               0.000000000               0.000000000               0.000000000               0.000045343               0.000544041               0.000022542              -0.000051002               0.000198346               0.000147344               0.000000000               0.000000000               0.000000000               0.000000000               0.000022685               0.000594227               0.000012976              -0.000065771               0.000219997               0.000154226               0.000000000               0.000000000               0.000000000               0.000000000               0.000017142               0.000626698               0.000010675              -0.000071909               0.000232867               0.000160958               0.000000000               0.000000000               0.000000000               0.000000000              -0.000006995              -0.000023546               0.000001956               0.000000320              -0.000007955              -0.000007635               0.000000000               0.000000000               0.000000000               0.000000000              -0.000007377              -0.000017671               0.000000731              -0.000000557              -0.000005705              -0.000006262               0.000000000               0.000000000               0.000000000               0.000000000               0.000001148               0.000003473              -0.000000251              -0.000000004               0.000001159               0.000001155               0.000000000               0.000000000               0.000000000               0.000000000               0.000016020               0.000045041              -0.000000223               0.000000377               0.000014888               0.000015265               0.000000000               0.000000000               0.000000000               0.000000000               0.000034828               0.000100600              -0.000000793               0.000000486               0.000033371               0.000033857               0.000000000               0.000000000               0.000000000               0.000000000               0.000056723               0.000161559              -0.000001772               0.000001076               0.000053494               0.000054570               0.000000000               0.000000000               0.000000000               0.000000000               0.000076872               0.000222417              -0.000001161               0.000001025               0.000073797               0.000074822               0.000000000               0.000000000               0.000000000               0.000000000               0.000094439               0.000279864               0.000001809               0.000000432               0.000093143               0.000093575               0.000000000               0.000000000               0.000000000               0.000000000               0.000109259               0.000334755               0.000008111              -0.000000872               0.000111874               0.000111002               0.000000000               0.000000000               0.000000000               0.000000000               0.000118034               0.000390632               0.000016474              -0.000004566               0.000131731               0.000127165               0.000000000               0.000000000               0.000000000               0.000000000               0.000117939               0.000450654               0.000024363              -0.000012105               0.000154251               0.000142147               0.000000000               0.000000000               0.000000000               0.000000000               0.000108492               0.000515242               0.000029231              -0.000023721               0.000179653               0.000155932               0.000000000               0.000000000               0.000000000               0.000000000               0.000091699               0.000581974               0.000029853              -0.000038360               0.000206776               0.000168416               0.000000000               0.000000000               0.000000000               0.000000000               0.000070272               0.000647550               0.000026134              -0.000054592               0.000234045               0.000179453               0.000000000               0.000000000               0.000000000               0.000000000               0.000047050               0.000708640               0.000019071              -0.000070936               0.000259856               0.000188920               0.000000000               0.000000000               0.000000000               0.000000000               0.000023837               0.000762050               0.000010270              -0.000086317               0.000282786               0.000196469               0.000000000               0.000000000               0.000000000               0.000000000               0.000016080               0.000794772               0.000008387              -0.000093316               0.000296027               0.000202710               0.000000000               0.000000000               0.000000000               0.000000000              -0.000004269              -0.000024110              -0.000001447               0.000001413              -0.000008508              -0.000007095               0.000000000               0.000000000               0.000000000               0.000000000              -0.000003186              -0.000008536               0.000000935              -0.000000128              -0.000002803              -0.000002931               0.000000000               0.000000000               0.000000000               0.000000000               0.000007652               0.000025436              -0.000000417              -0.000000310               0.000008582               0.000008272               0.000000000               0.000000000               0.000000000               0.000000000               0.000029611               0.000084697              -0.000001634               0.000000517               0.000028060               0.000028577               0.000000000               0.000000000               0.000000000               0.000000000               0.000051832               0.000151414              -0.000002204               0.000000510               0.000050301               0.000050811               0.000000000               0.000000000               0.000000000               0.000000000               0.000075441               0.000220021              -0.000002940               0.000000788               0.000073077               0.000073865               0.000000000               0.000000000               0.000000000               0.000000000               0.000096955               0.000287817              -0.000001522               0.000000381               0.000095811               0.000096192               0.000000000               0.000000000               0.000000000               0.000000000               0.000115250               0.000350829               0.000002068              -0.000000635               0.000117153               0.000116519               0.000000000               0.000000000               0.000000000               0.000000000               0.000129963               0.000413325               0.000008250              -0.000002930               0.000138750               0.000135821               0.000000000               0.000000000               0.000000000               0.000000000               0.000136851               0.000477902               0.000015436              -0.000008419               0.000162105               0.000153687               0.000000000               0.000000000               0.000000000               0.000000000               0.000134939               0.000548346               0.000021828              -0.000017941               0.000188760               0.000170819               0.000000000               0.000000000               0.000000000               0.000000000               0.000124615               0.000622848               0.000025117              -0.000031125               0.000217989               0.000186864               0.000000000               0.000000000               0.000000000               0.000000000               0.000108945               0.000699170               0.000024412              -0.000046542               0.000248568               0.000202027               0.000000000               0.000000000               0.000000000               0.000000000               0.000089967               0.000773109               0.000019788              -0.000062901               0.000278668               0.000215767               0.000000000               0.000000000               0.000000000               0.000000000               0.000070116               0.000842324               0.000012769              -0.000078997               0.000307104               0.000228107               0.000000000               0.000000000               0.000000000               0.000000000               0.000050587               0.000904274               0.000005302              -0.000094064               0.000332776               0.000238712               0.000000000               0.000000000               0.000000000               0.000000000               0.000039226               0.000936767               0.000002186              -0.000102386               0.000346381               0.000243995               0.000000000               0.000000000               0.000000000               0.000000000               0.000000243              -0.000012802              -0.000005170               0.000001691              -0.000004831              -0.000003140               0.000000000               0.000000000               0.000000000               0.000000000               0.000002701               0.000003316               0.000000236               0.000000598               0.000000906               0.000001504               0.000000000               0.000000000               0.000000000               0.000000000               0.000012727               0.000044147               0.000000775              -0.000000746               0.000014964               0.000014218               0.000000000               0.000000000               0.000000000               0.000000000               0.000037541               0.000110971              -0.000000522               0.000000207               0.000036921               0.000037128               0.000000000               0.000000000               0.000000000               0.000000000               0.000060671               0.000179069              -0.000000881               0.000000368               0.000059566               0.000059934               0.000000000               0.000000000               0.000000000               0.000000000               0.000085234               0.000250831              -0.000001438               0.000000609               0.000083407               0.000084015               0.000000000               0.000000000               0.000000000               0.000000000               0.000107806               0.000321272              -0.000000663               0.000000268               0.000107000               0.000107268               0.000000000               0.000000000               0.000000000               0.000000000               0.000127604               0.000388834               0.000002629              -0.000000753               0.000129861               0.000129108               0.000000000               0.000000000               0.000000000               0.000000000               0.000144626               0.000454340               0.000007176              -0.000002558               0.000152298               0.000149740               0.000000000               0.000000000               0.000000000               0.000000000               0.000156199               0.000520075               0.000012532              -0.000006435               0.000175501               0.000169067               0.000000000               0.000000000               0.000000000               0.000000000               0.000160316               0.000588926               0.000017737              -0.000013497               0.000200806               0.000187309               0.000000000               0.000000000               0.000000000               0.000000000               0.000156721               0.000661288               0.000021315              -0.000023891               0.000228391               0.000204500               0.000000000               0.000000000               0.000000000               0.000000000               0.000147462               0.000736429               0.000021844              -0.000036755               0.000257726               0.000220970               0.000000000               0.000000000               0.000000000               0.000000000               0.000134560               0.000812462               0.000018926              -0.000051098               0.000287850               0.000236753               0.000000000               0.000000000               0.000000000               0.000000000               0.000120064               0.000887838               0.000013121              -0.000065956               0.000317928               0.000251973               0.000000000               0.000000000               0.000000000               0.000000000               0.000106097               0.000962319               0.000005896              -0.000080503               0.000347604               0.000267101               0.000000000               0.000000000               0.000000000               0.000000000               0.000092955               0.000996291              -0.000000251              -0.000089678               0.000361986               0.000272309               0.000000000               0.000000000               0.000000000               0.000000000               0.000001341               0.000000844              -0.000006463               0.000000397               0.000000149               0.000000546               0.000000000               0.000000000               0.000000000               0.000000000               0.000008458               0.000015982              -0.000001669               0.000001174               0.000004936               0.000006110               0.000000000               0.000000000               0.000000000               0.000000000               0.000018165               0.000060596               0.000001461              -0.000000762               0.000020453               0.000019690               0.000000000               0.000000000               0.000000000               0.000000000               0.000041982               0.000127551              -0.000000052              -0.000000201               0.000042583               0.000042383               0.000000000               0.000000000               0.000000000               0.000000000               0.000066422               0.000196491              -0.000000754               0.000000347               0.000065381               0.000065728               0.000000000               0.000000000               0.000000000               0.000000000               0.000089965               0.000265931              -0.000000562               0.000000496               0.000088478               0.000088973               0.000000000               0.000000000               0.000000000               0.000000000               0.000113758               0.000336112              -0.000000914               0.000000645               0.000111821               0.000112466               0.000000000               0.000000000               0.000000000               0.000000000               0.000134818               0.000405309               0.000000573              -0.000000107               0.000135137               0.000135030               0.000000000               0.000000000               0.000000000               0.000000000               0.000153745               0.000471496               0.000002889              -0.000001283               0.000157591               0.000156309               0.000000000               0.000000000               0.000000000               0.000000000               0.000170487               0.000537691               0.000006298              -0.000003279               0.000180322               0.000177043               0.000000000               0.000000000               0.000000000               0.000000000               0.000182735               0.000604125               0.000009904              -0.000006990               0.000203703               0.000196713               0.000000000               0.000000000               0.000000000               0.000000000               0.000189154               0.000672995               0.000013555              -0.000013192               0.000228727               0.000215535               0.000000000               0.000000000               0.000000000               0.000000000               0.000190032               0.000744324               0.000015697              -0.000021778               0.000255365               0.000233587               0.000000000               0.000000000               0.000000000               0.000000000               0.000186960               0.000817654               0.000015558              -0.000032097               0.000283247               0.000251151               0.000000000               0.000000000               0.000000000               0.000000000               0.000181022               0.000891418               0.000012428              -0.000043544               0.000311651               0.000268107               0.000000000               0.000000000               0.000000000               0.000000000               0.000173703               0.000965364               0.000006965              -0.000055532               0.000340296               0.000284764               0.000000000               0.000000000               0.000000000               0.000000000               0.000162575               0.000996490               0.000000741              -0.000063595               0.000353358               0.000289763               0.000000000               0.000000000               0.000000000               0.000000000               0.000001230               0.000010221              -0.000004507              -0.000000816               0.000003679               0.000002863               0.000000000               0.000000000               0.000000000               0.000000000               0.000013358               0.000030094              -0.000003651               0.000001247               0.000009615               0.000010863               0.000000000               0.000000000               0.000000000               0.000000000               0.000025398               0.000076913               0.000000855              -0.000000090               0.000025667               0.000025578               0.000000000               0.000000000               0.000000000               0.000000000               0.000044814               0.000140346               0.000001365              -0.000000738               0.000047028               0.000046290               0.000000000               0.000000000               0.000000000               0.000000000               0.000071173               0.000211954              -0.000000531               0.000000196               0.000070585               0.000070781               0.000000000               0.000000000               0.000000000               0.000000000               0.000093803               0.000279390              -0.000000060               0.000000252               0.000093045               0.000093297               0.000000000               0.000000000               0.000000000               0.000000000               0.000117433               0.000348305              -0.000000708               0.000000499               0.000115934               0.000116433               0.000000000               0.000000000               0.000000000               0.000000000               0.000139858               0.000417968              -0.000000623               0.000000201               0.000139254               0.000139455               0.000000000               0.000000000               0.000000000               0.000000000               0.000160617               0.000485541               0.000000338              -0.000000461               0.000161999               0.000161538               0.000000000               0.000000000               0.000000000               0.000000000               0.000180333               0.000552183               0.000001919              -0.000001398               0.000184525               0.000183127               0.000000000               0.000000000               0.000000000               0.000000000               0.000198097               0.000618022               0.000003806              -0.000002966               0.000206994               0.000204028               0.000000000               0.000000000               0.000000000               0.000000000               0.000212838               0.000685023               0.000006089              -0.000005814               0.000230276               0.000224463               0.000000000               0.000000000               0.000000000               0.000000000               0.000223367               0.000753457               0.000008099              -0.000010420               0.000254623               0.000244203               0.000000000               0.000000000               0.000000000               0.000000000               0.000230184               0.000823733               0.000009268              -0.000016648               0.000280124               0.000263477               0.000000000               0.000000000               0.000000000               0.000000000               0.000234209               0.000895162               0.000008600              -0.000024067               0.000306407               0.000282340               0.000000000               0.000000000               0.000000000               0.000000000               0.000236069               0.000967139               0.000005707              -0.000032366               0.000333165               0.000300799               0.000000000               0.000000000               0.000000000               0.000000000               0.000230783               0.000998018               0.000001702              -0.000038209               0.000345406               0.000307197               0.000000000               0.000000000               0.000000000               0.000000000               0.000002397               0.000017781              -0.000001594              -0.000001324               0.000006368               0.000005044               0.000000000               0.000000000               0.000000000               0.000000000               0.000016160               0.000044666              -0.000003765               0.000000477               0.000014730               0.000015206               0.000000000               0.000000000               0.000000000               0.000000000               0.000032928               0.000093197              -0.000000938               0.000000698               0.000030833               0.000031531               0.000000000               0.000000000               0.000000000               0.000000000               0.000048577               0.000150996               0.000001772              -0.000000658               0.000050551               0.000049893               0.000000000               0.000000000               0.000000000               0.000000000               0.000073812               0.000223185              -0.000000484              -0.000000219               0.000074467               0.000074248               0.000000000               0.000000000               0.000000000               0.000000000               0.000096530               0.000290485              -0.000000430              -0.000000112               0.000096865               0.000096753               0.000000000               0.000000000               0.000000000               0.000000000               0.000119587               0.000356990               0.000000184               0.000000221               0.000118922               0.000119143               0.000000000               0.000000000               0.000000000               0.000000000               0.000143403               0.000426379              -0.000000454               0.000000479               0.000141965               0.000142444               0.000000000               0.000000000               0.000000000               0.000000000               0.000165607               0.000495137              -0.000000348               0.000000210               0.000164974               0.000165184               0.000000000               0.000000000               0.000000000               0.000000000               0.000186956               0.000562359              -0.000000131              -0.000000186               0.000187513               0.000187327               0.000000000               0.000000000               0.000000000               0.000000000               0.000207850               0.000629224               0.000000384              -0.000000709               0.000209976               0.000209267               0.000000000               0.000000000               0.000000000               0.000000000               0.000227490               0.000695050               0.000001122              -0.000001573               0.000232205               0.000230633               0.000000000               0.000000000               0.000000000               0.000000000               0.000245353               0.000761741               0.000002021              -0.000003210               0.000254981               0.000251771               0.000000000               0.000000000               0.000000000               0.000000000               0.000260732               0.000829432               0.000002842              -0.000005904               0.000278443               0.000272538               0.000000000               0.000000000               0.000000000               0.000000000               0.000273986               0.000898524               0.000003147              -0.000009571               0.000302695               0.000293124               0.000000000               0.000000000               0.000000000               0.000000000               0.000285831               0.000968286               0.000002328              -0.000013849               0.000327375               0.000313526               0.000000000               0.000000000               0.000000000               0.000000000               0.000288298               0.000999650               0.000000727              -0.000016844               0.000338828               0.000321984               0.000000000               0.000000000               0.000000000               0.000000000               0.000006066               0.000026829              -0.000000951              -0.000001079               0.000009303               0.000008224               0.000000000               0.000000000               0.000000000               0.000000000               0.000017841               0.000056706              -0.000002979              -0.000000398               0.000019034               0.000018636               0.000000000               0.000000000               0.000000000               0.000000000               0.000037543               0.000106326              -0.000001688               0.000000788               0.000035179               0.000035967               0.000000000               0.000000000               0.000000000               0.000000000               0.000052987               0.000159883               0.000001453              -0.000000115               0.000053332               0.000053217               0.000000000               0.000000000               0.000000000               0.000000000               0.000076793               0.000230544               0.000000088              -0.000000021               0.000076854               0.000076834               0.000000000               0.000000000               0.000000000               0.000000000               0.000100807               0.000301382              -0.000000840               0.000000130               0.000100416               0.000100546               0.000000000               0.000000000               0.000000000               0.000000000               0.000121971               0.000365726               0.000000269               0.000000023               0.000121900               0.000121923               0.000000000               0.000000000               0.000000000               0.000000000               0.000144623               0.000432220              -0.000000101               0.000000206               0.000144003               0.000144209               0.000000000               0.000000000               0.000000000               0.000000000               0.000167632               0.000501220              -0.000000305               0.000000210               0.000167002               0.000167211               0.000000000               0.000000000               0.000000000               0.000000000               0.000189696               0.000568095              -0.000000376               0.000000124               0.000189322               0.000189446               0.000000000               0.000000000               0.000000000               0.000000000               0.000212155               0.000635610              -0.000000495               0.000000107               0.000211832               0.000211939               0.000000000               0.000000000               0.000000000               0.000000000               0.000234317               0.000701972              -0.000000603               0.000000122               0.000233948               0.000234070               0.000000000               0.000000000               0.000000000               0.000000000               0.000256065               0.000768158              -0.000000489               0.000000005               0.000256048               0.000256053               0.000000000               0.000000000               0.000000000               0.000000000               0.000276882               0.000834401              -0.000000366              -0.000000469               0.000278287               0.000277818               0.000000000               0.000000000               0.000000000               0.000000000               0.000296586               0.000901697              -0.000000080              -0.000001492               0.000301060               0.000299568               0.000000000               0.000000000               0.000000000               0.000000000               0.000315201               0.000969564               0.000000070              -0.000002995               0.000324183               0.000321188               0.000000000               0.000000000               0.000000000               0.000000000               0.000322803               0.001001549              -0.000000209              -0.000004143               0.000335227               0.000331085               0.000000000               0.000000000               0.000000000               0.000000000               0.000011204               0.000035655              -0.000001353              -0.000000255               0.000011970               0.000011715               0.000000000               0.000000000               0.000000000               0.000000000               0.000020246               0.000065931              -0.000002906              -0.000000649               0.000022193               0.000021544               0.000000000               0.000000000               0.000000000               0.000000000               0.000039670               0.000116921              -0.000002090               0.000000261               0.000038886               0.000039147               0.000000000               0.000000000               0.000000000               0.000000000               0.000055773               0.000168421               0.000001343              -0.000000138               0.000056186               0.000056048               0.000000000               0.000000000               0.000000000               0.000000000               0.000077762               0.000234993               0.000001148              -0.000000213               0.000078401               0.000078188               0.000000000               0.000000000               0.000000000               0.000000000               0.000102389               0.000307615              -0.000000493              -0.000000056               0.000102556               0.000102500               0.000000000               0.000000000               0.000000000               0.000000000               0.000123694               0.000372246              -0.000000049              -0.000000145               0.000124129               0.000123984               0.000000000               0.000000000               0.000000000               0.000000000               0.000145715               0.000436811               0.000000075               0.000000042               0.000145588               0.000145630               0.000000000               0.000000000               0.000000000               0.000000000               0.000169129               0.000505011              -0.000000125               0.000000297               0.000168236               0.000168533               0.000000000               0.000000000               0.000000000               0.000000000               0.000191244               0.000571276              -0.000000119               0.000000307               0.000190321               0.000190628               0.000000000               0.000000000               0.000000000               0.000000000               0.000213482               0.000638545              -0.000000167               0.000000237               0.000212767               0.000213005               0.000000000               0.000000000               0.000000000               0.000000000               0.000236009               0.000705696              -0.000000397               0.000000292               0.000235133               0.000235424               0.000000000               0.000000000               0.000000000               0.000000000               0.000258865               0.000772368              -0.000000485               0.000000528               0.000257277               0.000257805               0.000000000               0.000000000               0.000000000               0.000000000               0.000281741               0.000838338              -0.000000548               0.000000860               0.000279156               0.000280017               0.000000000               0.000000000               0.000000000               0.000000000               0.000304463               0.000904563              -0.000000456               0.000001103               0.000301150               0.000302253               0.000000000               0.000000000               0.000000000               0.000000000               0.000326468               0.000970995              -0.000000269               0.000001051               0.000323311               0.000324362               0.000000000               0.000000000               0.000000000               0.000000000               0.000336652               0.001003290              -0.000000199               0.000000833               0.000334149               0.000334982               0.000000000               0.000000000               0.000000000               0.000000000               0.000012642               0.000039745               0.000000656              -0.000000227               0.000013324               0.000013097               0.000000000               0.000000000               0.000000000               0.000000000               0.000021789               0.000071175              -0.000000766              -0.000000726               0.000023967               0.000023241               0.000000000               0.000000000               0.000000000               0.000000000               0.000041465               0.000124760              -0.000001632              -0.000000046               0.000041601               0.000041556               0.000000000               0.000000000               0.000000000               0.000000000               0.000058773               0.000174842               0.000000054               0.000000185               0.000058219               0.000058403               0.000000000               0.000000000               0.000000000               0.000000000               0.000078502               0.000236867               0.000000351              -0.000000170               0.000079012               0.000078841               0.000000000               0.000000000               0.000000000               0.000000000               0.000103330               0.000310926              -0.000000432              -0.000000117               0.000103680               0.000103563               0.000000000               0.000000000               0.000000000               0.000000000               0.000125544               0.000376765               0.000000056              -0.000000017               0.000125593               0.000125576               0.000000000               0.000000000               0.000000000               0.000000000               0.000146618               0.000439845               0.000000332               0.000000001               0.000146613               0.000146614               0.000000000               0.000000000               0.000000000               0.000000000               0.000169472               0.000507698               0.000000136               0.000000090               0.000169201               0.000169291               0.000000000               0.000000000               0.000000000               0.000000000               0.000191611               0.000573793               0.000000144               0.000000130               0.000191219               0.000191349               0.000000000               0.000000000               0.000000000               0.000000000               0.000213548               0.000639939               0.000000265               0.000000088               0.000213281               0.000213370               0.000000000               0.000000000               0.000000000               0.000000000               0.000235706               0.000706759               0.000000261               0.000000045               0.000235569               0.000235614               0.000000000               0.000000000               0.000000000               0.000000000               0.000258038               0.000773486               0.000000197               0.000000078               0.000257800               0.000257879               0.000000000               0.000000000               0.000000000               0.000000000               0.000280427               0.000839657               0.000000045               0.000000203               0.000279815               0.000280018               0.000000000               0.000000000               0.000000000               0.000000000               0.000303042               0.000905894              -0.000000048               0.000000404               0.000301827               0.000302231               0.000000000               0.000000000               0.000000000               0.000000000               0.000325599               0.000971892              -0.000000065               0.000000613               0.000323756               0.000324369               0.000000000               0.000000000               0.000000000               0.000000000               0.000336700               0.001004387               0.000000002               0.000000714               0.000334554               0.000335269               0.000000000               0.000000000               0.000000000               0.000000000               0.000000000               0.000000000               0.000000000               0.000000000               0.000000000               0.000000000               0.000000000               0.000000000               0.000000000               0.000000000               0.000000000               0.000000000               0.000000000               0.000000000               0.000000000               0.000000000               0.000000000               0.000000000               0.000000000               0.000000000               0.000000000               0.000000000               0.000000000               0.000000000               0.000000000               0.000000000               0.000000000               0.000000000               0.000000000               0.000000000               0.000000000               0.000000000               0.000000000               0.000000000               0.000000000               0.000000000               0.000000000               0.000000000               0.000000000               0.000000000               0.000000000               0.000000000               0.000000000               0.000000000               0.000000000               0.000000000               0.000000000               0.000000000               0.000000000               0.000000000               0.000000000               0.000000000               0.000000000               0.000000000               0.000000000               0.000000000               0.000000000               0.000000000               0.000000000               0.000000000               0.000000000               0.000000000               0.000000000               0.000000000               0.000000000               0.000000000               0.000000000               0.000000000               0.000000000               0.000000000               0.000000000               0.000000000               0.000000000               0.000000000               0.000000000               0.000000000               0.000000000               0.000000000               0.000000000               0.000000000               0.000000000               0.000000000               0.000000000               0.000000000               0.000000000               0.000000000               0.000000000               0.000000000               0.000000000               0.000000000               0.000000000               0.000000000               0.000000000               0.000000000               0.000000000               0.000000000               0.000000000               0.000000000               0.000000000               0.000000000               0.000000000               0.000000000               0.000000000               0.000000000               0.000000000               0.000000000               0.000000000               0.000000000               0.000000000               0.000000000               0.000000000               0.000000000               0.000000000               0.000000000               0.000000000               0.000000000               0.000000000               0.000000000               0.000000000               0.000000000               0.000000000               0.000000000               0.000000000               0.000000000               0.000000000               0.000000000               0.000000000               0.000000000               0.000000000               0.000000000               0.000000000               0.000000000               0.000000000               0.000000000               0.000000000               0.000000000               0.000000000               0.000000000               0.000000000               0.000000000               0.000000000               0.000000000               0.000000000               0.000000000               0.000000000               0.000000000               0.000000000               0.000000000               0.000000000               0.000000000               0.000000000               0.000000000               0.000000000               0.000000000               0.000000000               0.000000000               0.000000000               0.000000000               0.000000000               0.000000000               0.000000000               0.000000000               0.000000000               0.000000000               0.000000000               0.000000000               0.000000000               0.000000000               0.000000000               0.000000000 </DataArray>
</PointData>
</Piece>
</UnstructuredGrid> </VTKFile>
