<?xml version="1.0"?>
<VTKFile type="UnstructuredGrid" version="0.1">
<UnstructuredGrid>
<Piece NumberOfPoints="      1156" NumberOfCells="      1024">
<Points>
<DataArray type="Float64"                                    Name="coordinates"                                                      NumberOfComponents=" 3" format="ascii">
              0.133000000               0.000000000               0.000000000               0.155937500               0.000000000               0.000000000               0.178875000               0.000000000               0.000000000               0.201812500               0.000000000               0.000000000               0.224750000               0.000000000               0.000000000               0.247687500               0.000000000               0.000000000               0.270625000               0.000000000               0.000000000               0.293562500               0.000000000               0.000000000               0.316500000               0.000000000               0.000000000               0.339437500               0.000000000               0.000000000               0.362375000               0.000000000               0.000000000               0.385312500               0.000000000               0.000000000               0.408250000               0.000000000               0.000000000               0.431187500               0.000000000               0.000000000               0.454125000               0.000000000               0.000000000               0.477062500               0.000000000               0.000000000               0.500000000               0.000000000               0.000000000               0.132359569               0.013036280               0.000000000               0.155337096               0.016127762               0.000000000               0.178314623               0.019219245               0.000000000               0.201292150               0.022310727               0.000000000               0.224269676               0.025402210               0.000000000               0.247247203               0.028493692               0.000000000               0.270224730               0.031585175               0.000000000               0.293202257               0.034676657               0.000000000               0.316179784               0.037768140               0.000000000               0.339157311               0.040859622               0.000000000               0.362134838               0.043951105               0.000000000               0.385112365               0.047042587               0.000000000               0.408089892               0.050134070               0.000000000               0.431067419               0.053225552               0.000000000               0.454044946               0.056317035               0.000000000               0.477022473               0.059408517               0.000000000               0.500000000               0.062500000               0.000000000               0.130444442               0.025947013               0.000000000               0.153541665               0.032137825               0.000000000               0.176638887               0.038328636               0.000000000               0.199736109               0.044519448               0.000000000               0.222833332               0.050710260               0.000000000               0.245930554               0.056901071               0.000000000               0.269027776               0.063091883               0.000000000               0.292124999               0.069282695               0.000000000               0.315222221               0.075473506               0.000000000               0.338319444               0.081664318               0.000000000               0.361416666               0.087855130               0.000000000               0.384513888               0.094045942               0.000000000               0.407611111               0.100236753               0.000000000               0.430708333               0.106427565               0.000000000               0.453805555               0.112618377               0.000000000               0.476902778               0.118809188               0.000000000               0.500000000               0.125000000               0.000000000               0.127273065               0.038607862               0.000000000               0.150568498               0.047913621               0.000000000               0.173863932               0.057219379               0.000000000               0.197159365               0.066525138               0.000000000               0.220454798               0.075830897               0.000000000               0.243750232               0.085136655               0.000000000               0.267045665               0.094442414               0.000000000               0.290341099               0.103748172               0.000000000               0.313636532               0.113053931               0.000000000               0.336931966               0.122359690               0.000000000               0.360227399               0.131665448               0.000000000               0.383522833               0.140971207               0.000000000               0.406818266               0.150276966               0.000000000               0.430113700               0.159582724               0.000000000               0.453409133               0.168888483               0.000000000               0.476704567               0.178194241               0.000000000               0.500000000               0.187500000               0.000000000               0.122875978               0.050896897               0.000000000               0.146446229               0.063340840               0.000000000               0.170016481               0.075784784               0.000000000               0.193586732               0.088228728               0.000000000               0.217156983               0.100672672               0.000000000               0.240727235               0.113116616               0.000000000               0.264297486               0.125560560               0.000000000               0.287867738               0.138004504               0.000000000               0.311437989               0.150448448               0.000000000               0.335008240               0.162892392               0.000000000               0.358578492               0.175336336               0.000000000               0.382148743               0.187780280               0.000000000               0.405718994               0.200224224               0.000000000               0.429289246               0.212668168               0.000000000               0.452859497               0.225112112               0.000000000               0.476429749               0.237556056               0.000000000               0.500000000               0.250000000               0.000000000               0.117295528               0.062695766               0.000000000               0.141214558               0.078308531               0.000000000               0.165133587               0.093921295               0.000000000               0.189052617               0.109534060               0.000000000               0.212971646               0.125146824               0.000000000               0.236890676               0.140759589               0.000000000               0.260809705               0.156372354               0.000000000               0.284728735               0.171985118               0.000000000               0.308647764               0.187597883               0.000000000               0.332566794               0.203210648               0.000000000               0.356485823               0.218823412               0.000000000               0.380404853               0.234436177               0.000000000               0.404323882               0.250048941               0.000000000               0.428242912               0.265661706               0.000000000               0.452161941               0.281274471               0.000000000               0.476080971               0.296887235               0.000000000               0.500000000               0.312500000               0.000000000               0.110585458               0.073890841               0.000000000               0.134923867               0.092710163               0.000000000               0.159262276               0.111529486               0.000000000               0.183600685               0.130348808               0.000000000               0.207939094               0.149168131               0.000000000               0.232277503               0.167987453               0.000000000               0.256615912               0.186806776               0.000000000               0.280954320               0.205626098               0.000000000               0.305292729               0.224445420               0.000000000               0.329631138               0.243264743               0.000000000               0.353969547               0.262084065               0.000000000               0.378307956               0.280903388               0.000000000               0.402646365               0.299722710               0.000000000               0.426984773               0.318542033               0.000000000               0.451323182               0.337361355               0.000000000               0.475661591               0.356180678               0.000000000               0.500000000               0.375000000               0.000000000               0.102810390               0.084374307               0.000000000               0.127634741               0.106444663               0.000000000               0.152459092               0.128515018               0.000000000               0.177283442               0.150585374               0.000000000               0.202107793               0.172655730               0.000000000               0.226932143               0.194726086               0.000000000               0.251756494               0.216796442               0.000000000               0.276580845               0.238866798               0.000000000               0.301405195               0.260937153               0.000000000               0.326229546               0.283007509               0.000000000               0.351053896               0.305077865               0.000000000               0.375878247               0.327148221               0.000000000               0.400702598               0.349218577               0.000000000               0.425526948               0.371288933               0.000000000               0.450351299               0.393359288               0.000000000               0.475175649               0.415429644               0.000000000               0.500000000               0.437500000               0.000000000               0.094045202               0.094045202               0.000000000               0.119417377               0.119417377               0.000000000               0.144789552               0.144789552               0.000000000               0.170161727               0.170161727               0.000000000               0.195533901               0.195533901               0.000000000               0.220906076               0.220906076               0.000000000               0.246278251               0.246278251               0.000000000               0.271650426               0.271650426               0.000000000               0.297022601               0.297022601               0.000000000               0.322394776               0.322394776               0.000000000               0.347766951               0.347766951               0.000000000               0.373139126               0.373139126               0.000000000               0.398511300               0.398511300               0.000000000               0.423883475               0.423883475               0.000000000               0.449255650               0.449255650               0.000000000               0.474627825               0.474627825               0.000000000               0.500000000               0.500000000               0.000000000               0.084374307               0.102810390               0.000000000               0.106444663               0.127634741               0.000000000               0.128515018               0.152459092               0.000000000               0.150585374               0.177283442               0.000000000               0.172655730               0.202107793               0.000000000               0.194726086               0.226932143               0.000000000               0.216796442               0.251756494               0.000000000               0.238866798               0.276580845               0.000000000               0.260937153               0.301405195               0.000000000               0.283007509               0.326229546               0.000000000               0.305077865               0.351053896               0.000000000               0.327148221               0.375878247               0.000000000               0.349218577               0.400702598               0.000000000               0.371288933               0.425526948               0.000000000               0.393359288               0.450351299               0.000000000               0.415429644               0.475175649               0.000000000               0.437500000               0.500000000               0.000000000               0.073890841               0.110585458               0.000000000               0.092710163               0.134923867               0.000000000               0.111529486               0.159262276               0.000000000               0.130348808               0.183600685               0.000000000               0.149168131               0.207939094               0.000000000               0.167987453               0.232277503               0.000000000               0.186806776               0.256615912               0.000000000               0.205626098               0.280954320               0.000000000               0.224445420               0.305292729               0.000000000               0.243264743               0.329631138               0.000000000               0.262084065               0.353969547               0.000000000               0.280903388               0.378307956               0.000000000               0.299722710               0.402646365               0.000000000               0.318542033               0.426984773               0.000000000               0.337361355               0.451323182               0.000000000               0.356180678               0.475661591               0.000000000               0.375000000               0.500000000               0.000000000               0.062695766               0.117295528               0.000000000               0.078308531               0.141214558               0.000000000               0.093921295               0.165133587               0.000000000               0.109534060               0.189052617               0.000000000               0.125146824               0.212971646               0.000000000               0.140759589               0.236890676               0.000000000               0.156372354               0.260809705               0.000000000               0.171985118               0.284728735               0.000000000               0.187597883               0.308647764               0.000000000               0.203210648               0.332566794               0.000000000               0.218823412               0.356485823               0.000000000               0.234436177               0.380404853               0.000000000               0.250048941               0.404323882               0.000000000               0.265661706               0.428242912               0.000000000               0.281274471               0.452161941               0.000000000               0.296887235               0.476080971               0.000000000               0.312500000               0.500000000               0.000000000               0.050896897               0.122875978               0.000000000               0.063340840               0.146446229               0.000000000               0.075784784               0.170016481               0.000000000               0.088228728               0.193586732               0.000000000               0.100672672               0.217156983               0.000000000               0.113116616               0.240727235               0.000000000               0.125560560               0.264297486               0.000000000               0.138004504               0.287867738               0.000000000               0.150448448               0.311437989               0.000000000               0.162892392               0.335008240               0.000000000               0.175336336               0.358578492               0.000000000               0.187780280               0.382148743               0.000000000               0.200224224               0.405718994               0.000000000               0.212668168               0.429289246               0.000000000               0.225112112               0.452859497               0.000000000               0.237556056               0.476429749               0.000000000               0.250000000               0.500000000               0.000000000               0.038607862               0.127273065               0.000000000               0.047913621               0.150568498               0.000000000               0.057219379               0.173863932               0.000000000               0.066525138               0.197159365               0.000000000               0.075830897               0.220454798               0.000000000               0.085136655               0.243750232               0.000000000               0.094442414               0.267045665               0.000000000               0.103748172               0.290341099               0.000000000               0.113053931               0.313636532               0.000000000               0.122359690               0.336931966               0.000000000               0.131665448               0.360227399               0.000000000               0.140971207               0.383522833               0.000000000               0.150276966               0.406818266               0.000000000               0.159582724               0.430113700               0.000000000               0.168888483               0.453409133               0.000000000               0.178194241               0.476704567               0.000000000               0.187500000               0.500000000               0.000000000               0.025947013               0.130444442               0.000000000               0.032137825               0.153541665               0.000000000               0.038328636               0.176638887               0.000000000               0.044519448               0.199736109               0.000000000               0.050710260               0.222833332               0.000000000               0.056901071               0.245930554               0.000000000               0.063091883               0.269027776               0.000000000               0.069282695               0.292124999               0.000000000               0.075473506               0.315222221               0.000000000               0.081664318               0.338319444               0.000000000               0.087855130               0.361416666               0.000000000               0.094045942               0.384513888               0.000000000               0.100236753               0.407611111               0.000000000               0.106427565               0.430708333               0.000000000               0.112618377               0.453805555               0.000000000               0.118809188               0.476902778               0.000000000               0.125000000               0.500000000               0.000000000               0.013036280               0.132359569               0.000000000               0.016127762               0.155337096               0.000000000               0.019219245               0.178314623               0.000000000               0.022310727               0.201292150               0.000000000               0.025402210               0.224269676               0.000000000               0.028493692               0.247247203               0.000000000               0.031585175               0.270224730               0.000000000               0.034676657               0.293202257               0.000000000               0.037768140               0.316179784               0.000000000               0.040859622               0.339157311               0.000000000               0.043951105               0.362134838               0.000000000               0.047042587               0.385112365               0.000000000               0.050134070               0.408089892               0.000000000               0.053225552               0.431067419               0.000000000               0.056317035               0.454044946               0.000000000               0.059408517               0.477022473               0.000000000               0.062500000               0.500000000               0.000000000               0.000000000               0.133000000               0.000000000               0.000000000               0.155937500               0.000000000               0.000000000               0.178875000               0.000000000               0.000000000               0.201812500               0.000000000               0.000000000               0.224750000               0.000000000               0.000000000               0.247687500               0.000000000               0.000000000               0.270625000               0.000000000               0.000000000               0.293562500               0.000000000               0.000000000               0.316500000               0.000000000               0.000000000               0.339437500               0.000000000               0.000000000               0.362375000               0.000000000               0.000000000               0.385312500               0.000000000               0.000000000               0.408250000               0.000000000               0.000000000               0.431187500               0.000000000               0.000000000               0.454125000               0.000000000               0.000000000               0.477062500               0.000000000               0.000000000               0.500000000               0.000000000               0.133000000               0.000000000               0.000000000               0.155937500               0.000000000               0.000000000               0.178875000               0.000000000               0.000000000               0.201812500               0.000000000               0.000000000               0.224750000               0.000000000               0.000000000               0.247687500               0.000000000               0.000000000               0.270625000               0.000000000               0.000000000               0.293562500               0.000000000               0.000000000               0.316500000               0.000000000               0.000000000               0.339437500               0.000000000               0.000000000               0.362375000               0.000000000               0.000000000               0.385312500               0.000000000               0.000000000               0.408250000               0.000000000               0.000000000               0.431187500               0.000000000               0.000000000               0.454125000               0.000000000               0.000000000               0.477062500               0.000000000               0.000000000               0.500000000               0.000000000               0.000000000               0.132359569              -0.013036280               0.000000000               0.155337096              -0.016127762               0.000000000               0.178314623              -0.019219245               0.000000000               0.201292150              -0.022310727               0.000000000               0.224269676              -0.025402210               0.000000000               0.247247203              -0.028493692               0.000000000               0.270224730              -0.031585175               0.000000000               0.293202257              -0.034676657               0.000000000               0.316179784              -0.037768140               0.000000000               0.339157311              -0.040859622               0.000000000               0.362134838              -0.043951105               0.000000000               0.385112365              -0.047042587               0.000000000               0.408089892              -0.050134070               0.000000000               0.431067419              -0.053225552               0.000000000               0.454044946              -0.056317035               0.000000000               0.477022473              -0.059408517               0.000000000               0.500000000              -0.062500000               0.000000000               0.130444442              -0.025947013               0.000000000               0.153541665              -0.032137825               0.000000000               0.176638887              -0.038328636               0.000000000               0.199736109              -0.044519448               0.000000000               0.222833332              -0.050710260               0.000000000               0.245930554              -0.056901071               0.000000000               0.269027776              -0.063091883               0.000000000               0.292124999              -0.069282695               0.000000000               0.315222221              -0.075473506               0.000000000               0.338319444              -0.081664318               0.000000000               0.361416666              -0.087855130               0.000000000               0.384513888              -0.094045942               0.000000000               0.407611111              -0.100236753               0.000000000               0.430708333              -0.106427565               0.000000000               0.453805555              -0.112618377               0.000000000               0.476902778              -0.118809188               0.000000000               0.500000000              -0.125000000               0.000000000               0.127273065              -0.038607862               0.000000000               0.150568498              -0.047913621               0.000000000               0.173863932              -0.057219379               0.000000000               0.197159365              -0.066525138               0.000000000               0.220454798              -0.075830897               0.000000000               0.243750232              -0.085136655               0.000000000               0.267045665              -0.094442414               0.000000000               0.290341099              -0.103748172               0.000000000               0.313636532              -0.113053931               0.000000000               0.336931966              -0.122359690               0.000000000               0.360227399              -0.131665448               0.000000000               0.383522833              -0.140971207               0.000000000               0.406818266              -0.150276966               0.000000000               0.430113700              -0.159582724               0.000000000               0.453409133              -0.168888483               0.000000000               0.476704567              -0.178194241               0.000000000               0.500000000              -0.187500000               0.000000000               0.122875978              -0.050896897               0.000000000               0.146446229              -0.063340840               0.000000000               0.170016481              -0.075784784               0.000000000               0.193586732              -0.088228728               0.000000000               0.217156983              -0.100672672               0.000000000               0.240727235              -0.113116616               0.000000000               0.264297486              -0.125560560               0.000000000               0.287867738              -0.138004504               0.000000000               0.311437989              -0.150448448               0.000000000               0.335008240              -0.162892392               0.000000000               0.358578492              -0.175336336               0.000000000               0.382148743              -0.187780280               0.000000000               0.405718994              -0.200224224               0.000000000               0.429289246              -0.212668168               0.000000000               0.452859497              -0.225112112               0.000000000               0.476429749              -0.237556056               0.000000000               0.500000000              -0.250000000               0.000000000               0.117295528              -0.062695766               0.000000000               0.141214558              -0.078308531               0.000000000               0.165133587              -0.093921295               0.000000000               0.189052617              -0.109534060               0.000000000               0.212971646              -0.125146824               0.000000000               0.236890676              -0.140759589               0.000000000               0.260809705              -0.156372354               0.000000000               0.284728735              -0.171985118               0.000000000               0.308647764              -0.187597883               0.000000000               0.332566794              -0.203210648               0.000000000               0.356485823              -0.218823412               0.000000000               0.380404853              -0.234436177               0.000000000               0.404323882              -0.250048941               0.000000000               0.428242912              -0.265661706               0.000000000               0.452161941              -0.281274471               0.000000000               0.476080971              -0.296887235               0.000000000               0.500000000              -0.312500000               0.000000000               0.110585458              -0.073890841               0.000000000               0.134923867              -0.092710163               0.000000000               0.159262276              -0.111529486               0.000000000               0.183600685              -0.130348808               0.000000000               0.207939094              -0.149168131               0.000000000               0.232277503              -0.167987453               0.000000000               0.256615912              -0.186806776               0.000000000               0.280954320              -0.205626098               0.000000000               0.305292729              -0.224445420               0.000000000               0.329631138              -0.243264743               0.000000000               0.353969547              -0.262084065               0.000000000               0.378307956              -0.280903388               0.000000000               0.402646365              -0.299722710               0.000000000               0.426984773              -0.318542033               0.000000000               0.451323182              -0.337361355               0.000000000               0.475661591              -0.356180678               0.000000000               0.500000000              -0.375000000               0.000000000               0.102810390              -0.084374307               0.000000000               0.127634741              -0.106444663               0.000000000               0.152459092              -0.128515018               0.000000000               0.177283442              -0.150585374               0.000000000               0.202107793              -0.172655730               0.000000000               0.226932143              -0.194726086               0.000000000               0.251756494              -0.216796442               0.000000000               0.276580845              -0.238866798               0.000000000               0.301405195              -0.260937153               0.000000000               0.326229546              -0.283007509               0.000000000               0.351053896              -0.305077865               0.000000000               0.375878247              -0.327148221               0.000000000               0.400702598              -0.349218577               0.000000000               0.425526948              -0.371288933               0.000000000               0.450351299              -0.393359288               0.000000000               0.475175649              -0.415429644               0.000000000               0.500000000              -0.437500000               0.000000000               0.094045202              -0.094045202               0.000000000               0.119417377              -0.119417377               0.000000000               0.144789552              -0.144789552               0.000000000               0.170161727              -0.170161727               0.000000000               0.195533901              -0.195533901               0.000000000               0.220906076              -0.220906076               0.000000000               0.246278251              -0.246278251               0.000000000               0.271650426              -0.271650426               0.000000000               0.297022601              -0.297022601               0.000000000               0.322394776              -0.322394776               0.000000000               0.347766951              -0.347766951               0.000000000               0.373139126              -0.373139126               0.000000000               0.398511300              -0.398511300               0.000000000               0.423883475              -0.423883475               0.000000000               0.449255650              -0.449255650               0.000000000               0.474627825              -0.474627825               0.000000000               0.500000000              -0.500000000               0.000000000               0.084374307              -0.102810390               0.000000000               0.106444663              -0.127634741               0.000000000               0.128515018              -0.152459092               0.000000000               0.150585374              -0.177283442               0.000000000               0.172655730              -0.202107793               0.000000000               0.194726086              -0.226932143               0.000000000               0.216796442              -0.251756494               0.000000000               0.238866798              -0.276580845               0.000000000               0.260937153              -0.301405195               0.000000000               0.283007509              -0.326229546               0.000000000               0.305077865              -0.351053896               0.000000000               0.327148221              -0.375878247               0.000000000               0.349218577              -0.400702598               0.000000000               0.371288933              -0.425526948               0.000000000               0.393359288              -0.450351299               0.000000000               0.415429644              -0.475175649               0.000000000               0.437500000              -0.500000000               0.000000000               0.073890841              -0.110585458               0.000000000               0.092710163              -0.134923867               0.000000000               0.111529486              -0.159262276               0.000000000               0.130348808              -0.183600685               0.000000000               0.149168131              -0.207939094               0.000000000               0.167987453              -0.232277503               0.000000000               0.186806776              -0.256615912               0.000000000               0.205626098              -0.280954320               0.000000000               0.224445420              -0.305292729               0.000000000               0.243264743              -0.329631138               0.000000000               0.262084065              -0.353969547               0.000000000               0.280903388              -0.378307956               0.000000000               0.299722710              -0.402646365               0.000000000               0.318542033              -0.426984773               0.000000000               0.337361355              -0.451323182               0.000000000               0.356180678              -0.475661591               0.000000000               0.375000000              -0.500000000               0.000000000               0.062695766              -0.117295528               0.000000000               0.078308531              -0.141214558               0.000000000               0.093921295              -0.165133587               0.000000000               0.109534060              -0.189052617               0.000000000               0.125146824              -0.212971646               0.000000000               0.140759589              -0.236890676               0.000000000               0.156372354              -0.260809705               0.000000000               0.171985118              -0.284728735               0.000000000               0.187597883              -0.308647764               0.000000000               0.203210648              -0.332566794               0.000000000               0.218823412              -0.356485823               0.000000000               0.234436177              -0.380404853               0.000000000               0.250048941              -0.404323882               0.000000000               0.265661706              -0.428242912               0.000000000               0.281274471              -0.452161941               0.000000000               0.296887235              -0.476080971               0.000000000               0.312500000              -0.500000000               0.000000000               0.050896897              -0.122875978               0.000000000               0.063340840              -0.146446229               0.000000000               0.075784784              -0.170016481               0.000000000               0.088228728              -0.193586732               0.000000000               0.100672672              -0.217156983               0.000000000               0.113116616              -0.240727235               0.000000000               0.125560560              -0.264297486               0.000000000               0.138004504              -0.287867738               0.000000000               0.150448448              -0.311437989               0.000000000               0.162892392              -0.335008240               0.000000000               0.175336336              -0.358578492               0.000000000               0.187780280              -0.382148743               0.000000000               0.200224224              -0.405718994               0.000000000               0.212668168              -0.429289246               0.000000000               0.225112112              -0.452859497               0.000000000               0.237556056              -0.476429749               0.000000000               0.250000000              -0.500000000               0.000000000               0.038607862              -0.127273065               0.000000000               0.047913621              -0.150568498               0.000000000               0.057219379              -0.173863932               0.000000000               0.066525138              -0.197159365               0.000000000               0.075830897              -0.220454798               0.000000000               0.085136655              -0.243750232               0.000000000               0.094442414              -0.267045665               0.000000000               0.103748172              -0.290341099               0.000000000               0.113053931              -0.313636532               0.000000000               0.122359690              -0.336931966               0.000000000               0.131665448              -0.360227399               0.000000000               0.140971207              -0.383522833               0.000000000               0.150276966              -0.406818266               0.000000000               0.159582724              -0.430113700               0.000000000               0.168888483              -0.453409133               0.000000000               0.178194241              -0.476704567               0.000000000               0.187500000              -0.500000000               0.000000000               0.025947013              -0.130444442               0.000000000               0.032137825              -0.153541665               0.000000000               0.038328636              -0.176638887               0.000000000               0.044519448              -0.199736109               0.000000000               0.050710260              -0.222833332               0.000000000               0.056901071              -0.245930554               0.000000000               0.063091883              -0.269027776               0.000000000               0.069282695              -0.292124999               0.000000000               0.075473506              -0.315222221               0.000000000               0.081664318              -0.338319444               0.000000000               0.087855130              -0.361416666               0.000000000               0.094045942              -0.384513888               0.000000000               0.100236753              -0.407611111               0.000000000               0.106427565              -0.430708333               0.000000000               0.112618377              -0.453805555               0.000000000               0.118809188              -0.476902778               0.000000000               0.125000000              -0.500000000               0.000000000               0.013036280              -0.132359569               0.000000000               0.016127762              -0.155337096               0.000000000               0.019219245              -0.178314623               0.000000000               0.022310727              -0.201292150               0.000000000               0.025402210              -0.224269676               0.000000000               0.028493692              -0.247247203               0.000000000               0.031585175              -0.270224730               0.000000000               0.034676657              -0.293202257               0.000000000               0.037768140              -0.316179784               0.000000000               0.040859622              -0.339157311               0.000000000               0.043951105              -0.362134838               0.000000000               0.047042587              -0.385112365               0.000000000               0.050134070              -0.408089892               0.000000000               0.053225552              -0.431067419               0.000000000               0.056317035              -0.454044946               0.000000000               0.059408517              -0.477022473               0.000000000               0.062500000              -0.500000000               0.000000000               0.000000000              -0.133000000               0.000000000               0.000000000              -0.155937500               0.000000000               0.000000000              -0.178875000               0.000000000               0.000000000              -0.201812500               0.000000000               0.000000000              -0.224750000               0.000000000               0.000000000              -0.247687500               0.000000000               0.000000000              -0.270625000               0.000000000               0.000000000              -0.293562500               0.000000000               0.000000000              -0.316500000               0.000000000               0.000000000              -0.339437500               0.000000000               0.000000000              -0.362375000               0.000000000               0.000000000              -0.385312500               0.000000000               0.000000000              -0.408250000               0.000000000               0.000000000              -0.431187500               0.000000000               0.000000000              -0.454125000               0.000000000               0.000000000              -0.477062500               0.000000000               0.000000000              -0.500000000               0.000000000              -0.133000000               0.000000000               0.000000000              -0.155937500               0.000000000               0.000000000              -0.178875000               0.000000000               0.000000000              -0.201812500               0.000000000               0.000000000              -0.224750000               0.000000000               0.000000000              -0.247687500               0.000000000               0.000000000              -0.270625000               0.000000000               0.000000000              -0.293562500               0.000000000               0.000000000              -0.316500000               0.000000000               0.000000000              -0.339437500               0.000000000               0.000000000              -0.362375000               0.000000000               0.000000000              -0.385312500               0.000000000               0.000000000              -0.408250000               0.000000000               0.000000000              -0.431187500               0.000000000               0.000000000              -0.454125000               0.000000000               0.000000000              -0.477062500               0.000000000               0.000000000              -0.500000000               0.000000000               0.000000000              -0.132359569              -0.013036280               0.000000000              -0.155337096              -0.016127762               0.000000000              -0.178314623              -0.019219245               0.000000000              -0.201292150              -0.022310727               0.000000000              -0.224269676              -0.025402210               0.000000000              -0.247247203              -0.028493692               0.000000000              -0.270224730              -0.031585175               0.000000000              -0.293202257              -0.034676657               0.000000000              -0.316179784              -0.037768140               0.000000000              -0.339157311              -0.040859622               0.000000000              -0.362134838              -0.043951105               0.000000000              -0.385112365              -0.047042587               0.000000000              -0.408089892              -0.050134070               0.000000000              -0.431067419              -0.053225552               0.000000000              -0.454044946              -0.056317035               0.000000000              -0.477022473              -0.059408517               0.000000000              -0.500000000              -0.062500000               0.000000000              -0.130444442              -0.025947013               0.000000000              -0.153541665              -0.032137825               0.000000000              -0.176638887              -0.038328636               0.000000000              -0.199736109              -0.044519448               0.000000000              -0.222833332              -0.050710260               0.000000000              -0.245930554              -0.056901071               0.000000000              -0.269027776              -0.063091883               0.000000000              -0.292124999              -0.069282695               0.000000000              -0.315222221              -0.075473506               0.000000000              -0.338319444              -0.081664318               0.000000000              -0.361416666              -0.087855130               0.000000000              -0.384513888              -0.094045942               0.000000000              -0.407611111              -0.100236753               0.000000000              -0.430708333              -0.106427565               0.000000000              -0.453805555              -0.112618377               0.000000000              -0.476902778              -0.118809188               0.000000000              -0.500000000              -0.125000000               0.000000000              -0.127273065              -0.038607862               0.000000000              -0.150568498              -0.047913621               0.000000000              -0.173863932              -0.057219379               0.000000000              -0.197159365              -0.066525138               0.000000000              -0.220454798              -0.075830897               0.000000000              -0.243750232              -0.085136655               0.000000000              -0.267045665              -0.094442414               0.000000000              -0.290341099              -0.103748172               0.000000000              -0.313636532              -0.113053931               0.000000000              -0.336931966              -0.122359690               0.000000000              -0.360227399              -0.131665448               0.000000000              -0.383522833              -0.140971207               0.000000000              -0.406818266              -0.150276966               0.000000000              -0.430113700              -0.159582724               0.000000000              -0.453409133              -0.168888483               0.000000000              -0.476704567              -0.178194241               0.000000000              -0.500000000              -0.187500000               0.000000000              -0.122875978              -0.050896897               0.000000000              -0.146446229              -0.063340840               0.000000000              -0.170016481              -0.075784784               0.000000000              -0.193586732              -0.088228728               0.000000000              -0.217156983              -0.100672672               0.000000000              -0.240727235              -0.113116616               0.000000000              -0.264297486              -0.125560560               0.000000000              -0.287867738              -0.138004504               0.000000000              -0.311437989              -0.150448448               0.000000000              -0.335008240              -0.162892392               0.000000000              -0.358578492              -0.175336336               0.000000000              -0.382148743              -0.187780280               0.000000000              -0.405718994              -0.200224224               0.000000000              -0.429289246              -0.212668168               0.000000000              -0.452859497              -0.225112112               0.000000000              -0.476429749              -0.237556056               0.000000000              -0.500000000              -0.250000000               0.000000000              -0.117295528              -0.062695766               0.000000000              -0.141214558              -0.078308531               0.000000000              -0.165133587              -0.093921295               0.000000000              -0.189052617              -0.109534060               0.000000000              -0.212971646              -0.125146824               0.000000000              -0.236890676              -0.140759589               0.000000000              -0.260809705              -0.156372354               0.000000000              -0.284728735              -0.171985118               0.000000000              -0.308647764              -0.187597883               0.000000000              -0.332566794              -0.203210648               0.000000000              -0.356485823              -0.218823412               0.000000000              -0.380404853              -0.234436177               0.000000000              -0.404323882              -0.250048941               0.000000000              -0.428242912              -0.265661706               0.000000000              -0.452161941              -0.281274471               0.000000000              -0.476080971              -0.296887235               0.000000000              -0.500000000              -0.312500000               0.000000000              -0.110585458              -0.073890841               0.000000000              -0.134923867              -0.092710163               0.000000000              -0.159262276              -0.111529486               0.000000000              -0.183600685              -0.130348808               0.000000000              -0.207939094              -0.149168131               0.000000000              -0.232277503              -0.167987453               0.000000000              -0.256615912              -0.186806776               0.000000000              -0.280954320              -0.205626098               0.000000000              -0.305292729              -0.224445420               0.000000000              -0.329631138              -0.243264743               0.000000000              -0.353969547              -0.262084065               0.000000000              -0.378307956              -0.280903388               0.000000000              -0.402646365              -0.299722710               0.000000000              -0.426984773              -0.318542033               0.000000000              -0.451323182              -0.337361355               0.000000000              -0.475661591              -0.356180678               0.000000000              -0.500000000              -0.375000000               0.000000000              -0.102810390              -0.084374307               0.000000000              -0.127634741              -0.106444663               0.000000000              -0.152459092              -0.128515018               0.000000000              -0.177283442              -0.150585374               0.000000000              -0.202107793              -0.172655730               0.000000000              -0.226932143              -0.194726086               0.000000000              -0.251756494              -0.216796442               0.000000000              -0.276580845              -0.238866798               0.000000000              -0.301405195              -0.260937153               0.000000000              -0.326229546              -0.283007509               0.000000000              -0.351053896              -0.305077865               0.000000000              -0.375878247              -0.327148221               0.000000000              -0.400702598              -0.349218577               0.000000000              -0.425526948              -0.371288933               0.000000000              -0.450351299              -0.393359288               0.000000000              -0.475175649              -0.415429644               0.000000000              -0.500000000              -0.437500000               0.000000000              -0.094045202              -0.094045202               0.000000000              -0.119417377              -0.119417377               0.000000000              -0.144789552              -0.144789552               0.000000000              -0.170161727              -0.170161727               0.000000000              -0.195533901              -0.195533901               0.000000000              -0.220906076              -0.220906076               0.000000000              -0.246278251              -0.246278251               0.000000000              -0.271650426              -0.271650426               0.000000000              -0.297022601              -0.297022601               0.000000000              -0.322394776              -0.322394776               0.000000000              -0.347766951              -0.347766951               0.000000000              -0.373139126              -0.373139126               0.000000000              -0.398511300              -0.398511300               0.000000000              -0.423883475              -0.423883475               0.000000000              -0.449255650              -0.449255650               0.000000000              -0.474627825              -0.474627825               0.000000000              -0.500000000              -0.500000000               0.000000000              -0.084374307              -0.102810390               0.000000000              -0.106444663              -0.127634741               0.000000000              -0.128515018              -0.152459092               0.000000000              -0.150585374              -0.177283442               0.000000000              -0.172655730              -0.202107793               0.000000000              -0.194726086              -0.226932143               0.000000000              -0.216796442              -0.251756494               0.000000000              -0.238866798              -0.276580845               0.000000000              -0.260937153              -0.301405195               0.000000000              -0.283007509              -0.326229546               0.000000000              -0.305077865              -0.351053896               0.000000000              -0.327148221              -0.375878247               0.000000000              -0.349218577              -0.400702598               0.000000000              -0.371288933              -0.425526948               0.000000000              -0.393359288              -0.450351299               0.000000000              -0.415429644              -0.475175649               0.000000000              -0.437500000              -0.500000000               0.000000000              -0.073890841              -0.110585458               0.000000000              -0.092710163              -0.134923867               0.000000000              -0.111529486              -0.159262276               0.000000000              -0.130348808              -0.183600685               0.000000000              -0.149168131              -0.207939094               0.000000000              -0.167987453              -0.232277503               0.000000000              -0.186806776              -0.256615912               0.000000000              -0.205626098              -0.280954320               0.000000000              -0.224445420              -0.305292729               0.000000000              -0.243264743              -0.329631138               0.000000000              -0.262084065              -0.353969547               0.000000000              -0.280903388              -0.378307956               0.000000000              -0.299722710              -0.402646365               0.000000000              -0.318542033              -0.426984773               0.000000000              -0.337361355              -0.451323182               0.000000000              -0.356180678              -0.475661591               0.000000000              -0.375000000              -0.500000000               0.000000000              -0.062695766              -0.117295528               0.000000000              -0.078308531              -0.141214558               0.000000000              -0.093921295              -0.165133587               0.000000000              -0.109534060              -0.189052617               0.000000000              -0.125146824              -0.212971646               0.000000000              -0.140759589              -0.236890676               0.000000000              -0.156372354              -0.260809705               0.000000000              -0.171985118              -0.284728735               0.000000000              -0.187597883              -0.308647764               0.000000000              -0.203210648              -0.332566794               0.000000000              -0.218823412              -0.356485823               0.000000000              -0.234436177              -0.380404853               0.000000000              -0.250048941              -0.404323882               0.000000000              -0.265661706              -0.428242912               0.000000000              -0.281274471              -0.452161941               0.000000000              -0.296887235              -0.476080971               0.000000000              -0.312500000              -0.500000000               0.000000000              -0.050896897              -0.122875978               0.000000000              -0.063340840              -0.146446229               0.000000000              -0.075784784              -0.170016481               0.000000000              -0.088228728              -0.193586732               0.000000000              -0.100672672              -0.217156983               0.000000000              -0.113116616              -0.240727235               0.000000000              -0.125560560              -0.264297486               0.000000000              -0.138004504              -0.287867738               0.000000000              -0.150448448              -0.311437989               0.000000000              -0.162892392              -0.335008240               0.000000000              -0.175336336              -0.358578492               0.000000000              -0.187780280              -0.382148743               0.000000000              -0.200224224              -0.405718994               0.000000000              -0.212668168              -0.429289246               0.000000000              -0.225112112              -0.452859497               0.000000000              -0.237556056              -0.476429749               0.000000000              -0.250000000              -0.500000000               0.000000000              -0.038607862              -0.127273065               0.000000000              -0.047913621              -0.150568498               0.000000000              -0.057219379              -0.173863932               0.000000000              -0.066525138              -0.197159365               0.000000000              -0.075830897              -0.220454798               0.000000000              -0.085136655              -0.243750232               0.000000000              -0.094442414              -0.267045665               0.000000000              -0.103748172              -0.290341099               0.000000000              -0.113053931              -0.313636532               0.000000000              -0.122359690              -0.336931966               0.000000000              -0.131665448              -0.360227399               0.000000000              -0.140971207              -0.383522833               0.000000000              -0.150276966              -0.406818266               0.000000000              -0.159582724              -0.430113700               0.000000000              -0.168888483              -0.453409133               0.000000000              -0.178194241              -0.476704567               0.000000000              -0.187500000              -0.500000000               0.000000000              -0.025947013              -0.130444442               0.000000000              -0.032137825              -0.153541665               0.000000000              -0.038328636              -0.176638887               0.000000000              -0.044519448              -0.199736109               0.000000000              -0.050710260              -0.222833332               0.000000000              -0.056901071              -0.245930554               0.000000000              -0.063091883              -0.269027776               0.000000000              -0.069282695              -0.292124999               0.000000000              -0.075473506              -0.315222221               0.000000000              -0.081664318              -0.338319444               0.000000000              -0.087855130              -0.361416666               0.000000000              -0.094045942              -0.384513888               0.000000000              -0.100236753              -0.407611111               0.000000000              -0.106427565              -0.430708333               0.000000000              -0.112618377              -0.453805555               0.000000000              -0.118809188              -0.476902778               0.000000000              -0.125000000              -0.500000000               0.000000000              -0.013036280              -0.132359569               0.000000000              -0.016127762              -0.155337096               0.000000000              -0.019219245              -0.178314623               0.000000000              -0.022310727              -0.201292150               0.000000000              -0.025402210              -0.224269676               0.000000000              -0.028493692              -0.247247203               0.000000000              -0.031585175              -0.270224730               0.000000000              -0.034676657              -0.293202257               0.000000000              -0.037768140              -0.316179784               0.000000000              -0.040859622              -0.339157311               0.000000000              -0.043951105              -0.362134838               0.000000000              -0.047042587              -0.385112365               0.000000000              -0.050134070              -0.408089892               0.000000000              -0.053225552              -0.431067419               0.000000000              -0.056317035              -0.454044946               0.000000000              -0.059408517              -0.477022473               0.000000000              -0.062500000              -0.500000000               0.000000000               0.000000000              -0.133000000               0.000000000               0.000000000              -0.155937500               0.000000000               0.000000000              -0.178875000               0.000000000               0.000000000              -0.201812500               0.000000000               0.000000000              -0.224750000               0.000000000               0.000000000              -0.247687500               0.000000000               0.000000000              -0.270625000               0.000000000               0.000000000              -0.293562500               0.000000000               0.000000000              -0.316500000               0.000000000               0.000000000              -0.339437500               0.000000000               0.000000000              -0.362375000               0.000000000               0.000000000              -0.385312500               0.000000000               0.000000000              -0.408250000               0.000000000               0.000000000              -0.431187500               0.000000000               0.000000000              -0.454125000               0.000000000               0.000000000              -0.477062500               0.000000000               0.000000000              -0.500000000               0.000000000              -0.133000000               0.000000000               0.000000000              -0.155937500               0.000000000               0.000000000              -0.178875000               0.000000000               0.000000000              -0.201812500               0.000000000               0.000000000              -0.224750000               0.000000000               0.000000000              -0.247687500               0.000000000               0.000000000              -0.270625000               0.000000000               0.000000000              -0.293562500               0.000000000               0.000000000              -0.316500000               0.000000000               0.000000000              -0.339437500               0.000000000               0.000000000              -0.362375000               0.000000000               0.000000000              -0.385312500               0.000000000               0.000000000              -0.408250000               0.000000000               0.000000000              -0.431187500               0.000000000               0.000000000              -0.454125000               0.000000000               0.000000000              -0.477062500               0.000000000               0.000000000              -0.500000000               0.000000000               0.000000000              -0.132359569               0.013036280               0.000000000              -0.155337096               0.016127762               0.000000000              -0.178314623               0.019219245               0.000000000              -0.201292150               0.022310727               0.000000000              -0.224269676               0.025402210               0.000000000              -0.247247203               0.028493692               0.000000000              -0.270224730               0.031585175               0.000000000              -0.293202257               0.034676657               0.000000000              -0.316179784               0.037768140               0.000000000              -0.339157311               0.040859622               0.000000000              -0.362134838               0.043951105               0.000000000              -0.385112365               0.047042587               0.000000000              -0.408089892               0.050134070               0.000000000              -0.431067419               0.053225552               0.000000000              -0.454044946               0.056317035               0.000000000              -0.477022473               0.059408517               0.000000000              -0.500000000               0.062500000               0.000000000              -0.130444442               0.025947013               0.000000000              -0.153541665               0.032137825               0.000000000              -0.176638887               0.038328636               0.000000000              -0.199736109               0.044519448               0.000000000              -0.222833332               0.050710260               0.000000000              -0.245930554               0.056901071               0.000000000              -0.269027776               0.063091883               0.000000000              -0.292124999               0.069282695               0.000000000              -0.315222221               0.075473506               0.000000000              -0.338319444               0.081664318               0.000000000              -0.361416666               0.087855130               0.000000000              -0.384513888               0.094045942               0.000000000              -0.407611111               0.100236753               0.000000000              -0.430708333               0.106427565               0.000000000              -0.453805555               0.112618377               0.000000000              -0.476902778               0.118809188               0.000000000              -0.500000000               0.125000000               0.000000000              -0.127273065               0.038607862               0.000000000              -0.150568498               0.047913621               0.000000000              -0.173863932               0.057219379               0.000000000              -0.197159365               0.066525138               0.000000000              -0.220454798               0.075830897               0.000000000              -0.243750232               0.085136655               0.000000000              -0.267045665               0.094442414               0.000000000              -0.290341099               0.103748172               0.000000000              -0.313636532               0.113053931               0.000000000              -0.336931966               0.122359690               0.000000000              -0.360227399               0.131665448               0.000000000              -0.383522833               0.140971207               0.000000000              -0.406818266               0.150276966               0.000000000              -0.430113700               0.159582724               0.000000000              -0.453409133               0.168888483               0.000000000              -0.476704567               0.178194241               0.000000000              -0.500000000               0.187500000               0.000000000              -0.122875978               0.050896897               0.000000000              -0.146446229               0.063340840               0.000000000              -0.170016481               0.075784784               0.000000000              -0.193586732               0.088228728               0.000000000              -0.217156983               0.100672672               0.000000000              -0.240727235               0.113116616               0.000000000              -0.264297486               0.125560560               0.000000000              -0.287867738               0.138004504               0.000000000              -0.311437989               0.150448448               0.000000000              -0.335008240               0.162892392               0.000000000              -0.358578492               0.175336336               0.000000000              -0.382148743               0.187780280               0.000000000              -0.405718994               0.200224224               0.000000000              -0.429289246               0.212668168               0.000000000              -0.452859497               0.225112112               0.000000000              -0.476429749               0.237556056               0.000000000              -0.500000000               0.250000000               0.000000000              -0.117295528               0.062695766               0.000000000              -0.141214558               0.078308531               0.000000000              -0.165133587               0.093921295               0.000000000              -0.189052617               0.109534060               0.000000000              -0.212971646               0.125146824               0.000000000              -0.236890676               0.140759589               0.000000000              -0.260809705               0.156372354               0.000000000              -0.284728735               0.171985118               0.000000000              -0.308647764               0.187597883               0.000000000              -0.332566794               0.203210648               0.000000000              -0.356485823               0.218823412               0.000000000              -0.380404853               0.234436177               0.000000000              -0.404323882               0.250048941               0.000000000              -0.428242912               0.265661706               0.000000000              -0.452161941               0.281274471               0.000000000              -0.476080971               0.296887235               0.000000000              -0.500000000               0.312500000               0.000000000              -0.110585458               0.073890841               0.000000000              -0.134923867               0.092710163               0.000000000              -0.159262276               0.111529486               0.000000000              -0.183600685               0.130348808               0.000000000              -0.207939094               0.149168131               0.000000000              -0.232277503               0.167987453               0.000000000              -0.256615912               0.186806776               0.000000000              -0.280954320               0.205626098               0.000000000              -0.305292729               0.224445420               0.000000000              -0.329631138               0.243264743               0.000000000              -0.353969547               0.262084065               0.000000000              -0.378307956               0.280903388               0.000000000              -0.402646365               0.299722710               0.000000000              -0.426984773               0.318542033               0.000000000              -0.451323182               0.337361355               0.000000000              -0.475661591               0.356180678               0.000000000              -0.500000000               0.375000000               0.000000000              -0.102810390               0.084374307               0.000000000              -0.127634741               0.106444663               0.000000000              -0.152459092               0.128515018               0.000000000              -0.177283442               0.150585374               0.000000000              -0.202107793               0.172655730               0.000000000              -0.226932143               0.194726086               0.000000000              -0.251756494               0.216796442               0.000000000              -0.276580845               0.238866798               0.000000000              -0.301405195               0.260937153               0.000000000              -0.326229546               0.283007509               0.000000000              -0.351053896               0.305077865               0.000000000              -0.375878247               0.327148221               0.000000000              -0.400702598               0.349218577               0.000000000              -0.425526948               0.371288933               0.000000000              -0.450351299               0.393359288               0.000000000              -0.475175649               0.415429644               0.000000000              -0.500000000               0.437500000               0.000000000              -0.094045202               0.094045202               0.000000000              -0.119417377               0.119417377               0.000000000              -0.144789552               0.144789552               0.000000000              -0.170161727               0.170161727               0.000000000              -0.195533901               0.195533901               0.000000000              -0.220906076               0.220906076               0.000000000              -0.246278251               0.246278251               0.000000000              -0.271650426               0.271650426               0.000000000              -0.297022601               0.297022601               0.000000000              -0.322394776               0.322394776               0.000000000              -0.347766951               0.347766951               0.000000000              -0.373139126               0.373139126               0.000000000              -0.398511300               0.398511300               0.000000000              -0.423883475               0.423883475               0.000000000              -0.449255650               0.449255650               0.000000000              -0.474627825               0.474627825               0.000000000              -0.500000000               0.500000000               0.000000000              -0.084374307               0.102810390               0.000000000              -0.106444663               0.127634741               0.000000000              -0.128515018               0.152459092               0.000000000              -0.150585374               0.177283442               0.000000000              -0.172655730               0.202107793               0.000000000              -0.194726086               0.226932143               0.000000000              -0.216796442               0.251756494               0.000000000              -0.238866798               0.276580845               0.000000000              -0.260937153               0.301405195               0.000000000              -0.283007509               0.326229546               0.000000000              -0.305077865               0.351053896               0.000000000              -0.327148221               0.375878247               0.000000000              -0.349218577               0.400702598               0.000000000              -0.371288933               0.425526948               0.000000000              -0.393359288               0.450351299               0.000000000              -0.415429644               0.475175649               0.000000000              -0.437500000               0.500000000               0.000000000              -0.073890841               0.110585458               0.000000000              -0.092710163               0.134923867               0.000000000              -0.111529486               0.159262276               0.000000000              -0.130348808               0.183600685               0.000000000              -0.149168131               0.207939094               0.000000000              -0.167987453               0.232277503               0.000000000              -0.186806776               0.256615912               0.000000000              -0.205626098               0.280954320               0.000000000              -0.224445420               0.305292729               0.000000000              -0.243264743               0.329631138               0.000000000              -0.262084065               0.353969547               0.000000000              -0.280903388               0.378307956               0.000000000              -0.299722710               0.402646365               0.000000000              -0.318542033               0.426984773               0.000000000              -0.337361355               0.451323182               0.000000000              -0.356180678               0.475661591               0.000000000              -0.375000000               0.500000000               0.000000000              -0.062695766               0.117295528               0.000000000              -0.078308531               0.141214558               0.000000000              -0.093921295               0.165133587               0.000000000              -0.109534060               0.189052617               0.000000000              -0.125146824               0.212971646               0.000000000              -0.140759589               0.236890676               0.000000000              -0.156372354               0.260809705               0.000000000              -0.171985118               0.284728735               0.000000000              -0.187597883               0.308647764               0.000000000              -0.203210648               0.332566794               0.000000000              -0.218823412               0.356485823               0.000000000              -0.234436177               0.380404853               0.000000000              -0.250048941               0.404323882               0.000000000              -0.265661706               0.428242912               0.000000000              -0.281274471               0.452161941               0.000000000              -0.296887235               0.476080971               0.000000000              -0.312500000               0.500000000               0.000000000              -0.050896897               0.122875978               0.000000000              -0.063340840               0.146446229               0.000000000              -0.075784784               0.170016481               0.000000000              -0.088228728               0.193586732               0.000000000              -0.100672672               0.217156983               0.000000000              -0.113116616               0.240727235               0.000000000              -0.125560560               0.264297486               0.000000000              -0.138004504               0.287867738               0.000000000              -0.150448448               0.311437989               0.000000000              -0.162892392               0.335008240               0.000000000              -0.175336336               0.358578492               0.000000000              -0.187780280               0.382148743               0.000000000              -0.200224224               0.405718994               0.000000000              -0.212668168               0.429289246               0.000000000              -0.225112112               0.452859497               0.000000000              -0.237556056               0.476429749               0.000000000              -0.250000000               0.500000000               0.000000000              -0.038607862               0.127273065               0.000000000              -0.047913621               0.150568498               0.000000000              -0.057219379               0.173863932               0.000000000              -0.066525138               0.197159365               0.000000000              -0.075830897               0.220454798               0.000000000              -0.085136655               0.243750232               0.000000000              -0.094442414               0.267045665               0.000000000              -0.103748172               0.290341099               0.000000000              -0.113053931               0.313636532               0.000000000              -0.122359690               0.336931966               0.000000000              -0.131665448               0.360227399               0.000000000              -0.140971207               0.383522833               0.000000000              -0.150276966               0.406818266               0.000000000              -0.159582724               0.430113700               0.000000000              -0.168888483               0.453409133               0.000000000              -0.178194241               0.476704567               0.000000000              -0.187500000               0.500000000               0.000000000              -0.025947013               0.130444442               0.000000000              -0.032137825               0.153541665               0.000000000              -0.038328636               0.176638887               0.000000000              -0.044519448               0.199736109               0.000000000              -0.050710260               0.222833332               0.000000000              -0.056901071               0.245930554               0.000000000              -0.063091883               0.269027776               0.000000000              -0.069282695               0.292124999               0.000000000              -0.075473506               0.315222221               0.000000000              -0.081664318               0.338319444               0.000000000              -0.087855130               0.361416666               0.000000000              -0.094045942               0.384513888               0.000000000              -0.100236753               0.407611111               0.000000000              -0.106427565               0.430708333               0.000000000              -0.112618377               0.453805555               0.000000000              -0.118809188               0.476902778               0.000000000              -0.125000000               0.500000000               0.000000000              -0.013036280               0.132359569               0.000000000              -0.016127762               0.155337096               0.000000000              -0.019219245               0.178314623               0.000000000              -0.022310727               0.201292150               0.000000000              -0.025402210               0.224269676               0.000000000              -0.028493692               0.247247203               0.000000000              -0.031585175               0.270224730               0.000000000              -0.034676657               0.293202257               0.000000000              -0.037768140               0.316179784               0.000000000              -0.040859622               0.339157311               0.000000000              -0.043951105               0.362134838               0.000000000              -0.047042587               0.385112365               0.000000000              -0.050134070               0.408089892               0.000000000              -0.053225552               0.431067419               0.000000000              -0.056317035               0.454044946               0.000000000              -0.059408517               0.477022473               0.000000000              -0.062500000               0.500000000               0.000000000               0.000000000               0.133000000               0.000000000               0.000000000               0.155937500               0.000000000               0.000000000               0.178875000               0.000000000               0.000000000               0.201812500               0.000000000               0.000000000               0.224750000               0.000000000               0.000000000               0.247687500               0.000000000               0.000000000               0.270625000               0.000000000               0.000000000               0.293562500               0.000000000               0.000000000               0.316500000               0.000000000               0.000000000               0.339437500               0.000000000               0.000000000               0.362375000               0.000000000               0.000000000               0.385312500               0.000000000               0.000000000               0.408250000               0.000000000               0.000000000               0.431187500               0.000000000               0.000000000               0.454125000               0.000000000               0.000000000               0.477062500               0.000000000               0.000000000               0.500000000               0.000000000 </DataArray>
</Points>
<Cells>
<DataArray type="Int32"                                    Name="connectivity"                                                      NumberOfComponents=" 1" format="ascii">
         0          1         18         17          1          2         19         18          2          3         20         19          3          4         21         20          4          5         22         21          5          6         23         22          6          7         24         23          7          8         25         24          8          9         26         25          9         10         27         26         10         11         28         27         11         12         29         28         12         13         30         29         13         14         31         30         14         15         32         31         15         16         33         32         17         18         35         34         18         19         36         35         19         20         37         36         20         21         38         37         21         22         39         38         22         23         40         39         23         24         41         40         24         25         42         41         25         26         43         42         26         27         44         43         27         28         45         44         28         29         46         45         29         30         47         46         30         31         48         47         31         32         49         48         32         33         50         49         34         35         52         51         35         36         53         52         36         37         54         53         37         38         55         54         38         39         56         55         39         40         57         56         40         41         58         57         41         42         59         58         42         43         60         59         43         44         61         60         44         45         62         61         45         46         63         62         46         47         64         63         47         48         65         64         48         49         66         65         49         50         67         66         51         52         69         68         52         53         70         69         53         54         71         70         54         55         72         71         55         56         73         72         56         57         74         73         57         58         75         74         58         59         76         75         59         60         77         76         60         61         78         77         61         62         79         78         62         63         80         79         63         64         81         80         64         65         82         81         65         66         83         82         66         67         84         83         68         69         86         85         69         70         87         86         70         71         88         87         71         72         89         88         72         73         90         89         73         74         91         90         74         75         92         91         75         76         93         92         76         77         94         93         77         78         95         94         78         79         96         95         79         80         97         96         80         81         98         97         81         82         99         98         82         83        100         99         83         84        101        100         85         86        103        102         86         87        104        103         87         88        105        104         88         89        106        105         89         90        107        106         90         91        108        107         91         92        109        108         92         93        110        109         93         94        111        110         94         95        112        111         95         96        113        112         96         97        114        113         97         98        115        114         98         99        116        115         99        100        117        116        100        101        118        117        102        103        120        119        103        104        121        120        104        105        122        121        105        106        123        122        106        107        124        123        107        108        125        124        108        109        126        125        109        110        127        126        110        111        128        127        111        112        129        128        112        113        130        129        113        114        131        130        114        115        132        131        115        116        133        132        116        117        134        133        117        118        135        134        119        120        137        136        120        121        138        137        121        122        139        138        122        123        140        139        123        124        141        140        124        125        142        141        125        126        143        142        126        127        144        143        127        128        145        144        128        129        146        145        129        130        147        146        130        131        148        147        131        132        149        148        132        133        150        149        133        134        151        150        134        135        152        151        136        137        154        153        137        138        155        154        138        139        156        155        139        140        157        156        140        141        158        157        141        142        159        158        142        143        160        159        143        144        161        160        144        145        162        161        145        146        163        162        146        147        164        163        147        148        165        164        148        149        166        165        149        150        167        166        150        151        168        167        151        152        169        168        153        154        171        170        154        155        172        171        155        156        173        172        156        157        174        173        157        158        175        174        158        159        176        175        159        160        177        176        160        161        178        177        161        162        179        178        162        163        180        179        163        164        181        180        164        165        182        181        165        166        183        182        166        167        184        183        167        168        185        184        168        169        186        185        170        171        188        187        171        172        189        188        172        173        190        189        173        174        191        190        174        175        192        191        175        176        193        192        176        177        194        193        177        178        195        194        178        179        196        195        179        180        197        196        180        181        198        197        181        182        199        198        182        183        200        199        183        184        201        200        184        185        202        201        185        186        203        202        187        188        205        204        188        189        206        205        189        190        207        206        190        191        208        207        191        192        209        208        192        193        210        209        193        194        211        210        194        195        212        211        195        196        213        212        196        197        214        213        197        198        215        214        198        199        216        215        199        200        217        216        200        201        218        217        201        202        219        218        202        203        220        219        204        205        222        221        205        206        223        222        206        207        224        223        207        208        225        224        208        209        226        225        209        210        227        226        210        211        228        227        211        212        229        228        212        213        230        229        213        214        231        230        214        215        232        231        215        216        233        232        216        217        234        233        217        218        235        234        218        219        236        235        219        220        237        236        221        222        239        238        222        223        240        239        223        224        241        240        224        225        242        241        225        226        243        242        226        227        244        243        227        228        245        244        228        229        246        245        229        230        247        246        230        231        248        247        231        232        249        248        232        233        250        249        233        234        251        250        234        235        252        251        235        236        253        252        236        237        254        253        238        239        256        255        239        240        257        256        240        241        258        257        241        242        259        258        242        243        260        259        243        244        261        260        244        245        262        261        245        246        263        262        246        247        264        263        247        248        265        264        248        249        266        265        249        250        267        266        250        251        268        267        251        252        269        268        252        253        270        269        253        254        271        270        255        256        273        272        256        257        274        273        257        258        275        274        258        259        276        275        259        260        277        276        260        261        278        277        261        262        279        278        262        263        280        279        263        264        281        280        264        265        282        281        265        266        283        282        266        267        284        283        267        268        285        284        268        269        286        285        269        270        287        286        270        271        288        287        306        307          1          0        307        308          2          1        308        309          3          2        309        310          4          3        310        311          5          4        311        312          6          5        312        313          7          6        313        314          8          7        314        315          9          8        315        316         10          9        316        317         11         10        317        318         12         11        318        319         13         12        319        320         14         13        320        321         15         14        321        322         16         15        323        324        307        306        324        325        308        307        325        326        309        308        326        327        310        309        327        328        311        310        328        329        312        311        329        330        313        312        330        331        314        313        331        332        315        314        332        333        316        315        333        334        317        316        334        335        318        317        335        336        319        318        336        337        320        319        337        338        321        320        338        339        322        321        340        341        324        323        341        342        325        324        342        343        326        325        343        344        327        326        344        345        328        327        345        346        329        328        346        347        330        329        347        348        331        330        348        349        332        331        349        350        333        332        350        351        334        333        351        352        335        334        352        353        336        335        353        354        337        336        354        355        338        337        355        356        339        338        357        358        341        340        358        359        342        341        359        360        343        342        360        361        344        343        361        362        345        344        362        363        346        345        363        364        347        346        364        365        348        347        365        366        349        348        366        367        350        349        367        368        351        350        368        369        352        351        369        370        353        352        370        371        354        353        371        372        355        354        372        373        356        355        374        375        358        357        375        376        359        358        376        377        360        359        377        378        361        360        378        379        362        361        379        380        363        362        380        381        364        363        381        382        365        364        382        383        366        365        383        384        367        366        384        385        368        367        385        386        369        368        386        387        370        369        387        388        371        370        388        389        372        371        389        390        373        372        391        392        375        374        392        393        376        375        393        394        377        376        394        395        378        377        395        396        379        378        396        397        380        379        397        398        381        380        398        399        382        381        399        400        383        382        400        401        384        383        401        402        385        384        402        403        386        385        403        404        387        386        404        405        388        387        405        406        389        388        406        407        390        389        408        409        392        391        409        410        393        392        410        411        394        393        411        412        395        394        412        413        396        395        413        414        397        396        414        415        398        397        415        416        399        398        416        417        400        399        417        418        401        400        418        419        402        401        419        420        403        402        420        421        404        403        421        422        405        404        422        423        406        405        423        424        407        406        425        426        409        408        426        427        410        409        427        428        411        410        428        429        412        411        429        430        413        412        430        431        414        413        431        432        415        414        432        433        416        415        433        434        417        416        434        435        418        417        435        436        419        418        436        437        420        419        437        438        421        420        438        439        422        421        439        440        423        422        440        441        424        423        442        443        426        425        443        444        427        426        444        445        428        427        445        446        429        428        446        447        430        429        447        448        431        430        448        449        432        431        449        450        433        432        450        451        434        433        451        452        435        434        452        453        436        435        453        454        437        436        454        455        438        437        455        456        439        438        456        457        440        439        457        458        441        440        459        460        443        442        460        461        444        443        461        462        445        444        462        463        446        445        463        464        447        446        464        465        448        447        465        466        449        448        466        467        450        449        467        468        451        450        468        469        452        451        469        470        453        452        470        471        454        453        471        472        455        454        472        473        456        455        473        474        457        456        474        475        458        457        476        477        460        459        477        478        461        460        478        479        462        461        479        480        463        462        480        481        464        463        481        482        465        464        482        483        466        465        483        484        467        466        484        485        468        467        485        486        469        468        486        487        470        469        487        488        471        470        488        489        472        471        489        490        473        472        490        491        474        473        491        492        475        474        493        494        477        476        494        495        478        477        495        496        479        478        496        497        480        479        497        498        481        480        498        499        482        481        499        500        483        482        500        501        484        483        501        502        485        484        502        503        486        485        503        504        487        486        504        505        488        487        505        506        489        488        506        507        490        489        507        508        491        490        508        509        492        491        510        511        494        493        511        512        495        494        512        513        496        495        513        514        497        496        514        515        498        497        515        516        499        498        516        517        500        499        517        518        501        500        518        519        502        501        519        520        503        502        520        521        504        503        521        522        505        504        522        523        506        505        523        524        507        506        524        525        508        507        525        526        509        508        527        528        511        510        528        529        512        511        529        530        513        512        530        531        514        513        531        532        515        514        532        533        516        515        533        534        517        516        534        535        518        517        535        536        519        518        536        537        520        519        537        538        521        520        538        539        522        521        539        540        523        522        540        541        524        523        541        542        525        524        542        543        526        525        544        545        528        527        545        546        529        528        546        547        530        529        547        548        531        530        548        549        532        531        549        550        533        532        550        551        534        533        551        552        535        534        552        553        536        535        553        554        537        536        554        555        538        537        555        556        539        538        556        557        540        539        557        558        541        540        558        559        542        541        559        560        543        542        561        562        545        544        562        563        546        545        563        564        547        546        564        565        548        547        565        566        549        548        566        567        550        549        567        568        551        550        568        569        552        551        569        570        553        552        570        571        554        553        571        572        555        554        572        573        556        555        573        574        557        556        574        575        558        557        575        576        559        558        576        577        560        559        578        579        596        595        579        580        597        596        580        581        598        597        581        582        599        598        582        583        600        599        583        584        601        600        584        585        602        601        585        586        603        602        586        587        604        603        587        588        605        604        588        589        606        605        589        590        607        606        590        591        608        607        591        592        609        608        592        593        610        609        593        594        611        610        595        596        613        612        596        597        614        613        597        598        615        614        598        599        616        615        599        600        617        616        600        601        618        617        601        602        619        618        602        603        620        619        603        604        621        620        604        605        622        621        605        606        623        622        606        607        624        623        607        608        625        624        608        609        626        625        609        610        627        626        610        611        628        627        612        613        630        629        613        614        631        630        614        615        632        631        615        616        633        632        616        617        634        633        617        618        635        634        618        619        636        635        619        620        637        636        620        621        638        637        621        622        639        638        622        623        640        639        623        624        641        640        624        625        642        641        625        626        643        642        626        627        644        643        627        628        645        644        629        630        647        646        630        631        648        647        631        632        649        648        632        633        650        649        633        634        651        650        634        635        652        651        635        636        653        652        636        637        654        653        637        638        655        654        638        639        656        655        639        640        657        656        640        641        658        657        641        642        659        658        642        643        660        659        643        644        661        660        644        645        662        661        646        647        664        663        647        648        665        664        648        649        666        665        649        650        667        666        650        651        668        667        651        652        669        668        652        653        670        669        653        654        671        670        654        655        672        671        655        656        673        672        656        657        674        673        657        658        675        674        658        659        676        675        659        660        677        676        660        661        678        677        661        662        679        678        663        664        681        680        664        665        682        681        665        666        683        682        666        667        684        683        667        668        685        684        668        669        686        685        669        670        687        686        670        671        688        687        671        672        689        688        672        673        690        689        673        674        691        690        674        675        692        691        675        676        693        692        676        677        694        693        677        678        695        694        678        679        696        695        680        681        698        697        681        682        699        698        682        683        700        699        683        684        701        700        684        685        702        701        685        686        703        702        686        687        704        703        687        688        705        704        688        689        706        705        689        690        707        706        690        691        708        707        691        692        709        708        692        693        710        709        693        694        711        710        694        695        712        711        695        696        713        712        697        698        715        714        698        699        716        715        699        700        717        716        700        701        718        717        701        702        719        718        702        703        720        719        703        704        721        720        704        705        722        721        705        706        723        722        706        707        724        723        707        708        725        724        708        709        726        725        709        710        727        726        710        711        728        727        711        712        729        728        712        713        730        729        714        715        732        731        715        716        733        732        716        717        734        733        717        718        735        734        718        719        736        735        719        720        737        736        720        721        738        737        721        722        739        738        722        723        740        739        723        724        741        740        724        725        742        741        725        726        743        742        726        727        744        743        727        728        745        744        728        729        746        745        729        730        747        746        731        732        749        748        732        733        750        749        733        734        751        750        734        735        752        751        735        736        753        752        736        737        754        753        737        738        755        754        738        739        756        755        739        740        757        756        740        741        758        757        741        742        759        758        742        743        760        759        743        744        761        760        744        745        762        761        745        746        763        762        746        747        764        763        748        749        766        765        749        750        767        766        750        751        768        767        751        752        769        768        752        753        770        769        753        754        771        770        754        755        772        771        755        756        773        772        756        757        774        773        757        758        775        774        758        759        776        775        759        760        777        776        760        761        778        777        761        762        779        778        762        763        780        779        763        764        781        780        765        766        783        782        766        767        784        783        767        768        785        784        768        769        786        785        769        770        787        786        770        771        788        787        771        772        789        788        772        773        790        789        773        774        791        790        774        775        792        791        775        776        793        792        776        777        794        793        777        778        795        794        778        779        796        795        779        780        797        796        780        781        798        797        782        783        800        799        783        784        801        800        784        785        802        801        785        786        803        802        786        787        804        803        787        788        805        804        788        789        806        805        789        790        807        806        790        791        808        807        791        792        809        808        792        793        810        809        793        794        811        810        794        795        812        811        795        796        813        812        796        797        814        813        797        798        815        814        799        800        817        816        800        801        818        817        801        802        819        818        802        803        820        819        803        804        821        820        804        805        822        821        805        806        823        822        806        807        824        823        807        808        825        824        808        809        826        825        809        810        827        826        810        811        828        827        811        812        829        828        812        813        830        829        813        814        831        830        814        815        832        831        816        817        834        833        817        818        835        834        818        819        836        835        819        820        837        836        820        821        838        837        821        822        839        838        822        823        840        839        823        824        841        840        824        825        842        841        825        826        843        842        826        827        844        843        827        828        845        844        828        829        846        845        829        830        847        846        830        831        848        847        831        832        849        848        833        834        562        561        834        835        563        562        835        836        564        563        836        837        565        564        837        838        566        565        838        839        567        566        839        840        568        567        840        841        569        568        841        842        570        569        842        843        571        570        843        844        572        571        844        845        573        572        845        846        574        573        846        847        575        574        847        848        576        575        848        849        577        576        884        885        579        578        885        886        580        579        886        887        581        580        887        888        582        581        888        889        583        582        889        890        584        583        890        891        585        584        891        892        586        585        892        893        587        586        893        894        588        587        894        895        589        588        895        896        590        589        896        897        591        590        897        898        592        591        898        899        593        592        899        900        594        593        901        902        885        884        902        903        886        885        903        904        887        886        904        905        888        887        905        906        889        888        906        907        890        889        907        908        891        890        908        909        892        891        909        910        893        892        910        911        894        893        911        912        895        894        912        913        896        895        913        914        897        896        914        915        898        897        915        916        899        898        916        917        900        899        918        919        902        901        919        920        903        902        920        921        904        903        921        922        905        904        922        923        906        905        923        924        907        906        924        925        908        907        925        926        909        908        926        927        910        909        927        928        911        910        928        929        912        911        929        930        913        912        930        931        914        913        931        932        915        914        932        933        916        915        933        934        917        916        935        936        919        918        936        937        920        919        937        938        921        920        938        939        922        921        939        940        923        922        940        941        924        923        941        942        925        924        942        943        926        925        943        944        927        926        944        945        928        927        945        946        929        928        946        947        930        929        947        948        931        930        948        949        932        931        949        950        933        932        950        951        934        933        952        953        936        935        953        954        937        936        954        955        938        937        955        956        939        938        956        957        940        939        957        958        941        940        958        959        942        941        959        960        943        942        960        961        944        943        961        962        945        944        962        963        946        945        963        964        947        946        964        965        948        947        965        966        949        948        966        967        950        949        967        968        951        950        969        970        953        952        970        971        954        953        971        972        955        954        972        973        956        955        973        974        957        956        974        975        958        957        975        976        959        958        976        977        960        959        977        978        961        960        978        979        962        961        979        980        963        962        980        981        964        963        981        982        965        964        982        983        966        965        983        984        967        966        984        985        968        967        986        987        970        969        987        988        971        970        988        989        972        971        989        990        973        972        990        991        974        973        991        992        975        974        992        993        976        975        993        994        977        976        994        995        978        977        995        996        979        978        996        997        980        979        997        998        981        980        998        999        982        981        999       1000        983        982       1000       1001        984        983       1001       1002        985        984       1003       1004        987        986       1004       1005        988        987       1005       1006        989        988       1006       1007        990        989       1007       1008        991        990       1008       1009        992        991       1009       1010        993        992       1010       1011        994        993       1011       1012        995        994       1012       1013        996        995       1013       1014        997        996       1014       1015        998        997       1015       1016        999        998       1016       1017       1000        999       1017       1018       1001       1000       1018       1019       1002       1001       1020       1021       1004       1003       1021       1022       1005       1004       1022       1023       1006       1005       1023       1024       1007       1006       1024       1025       1008       1007       1025       1026       1009       1008       1026       1027       1010       1009       1027       1028       1011       1010       1028       1029       1012       1011       1029       1030       1013       1012       1030       1031       1014       1013       1031       1032       1015       1014       1032       1033       1016       1015       1033       1034       1017       1016       1034       1035       1018       1017       1035       1036       1019       1018       1037       1038       1021       1020       1038       1039       1022       1021       1039       1040       1023       1022       1040       1041       1024       1023       1041       1042       1025       1024       1042       1043       1026       1025       1043       1044       1027       1026       1044       1045       1028       1027       1045       1046       1029       1028       1046       1047       1030       1029       1047       1048       1031       1030       1048       1049       1032       1031       1049       1050       1033       1032       1050       1051       1034       1033       1051       1052       1035       1034       1052       1053       1036       1035       1054       1055       1038       1037       1055       1056       1039       1038       1056       1057       1040       1039       1057       1058       1041       1040       1058       1059       1042       1041       1059       1060       1043       1042       1060       1061       1044       1043       1061       1062       1045       1044       1062       1063       1046       1045       1063       1064       1047       1046       1064       1065       1048       1047       1065       1066       1049       1048       1066       1067       1050       1049       1067       1068       1051       1050       1068       1069       1052       1051       1069       1070       1053       1052       1071       1072       1055       1054       1072       1073       1056       1055       1073       1074       1057       1056       1074       1075       1058       1057       1075       1076       1059       1058       1076       1077       1060       1059       1077       1078       1061       1060       1078       1079       1062       1061       1079       1080       1063       1062       1080       1081       1064       1063       1081       1082       1065       1064       1082       1083       1066       1065       1083       1084       1067       1066       1084       1085       1068       1067       1085       1086       1069       1068       1086       1087       1070       1069       1088       1089       1072       1071       1089       1090       1073       1072       1090       1091       1074       1073       1091       1092       1075       1074       1092       1093       1076       1075       1093       1094       1077       1076       1094       1095       1078       1077       1095       1096       1079       1078       1096       1097       1080       1079       1097       1098       1081       1080       1098       1099       1082       1081       1099       1100       1083       1082       1100       1101       1084       1083       1101       1102       1085       1084       1102       1103       1086       1085       1103       1104       1087       1086       1105       1106       1089       1088       1106       1107       1090       1089       1107       1108       1091       1090       1108       1109       1092       1091       1109       1110       1093       1092       1110       1111       1094       1093       1111       1112       1095       1094       1112       1113       1096       1095       1113       1114       1097       1096       1114       1115       1098       1097       1115       1116       1099       1098       1116       1117       1100       1099       1117       1118       1101       1100       1118       1119       1102       1101       1119       1120       1103       1102       1120       1121       1104       1103       1122       1123       1106       1105       1123       1124       1107       1106       1124       1125       1108       1107       1125       1126       1109       1108       1126       1127       1110       1109       1127       1128       1111       1110       1128       1129       1112       1111       1129       1130       1113       1112       1130       1131       1114       1113       1131       1132       1115       1114       1132       1133       1116       1115       1133       1134       1117       1116       1134       1135       1118       1117       1135       1136       1119       1118       1136       1137       1120       1119       1137       1138       1121       1120        272        273       1123       1122        273        274       1124       1123        274        275       1125       1124        275        276       1126       1125        276        277       1127       1126        277        278       1128       1127        278        279       1129       1128        279        280       1130       1129        280        281       1131       1130        281        282       1132       1131        282        283       1133       1132        283        284       1134       1133        284        285       1135       1134        285        286       1136       1135        286        287       1137       1136        287        288       1138       1137 </DataArray>
<DataArray type="Int32"                                    Name="offsets"                                                      NumberOfComponents=" 1" format="ascii">
         4          8         12         16         20         24         28         32         36         40         44         48         52         56         60         64         68         72         76         80         84         88         92         96        100        104        108        112        116        120        124        128        132        136        140        144        148        152        156        160        164        168        172        176        180        184        188        192        196        200        204        208        212        216        220        224        228        232        236        240        244        248        252        256        260        264        268        272        276        280        284        288        292        296        300        304        308        312        316        320        324        328        332        336        340        344        348        352        356        360        364        368        372        376        380        384        388        392        396        400        404        408        412        416        420        424        428        432        436        440        444        448        452        456        460        464        468        472        476        480        484        488        492        496        500        504        508        512        516        520        524        528        532        536        540        544        548        552        556        560        564        568        572        576        580        584        588        592        596        600        604        608        612        616        620        624        628        632        636        640        644        648        652        656        660        664        668        672        676        680        684        688        692        696        700        704        708        712        716        720        724        728        732        736        740        744        748        752        756        760        764        768        772        776        780        784        788        792        796        800        804        808        812        816        820        824        828        832        836        840        844        848        852        856        860        864        868        872        876        880        884        888        892        896        900        904        908        912        916        920        924        928        932        936        940        944        948        952        956        960        964        968        972        976        980        984        988        992        996       1000       1004       1008       1012       1016       1020       1024       1028       1032       1036       1040       1044       1048       1052       1056       1060       1064       1068       1072       1076       1080       1084       1088       1092       1096       1100       1104       1108       1112       1116       1120       1124       1128       1132       1136       1140       1144       1148       1152       1156       1160       1164       1168       1172       1176       1180       1184       1188       1192       1196       1200       1204       1208       1212       1216       1220       1224       1228       1232       1236       1240       1244       1248       1252       1256       1260       1264       1268       1272       1276       1280       1284       1288       1292       1296       1300       1304       1308       1312       1316       1320       1324       1328       1332       1336       1340       1344       1348       1352       1356       1360       1364       1368       1372       1376       1380       1384       1388       1392       1396       1400       1404       1408       1412       1416       1420       1424       1428       1432       1436       1440       1444       1448       1452       1456       1460       1464       1468       1472       1476       1480       1484       1488       1492       1496       1500       1504       1508       1512       1516       1520       1524       1528       1532       1536       1540       1544       1548       1552       1556       1560       1564       1568       1572       1576       1580       1584       1588       1592       1596       1600       1604       1608       1612       1616       1620       1624       1628       1632       1636       1640       1644       1648       1652       1656       1660       1664       1668       1672       1676       1680       1684       1688       1692       1696       1700       1704       1708       1712       1716       1720       1724       1728       1732       1736       1740       1744       1748       1752       1756       1760       1764       1768       1772       1776       1780       1784       1788       1792       1796       1800       1804       1808       1812       1816       1820       1824       1828       1832       1836       1840       1844       1848       1852       1856       1860       1864       1868       1872       1876       1880       1884       1888       1892       1896       1900       1904       1908       1912       1916       1920       1924       1928       1932       1936       1940       1944       1948       1952       1956       1960       1964       1968       1972       1976       1980       1984       1988       1992       1996       2000       2004       2008       2012       2016       2020       2024       2028       2032       2036       2040       2044       2048       2052       2056       2060       2064       2068       2072       2076       2080       2084       2088       2092       2096       2100       2104       2108       2112       2116       2120       2124       2128       2132       2136       2140       2144       2148       2152       2156       2160       2164       2168       2172       2176       2180       2184       2188       2192       2196       2200       2204       2208       2212       2216       2220       2224       2228       2232       2236       2240       2244       2248       2252       2256       2260       2264       2268       2272       2276       2280       2284       2288       2292       2296       2300       2304       2308       2312       2316       2320       2324       2328       2332       2336       2340       2344       2348       2352       2356       2360       2364       2368       2372       2376       2380       2384       2388       2392       2396       2400       2404       2408       2412       2416       2420       2424       2428       2432       2436       2440       2444       2448       2452       2456       2460       2464       2468       2472       2476       2480       2484       2488       2492       2496       2500       2504       2508       2512       2516       2520       2524       2528       2532       2536       2540       2544       2548       2552       2556       2560       2564       2568       2572       2576       2580       2584       2588       2592       2596       2600       2604       2608       2612       2616       2620       2624       2628       2632       2636       2640       2644       2648       2652       2656       2660       2664       2668       2672       2676       2680       2684       2688       2692       2696       2700       2704       2708       2712       2716       2720       2724       2728       2732       2736       2740       2744       2748       2752       2756       2760       2764       2768       2772       2776       2780       2784       2788       2792       2796       2800       2804       2808       2812       2816       2820       2824       2828       2832       2836       2840       2844       2848       2852       2856       2860       2864       2868       2872       2876       2880       2884       2888       2892       2896       2900       2904       2908       2912       2916       2920       2924       2928       2932       2936       2940       2944       2948       2952       2956       2960       2964       2968       2972       2976       2980       2984       2988       2992       2996       3000       3004       3008       3012       3016       3020       3024       3028       3032       3036       3040       3044       3048       3052       3056       3060       3064       3068       3072       3076       3080       3084       3088       3092       3096       3100       3104       3108       3112       3116       3120       3124       3128       3132       3136       3140       3144       3148       3152       3156       3160       3164       3168       3172       3176       3180       3184       3188       3192       3196       3200       3204       3208       3212       3216       3220       3224       3228       3232       3236       3240       3244       3248       3252       3256       3260       3264       3268       3272       3276       3280       3284       3288       3292       3296       3300       3304       3308       3312       3316       3320       3324       3328       3332       3336       3340       3344       3348       3352       3356       3360       3364       3368       3372       3376       3380       3384       3388       3392       3396       3400       3404       3408       3412       3416       3420       3424       3428       3432       3436       3440       3444       3448       3452       3456       3460       3464       3468       3472       3476       3480       3484       3488       3492       3496       3500       3504       3508       3512       3516       3520       3524       3528       3532       3536       3540       3544       3548       3552       3556       3560       3564       3568       3572       3576       3580       3584       3588       3592       3596       3600       3604       3608       3612       3616       3620       3624       3628       3632       3636       3640       3644       3648       3652       3656       3660       3664       3668       3672       3676       3680       3684       3688       3692       3696       3700       3704       3708       3712       3716       3720       3724       3728       3732       3736       3740       3744       3748       3752       3756       3760       3764       3768       3772       3776       3780       3784       3788       3792       3796       3800       3804       3808       3812       3816       3820       3824       3828       3832       3836       3840       3844       3848       3852       3856       3860       3864       3868       3872       3876       3880       3884       3888       3892       3896       3900       3904       3908       3912       3916       3920       3924       3928       3932       3936       3940       3944       3948       3952       3956       3960       3964       3968       3972       3976       3980       3984       3988       3992       3996       4000       4004       4008       4012       4016       4020       4024       4028       4032       4036       4040       4044       4048       4052       4056       4060       4064       4068       4072       4076       4080       4084       4088       4092       4096 </DataArray>
<DataArray type="UInt8"                                    Name="types"                                                      NumberOfComponents=" 1" format="ascii">
         9          9          9          9          9          9          9          9          9          9          9          9          9          9          9          9          9          9          9          9          9          9          9          9          9          9          9          9          9          9          9          9          9          9          9          9          9          9          9          9          9          9          9          9          9          9          9          9          9          9          9          9          9          9          9          9          9          9          9          9          9          9          9          9          9          9          9          9          9          9          9          9          9          9          9          9          9          9          9          9          9          9          9          9          9          9          9          9          9          9          9          9          9          9          9          9          9          9          9          9          9          9          9          9          9          9          9          9          9          9          9          9          9          9          9          9          9          9          9          9          9          9          9          9          9          9          9          9          9          9          9          9          9          9          9          9          9          9          9          9          9          9          9          9          9          9          9          9          9          9          9          9          9          9          9          9          9          9          9          9          9          9          9          9          9          9          9          9          9          9          9          9          9          9          9          9          9          9          9          9          9          9          9          9          9          9          9          9          9          9          9          9          9          9          9          9          9          9          9          9          9          9          9          9          9          9          9          9          9          9          9          9          9          9          9          9          9          9          9          9          9          9          9          9          9          9          9          9          9          9          9          9          9          9          9          9          9          9          9          9          9          9          9          9          9          9          9          9          9          9          9          9          9          9          9          9          9          9          9          9          9          9          9          9          9          9          9          9          9          9          9          9          9          9          9          9          9          9          9          9          9          9          9          9          9          9          9          9          9          9          9          9          9          9          9          9          9          9          9          9          9          9          9          9          9          9          9          9          9          9          9          9          9          9          9          9          9          9          9          9          9          9          9          9          9          9          9          9          9          9          9          9          9          9          9          9          9          9          9          9          9          9          9          9          9          9          9          9          9          9          9          9          9          9          9          9          9          9          9          9          9          9          9          9          9          9          9          9          9          9          9          9          9          9          9          9          9          9          9          9          9          9          9          9          9          9          9          9          9          9          9          9          9          9          9          9          9          9          9          9          9          9          9          9          9          9          9          9          9          9          9          9          9          9          9          9          9          9          9          9          9          9          9          9          9          9          9          9          9          9          9          9          9          9          9          9          9          9          9          9          9          9          9          9          9          9          9          9          9          9          9          9          9          9          9          9          9          9          9          9          9          9          9          9          9          9          9          9          9          9          9          9          9          9          9          9          9          9          9          9          9          9          9          9          9          9          9          9          9          9          9          9          9          9          9          9          9          9          9          9          9          9          9          9          9          9          9          9          9          9          9          9          9          9          9          9          9          9          9          9          9          9          9          9          9          9          9          9          9          9          9          9          9          9          9          9          9          9          9          9          9          9          9          9          9          9          9          9          9          9          9          9          9          9          9          9          9          9          9          9          9          9          9          9          9          9          9          9          9          9          9          9          9          9          9          9          9          9          9          9          9          9          9          9          9          9          9          9          9          9          9          9          9          9          9          9          9          9          9          9          9          9          9          9          9          9          9          9          9          9          9          9          9          9          9          9          9          9          9          9          9          9          9          9          9          9          9          9          9          9          9          9          9          9          9          9          9          9          9          9          9          9          9          9          9          9          9          9          9          9          9          9          9          9          9          9          9          9          9          9          9          9          9          9          9          9          9          9          9          9          9          9          9          9          9          9          9          9          9          9          9          9          9          9          9          9          9          9          9          9          9          9          9          9          9          9          9          9          9          9          9          9          9          9          9          9          9          9          9          9          9          9          9          9          9          9          9          9          9          9          9          9          9          9          9          9          9          9          9          9          9          9          9          9          9          9          9          9          9          9          9          9          9          9          9          9          9          9          9          9          9          9          9          9          9          9          9          9          9          9          9          9          9          9          9          9          9          9          9          9          9          9          9          9          9          9          9          9          9          9          9          9          9          9          9          9          9          9          9          9          9          9          9          9          9          9          9          9          9          9          9          9          9          9          9          9          9          9          9          9          9          9          9          9          9          9          9          9          9          9          9          9          9          9          9          9          9          9          9          9          9          9          9          9          9          9          9          9          9          9          9          9          9          9          9          9          9          9          9          9          9          9          9          9          9          9          9          9          9          9          9          9          9          9          9          9          9          9          9          9          9          9          9          9          9          9          9          9          9          9          9          9          9          9          9          9          9          9          9          9          9          9          9          9          9          9          9          9          9          9          9          9          9          9          9          9          9          9          9          9          9          9          9          9          9          9          9          9          9          9          9          9          9          9          9          9          9          9          9          9          9          9          9          9          9          9          9          9          9          9          9          9          9          9          9          9          9          9          9          9          9          9          9          9          9          9          9          9          9          9          9          9          9          9          9          9          9          9          9          9          9          9          9          9          9          9          9          9          9          9          9          9          9          9          9          9          9          9          9          9          9          9          9          9          9          9          9          9          9          9          9          9          9          9          9          9          9          9          9          9          9          9          9          9          9          9          9          9          9          9          9          9          9          9 </DataArray>
</Cells>
<CellData>
<DataArray type="Int32"                                    Name="material"                                                      NumberOfComponents=" 1" format="ascii">
         1          1          1          1          1          1          1          1          1          1          1          1          1          1          1          1          1          1          1          1          1          1          1          1          1          1          1          1          1          1          1          1          1          1          1          1          1          1          1          1          1          1          1          1          1          1          1          1          1          1          1          1          1          1          1          1          1          1          1          1          1          1          1          1          1          1          1          1          1          1          1          1          1          1          1          1          1          1          1          1          1          1          1          1          1          1          1          1          1          1          1          1          1          1          1          1          1          1          1          1          1          1          1          1          1          1          1          1          1          1          1          1          1          1          1          1          1          1          1          1          1          1          1          1          1          1          1          1          1          1          1          1          1          1          1          1          1          1          1          1          1          1          1          1          1          1          1          1          1          1          1          1          1          1          1          1          1          1          1          1          1          1          1          1          1          1          1          1          1          1          1          1          1          1          1          1          1          1          1          1          1          1          1          1          1          1          1          1          1          1          1          1          1          1          1          1          1          1          1          1          1          1          1          1          1          1          1          1          1          1          1          1          1          1          1          1          1          1          1          1          1          1          1          1          1          1          1          1          1          1          1          1          1          1          1          1          1          1          1          1          1          1          1          1          1          1          1          1          1          1          1          1          1          1          1          1          1          1          1          1          1          1          1          1          1          1          1          1          1          1          1          1          1          1          1          1          1          1          1          1          1          1          1          1          1          1          1          1          1          1          1          1          1          1          1          1          1          1          1          1          1          1          1          1          1          1          1          1          1          1          1          1          1          1          1          1          1          1          1          1          1          1          1          1          1          1          1          1          1          1          1          1          1          1          1          1          1          1          1          1          1          1          1          1          1          1          1          1          1          1          1          1          1          1          1          1          1          1          1          1          1          1          1          1          1          1          1          1          1          1          1          1          1          1          1          1          1          1          1          1          1          1          1          1          1          1          1          1          1          1          1          1          1          1          1          1          1          1          1          1          1          1          1          1          1          1          1          1          1          1          1          1          1          1          1          1          1          1          1          1          1          1          1          1          1          1          1          1          1          1          1          1          1          1          1          1          1          1          1          1          1          1          1          1          1          1          1          1          1          1          1          1          1          1          1          1          1          1          1          1          1          1          1          1          1          1          1          1          1          1          1          1          1          1          1          1          1          1          1          1          1          1          1          1          1          1          1          1          1          1          1          1          1          1          1          1          1          1          1          1          1          1          1          1          1          1          1          1          1          1          1          1          1          1          1          1          1          1          1          1          1          1          1          1          1          1          1          1          1          1          1          1          1          1          1          1          1          1          1          1          1          1          1          1          1          1          1          1          1          1          1          1          1          1          1          1          1          1          1          1          1          1          1          1          1          1          1          1          1          1          1          1          1          1          1          1          1          1          1          1          1          1          1          1          1          1          1          1          1          1          1          1          1          1          1          1          1          1          1          1          1          1          1          1          1          1          1          1          1          1          1          1          1          1          1          1          1          1          1          1          1          1          1          1          1          1          1          1          1          1          1          1          1          1          1          1          1          1          1          1          1          1          1          1          1          1          1          1          1          1          1          1          1          1          1          1          1          1          1          1          1          1          1          1          1          1          1          1          1          1          1          1          1          1          1          1          1          1          1          1          1          1          1          1          1          1          1          1          1          1          1          1          1          1          1          1          1          1          1          1          1          1          1          1          1          1          1          1          1          1          1          1          1          1          1          1          1          1          1          1          1          1          1          1          1          1          1          1          1          1          1          1          1          1          1          1          1          1          1          1          1          1          1          1          1          1          1          1          1          1          1          1          1          1          1          1          1          1          1          1          1          1          1          1          1          1          1          1          1          1          1          1          1          1          1          1          1          1          1          1          1          1          1          1          1          1          1          1          1          1          1          1          1          1          1          1          1          1          1          1          1          1          1          1          1          1          1          1          1          1          1          1          1          1          1          1          1          1          1          1          1          1          1          1          1          1          1          1          1          1          1          1          1          1          1          1          1          1          1          1          1          1          1          1          1          1          1          1          1          1          1          1          1          1          1          1          1          1          1          1          1          1          1          1          1          1          1          1          1          1          1          1          1          1          1          1          1          1          1          1          1          1          1          1          1          1          1          1          1          1          1          1          1          1          1          1          1          1          1          1          1          1          1          1          1          1          1          1          1          1          1          1          1          1          1          1          1          1          1          1          1          1          1          1          1          1          1          1          1          1          1          1          1          1          1          1          1          1          1          1          1          1          1          1          1          1          1          1          1          1          1          1          1          1          1          1          1          1          1          1          1          1          1          1          1          1          1          1          1          1          1          1          1          1          1          1          1          1          1          1          1          1          1          1          1          1          1          1          1          1          1          1          1          1          1          1          1          1          1          1          1          1          1          1          1          1          1          1          1          1          1          1          1          1          1          1          1          1          1          1          1          1          1          1 </DataArray>
</CellData>
<PointData>
<DataArray type="Float64"                                    Name="u"                                                      NumberOfComponents=" 3" format="ascii">
             -0.000404414              -0.000000000               0.999999985              -0.000444823               0.000000000               0.999999985              -0.000463364               0.000000000               0.999999985              -0.000474358               0.000000000               0.999999985              -0.000483286               0.000000000               0.999999985              -0.000492350               0.000000000               0.999999985              -0.000502202               0.000000000               0.999999985              -0.000513032               0.000000000               0.999999985              -0.000524817               0.000000000               0.999999985              -0.000537461              -0.000000000               0.999999985              -0.000551038              -0.000000000               0.999999985              -0.000565384              -0.000000000               0.999999985              -0.000580305              -0.000000000               0.999999985              -0.000595574              -0.000000000               0.999999985              -0.000610905              -0.000000000               0.999999985              -0.000625992               0.000000000               0.999999985              -0.000640298               0.000000000               0.999999985              -0.000402055               0.000102813               0.999999985              -0.000439833               0.000086052               0.999999985              -0.000456740               0.000079585               0.999999985              -0.000466794               0.000078546               0.999999985              -0.000475147               0.000080358               0.999999985              -0.000483757               0.000083808               0.999999985              -0.000493290               0.000087952               0.999999985              -0.000503907               0.000092332               0.999999985              -0.000515488               0.000096914               0.999999985              -0.000527955               0.000101525               0.999999985              -0.000541228               0.000105971               0.999999985              -0.000555139               0.000109898               0.999999985              -0.000569524               0.000113102               0.999999985              -0.000584062               0.000115367               0.999999985              -0.000598430               0.000116296               0.999999985              -0.000612383               0.000115424               0.999999985              -0.000625615               0.000111963               0.999999985              -0.000394996               0.000204544               0.999999985              -0.000425152               0.000171394               0.999999985              -0.000437572               0.000159318               0.999999985              -0.000445060               0.000157881               0.999999985              -0.000451951               0.000162061               0.999999985              -0.000459674               0.000169197               0.999999985              -0.000468577               0.000177683               0.999999985              -0.000478584               0.000186720               0.999999985              -0.000489554               0.000195956               0.999999985              -0.000501275               0.000205284               0.999999985              -0.000513496               0.000214148               0.999999985              -0.000525972               0.000221952               0.999999985              -0.000538406               0.000228460               0.999999985              -0.000550626               0.000233300               0.999999985              -0.000562439               0.000235871               0.999999985              -0.000573738               0.000235403               0.999999985              -0.000584418               0.000230872               0.999999985              -0.000383513               0.000304113               0.999999985              -0.000401714               0.000255504               0.999999985              -0.000407753               0.000239246               0.999999985              -0.000411948               0.000238498               0.999999985              -0.000417165               0.000245785               0.999999985              -0.000423927               0.000257047               0.999999985              -0.000432088               0.000270192               0.999999985              -0.000441403               0.000284096               0.999999985              -0.000451549               0.000298190               0.999999985              -0.000462061               0.000312026               0.999999985              -0.000472567               0.000325095               0.999999985              -0.000482738               0.000336837               0.999999985              -0.000492438               0.000346879               0.999999985              -0.000501536               0.000354804               0.999999985              -0.000510044               0.000360163               0.999999985              -0.000518002               0.000362304               0.999999985              -0.000525526               0.000360726               0.999999986              -0.000367929               0.000400546               0.999999985              -0.000370871               0.000338056               0.999999985              -0.000369868               0.000319325               0.999999985              -0.000371016               0.000320478               0.999999985              -0.000374986               0.000331522               0.999999985              -0.000381193               0.000347276               0.999999985              -0.000388993               0.000365255               0.999999985              -0.000397763               0.000384045               0.999999985              -0.000406974               0.000402907               0.999999985              -0.000416103               0.000421110               0.999999985              -0.000424746               0.000438154               0.999999985              -0.000432649               0.000453593               0.999999985              -0.000439630               0.000467156               0.999999985              -0.000445847               0.000478729               0.999999986              -0.000451367               0.000487928               0.999999986              -0.000456282               0.000494506               0.999999986              -0.000460943               0.000498657               0.999999986              -0.000348439               0.000492975               0.999999985              -0.000334231               0.000418921               0.999999985              -0.000326873               0.000399370               0.999999985              -0.000326063               0.000403324               0.999999985              -0.000329762               0.000418483               0.999999985              -0.000336205               0.000438890               0.999999985              -0.000344092               0.000461636               0.999999985              -0.000352544               0.000485073               0.999999985              -0.000360848               0.000508385               0.999999985              -0.000368536               0.000530747               0.999999985              -0.000375232               0.000551594               0.999999985              -0.000380826               0.000570794               0.999999986              -0.000385465               0.000588156               0.999999986              -0.000389169               0.000603576               0.999999986              -0.000391897               0.000616991               0.999999986              -0.000393971               0.000628525               0.999999986              -0.000395667               0.000638919               0.999999986              -0.000325549               0.000580394               0.999999985              -0.000293786               0.000497913               0.999999985              -0.000281742               0.000478999               0.999999985              -0.000280649               0.000486207               0.999999985              -0.000285296               0.000505422               0.999999985              -0.000292621               0.000530341               0.999999985              -0.000300962               0.000557612               0.999999985              -0.000309225               0.000585322               0.999999985              -0.000316593               0.000612671               0.999999985              -0.000322650               0.000638866               0.999999985              -0.000327343               0.000663476               0.999999986              -0.000330709               0.000686440               0.999999986              -0.000332711               0.000707698               0.999999986              -0.000333487               0.000727044               0.999999986              -0.000333307               0.000744764               0.999999986              -0.000332392               0.000761403               0.999999986              -0.000330833               0.000777291               0.999999986              -0.000299722               0.000661871               0.999999985              -0.000251599               0.000574784               0.999999985              -0.000237263               0.000557505               0.999999985              -0.000237606               0.000567954               0.999999985              -0.000244022               0.000591039               0.999999985              -0.000252699               0.000620080               0.999999985              -0.000261580               0.000651470               0.999999985              -0.000269411               0.000683136               0.999999985              -0.000275642               0.000714179               0.999999986              -0.000279963               0.000743886               0.999999986              -0.000282384               0.000772056               0.999999986              -0.000282924               0.000798710               0.999999986              -0.000281810               0.000823641               0.999999986              -0.000279333               0.000846966               0.999999986              -0.000275609               0.000869222               0.999999986              -0.000270812               0.000890549               0.999999986              -0.000265124               0.000910911               0.999999986              -0.000272056               0.000735945               0.999999985              -0.000209355               0.000649321               0.999999985              -0.000195801               0.000633926               0.999999985              -0.000198628               0.000647310               0.999999985              -0.000207245               0.000674007               0.999999985              -0.000217298               0.000706899               0.999999985              -0.000226419               0.000742097               0.999999985              -0.000233573               0.000777432               0.999999986              -0.000238228               0.000811874               0.999999986              -0.000240201               0.000845004               0.999999986              -0.000239585               0.000876665               0.999999986              -0.000236660               0.000906719               0.999999986              -0.000231700               0.000935372               0.999999986              -0.000225197               0.000962445               0.999999986              -0.000217550               0.000987843               0.999999986              -0.000209196               0.001012071               0.999999986              -0.000200229               0.001035110               0.999999986              -0.000244165               0.000805332               0.999999985              -0.000175015               0.000729953               0.999999985              -0.000158326               0.000709918               0.999999985              -0.000159517               0.000717442               0.999999985              -0.000167016               0.000738953               0.999999985              -0.000176490               0.000767885               0.999999985              -0.000185513               0.000800404               0.999999985              -0.000192850               0.000834256               0.999999986              -0.000197876               0.000868003               0.999999986              -0.000200224               0.000901178               0.999999986              -0.000199982               0.000933444               0.999999986              -0.000197098               0.000964621               0.999999986              -0.000191949               0.000994660               0.999999986              -0.000184925               0.001023277               0.999999986              -0.000176107               0.001050323               0.999999986              -0.000166333               0.001075960               0.999999986              -0.000156261               0.001100227               0.999999986              -0.000213653               0.000868008               0.999999985              -0.000143489               0.000807168               0.999999985              -0.000123778               0.000787045               0.999999985              -0.000122597               0.000790586               0.999999985              -0.000128389               0.000807889               0.999999985              -0.000136709               0.000833222               0.999999985              -0.000145142               0.000863090               0.999999986              -0.000152355               0.000895317               0.999999986              -0.000157494               0.000928375               0.999999986              -0.000160138               0.000961485               0.999999986              -0.000160233               0.000994092               0.999999986              -0.000157700               0.001026010               0.999999986              -0.000152303               0.001057125               0.999999986              -0.000144555               0.001087063               0.999999986              -0.000134508               0.001115603               0.999999986              -0.000122399               0.001142893               0.999999986              -0.000109302               0.001168929               0.999999986              -0.000181238               0.000922673               0.999999985              -0.000114703               0.000878815               0.999999985              -0.000093180               0.000861919               0.999999985              -0.000089529               0.000863943               0.999999985              -0.000093276               0.000878404               0.999999985              -0.000099988               0.000900932               0.999999986              -0.000107293               0.000928556               0.999999986              -0.000113720               0.000959342               0.999999986              -0.000118695               0.000991874               0.999999986              -0.000121653               0.001024990               0.999999986              -0.000122027               0.001058090               0.999999986              -0.000119730               0.001090826               0.999999986              -0.000114540               0.001122964               0.999999986              -0.000106186               0.001154077               0.999999986              -0.000094820               0.001184136               0.999999986              -0.000080584               0.001212886               0.999999986              -0.000064176               0.001240463               0.999999986              -0.000147146               0.000968555               0.999999985              -0.000088448               0.000942323               0.999999985              -0.000067046               0.000931040               0.999999985              -0.000061657               0.000933675               0.999999986              -0.000063372               0.000946924               0.999999986              -0.000068146               0.000967743               0.999999986              -0.000073867               0.000993879               0.999999986              -0.000079169               0.001023645               0.999999986              -0.000083478               0.001055799               0.999999986              -0.000086363               0.001089273               0.999999986              -0.000087020               0.001123245               0.999999986              -0.000085100               0.001157198               0.999999986              -0.000080301               0.001190807               0.999999986              -0.000072019               0.001223484               0.999999986              -0.000059923               0.001255092               0.999999986              -0.000044120               0.001285440               0.999999986              -0.000024537               0.001314672               0.999999986              -0.000111640               0.001004963               0.999999986              -0.000064422               0.000994911               0.999999986              -0.000045474               0.000990451               0.999999986              -0.000039481               0.000995347               0.999999986              -0.000039617               0.001008754               0.999999986              -0.000042590               0.001029002               0.999999986              -0.000046491               0.001054437               0.999999986              -0.000050432               0.001083753               0.999999986              -0.000053791               0.001115902               0.999999986              -0.000056138               0.001150004               0.999999986              -0.000056909               0.001185208               0.999999986              -0.000055505               0.001220912               0.999999986              -0.000051307               0.001256680               0.999999986              -0.000043806               0.001291739               0.999999986              -0.000032417               0.001325682               0.999999986              -0.000016456               0.001358337               0.999999986               0.000004826               0.001389687               0.999999986              -0.000075036               0.001031351               0.999999986              -0.000042089               0.001034237               0.999999986              -0.000027895               0.001036244               0.999999986              -0.000022718               0.001044084               0.999999986              -0.000022010               0.001058604               0.999999986              -0.000023516               0.001079126               0.999999986              -0.000025936               0.001104580               0.999999986              -0.000028438               0.001133949               0.999999986              -0.000030615               0.001166387               0.999999986              -0.000032207               0.001201212               0.999999986              -0.000032829               0.001237712               0.999999986              -0.000031875               0.001275340               0.999999986              -0.000028791               0.001313494               0.999999986              -0.000023083               0.001351254               0.999999986              -0.000013939               0.001388185               0.999999986              -0.000000593               0.001423830               0.999999986               0.000018218               0.001457884               0.999999986              -0.000037707               0.001047272               0.999999986              -0.000020805               0.001058534               0.999999986              -0.000013184               0.001065259               0.999999986              -0.000010184               0.001075555               0.999999986              -0.000009543               0.001091243               0.999999986              -0.000010084               0.001112250               0.999999986              -0.000011217               0.001137991               0.999999986              -0.000012440               0.001167709               0.999999986              -0.000013479               0.001200616               0.999999986              -0.000014219               0.001236096               0.999999986              -0.000014530               0.001273585               0.999999986              -0.000014041               0.001312619               0.999999986              -0.000012485               0.001352604               0.999999986              -0.000009339               0.001392541               0.999999986              -0.000004298               0.001431891               0.999999986               0.000003403               0.001470080               0.999999986               0.000014596               0.001506587               0.999999986              -0.000000000               0.001052605               0.999999986               0.000000000               0.001066725               0.999999986              -0.000000000               0.001075119               0.999999986               0.000000000               0.001086408               0.999999986               0.000000000               0.001102633               0.999999986              -0.000000000               0.001123921               0.999999986              -0.000000000               0.001149817               0.999999986              -0.000000000               0.001179625               0.999999986               0.000000000               0.001212761               0.999999986              -0.000000000               0.001248482               0.999999986              -0.000000000               0.001286323               0.999999986               0.000000000               0.001325879               0.999999986               0.000000000               0.001366577               0.999999986              -0.000000000               0.001407436               0.999999986              -0.000000000               0.001447752               0.999999986               0.000000000               0.001486953               0.999999986              -0.000000000               0.001524439               0.999999986              -0.000404414              -0.000000000               0.999999985              -0.000444823               0.000000000               0.999999985              -0.000463364               0.000000000               0.999999985              -0.000474358               0.000000000               0.999999985              -0.000483286               0.000000000               0.999999985              -0.000492350               0.000000000               0.999999985              -0.000502202               0.000000000               0.999999985              -0.000513032               0.000000000               0.999999985              -0.000524817               0.000000000               0.999999985              -0.000537461              -0.000000000               0.999999985              -0.000551038              -0.000000000               0.999999985              -0.000565384              -0.000000000               0.999999985              -0.000580305              -0.000000000               0.999999985              -0.000595574              -0.000000000               0.999999985              -0.000610905              -0.000000000               0.999999985              -0.000625992               0.000000000               0.999999985              -0.000640298               0.000000000               0.999999985              -0.000402055              -0.000102813               0.999999985              -0.000439833              -0.000086052               0.999999985              -0.000456740              -0.000079585               0.999999985              -0.000466794              -0.000078546               0.999999985              -0.000475147              -0.000080358               0.999999985              -0.000483757              -0.000083808               0.999999985              -0.000493290              -0.000087952               0.999999985              -0.000503907              -0.000092332               0.999999985              -0.000515488              -0.000096914               0.999999985              -0.000527955              -0.000101525               0.999999985              -0.000541228              -0.000105971               0.999999985              -0.000555139              -0.000109898               0.999999985              -0.000569524              -0.000113102               0.999999985              -0.000584062              -0.000115367               0.999999985              -0.000598430              -0.000116296               0.999999985              -0.000612383              -0.000115424               0.999999985              -0.000625615              -0.000111963               0.999999985              -0.000394996              -0.000204544               0.999999985              -0.000425152              -0.000171394               0.999999985              -0.000437572              -0.000159318               0.999999985              -0.000445060              -0.000157881               0.999999985              -0.000451951              -0.000162061               0.999999985              -0.000459674              -0.000169197               0.999999985              -0.000468577              -0.000177683               0.999999985              -0.000478584              -0.000186720               0.999999985              -0.000489554              -0.000195956               0.999999985              -0.000501275              -0.000205284               0.999999985              -0.000513496              -0.000214148               0.999999985              -0.000525972              -0.000221952               0.999999985              -0.000538406              -0.000228460               0.999999985              -0.000550626              -0.000233300               0.999999985              -0.000562439              -0.000235871               0.999999985              -0.000573738              -0.000235403               0.999999985              -0.000584418              -0.000230872               0.999999985              -0.000383513              -0.000304113               0.999999985              -0.000401714              -0.000255504               0.999999985              -0.000407753              -0.000239246               0.999999985              -0.000411948              -0.000238498               0.999999985              -0.000417165              -0.000245785               0.999999985              -0.000423927              -0.000257047               0.999999985              -0.000432088              -0.000270192               0.999999985              -0.000441403              -0.000284096               0.999999985              -0.000451549              -0.000298190               0.999999985              -0.000462061              -0.000312026               0.999999985              -0.000472567              -0.000325095               0.999999985              -0.000482738              -0.000336837               0.999999985              -0.000492438              -0.000346879               0.999999985              -0.000501536              -0.000354804               0.999999985              -0.000510044              -0.000360163               0.999999985              -0.000518002              -0.000362304               0.999999985              -0.000525526              -0.000360726               0.999999986              -0.000367929              -0.000400546               0.999999985              -0.000370871              -0.000338056               0.999999985              -0.000369868              -0.000319325               0.999999985              -0.000371016              -0.000320478               0.999999985              -0.000374986              -0.000331522               0.999999985              -0.000381193              -0.000347276               0.999999985              -0.000388993              -0.000365255               0.999999985              -0.000397763              -0.000384045               0.999999985              -0.000406974              -0.000402907               0.999999985              -0.000416103              -0.000421110               0.999999985              -0.000424746              -0.000438154               0.999999985              -0.000432649              -0.000453593               0.999999985              -0.000439630              -0.000467156               0.999999985              -0.000445847              -0.000478729               0.999999986              -0.000451367              -0.000487928               0.999999986              -0.000456282              -0.000494506               0.999999986              -0.000460943              -0.000498657               0.999999986              -0.000348439              -0.000492975               0.999999985              -0.000334231              -0.000418921               0.999999985              -0.000326873              -0.000399370               0.999999985              -0.000326063              -0.000403324               0.999999985              -0.000329762              -0.000418483               0.999999985              -0.000336205              -0.000438890               0.999999985              -0.000344092              -0.000461636               0.999999985              -0.000352544              -0.000485073               0.999999985              -0.000360848              -0.000508385               0.999999985              -0.000368536              -0.000530747               0.999999985              -0.000375232              -0.000551594               0.999999985              -0.000380826              -0.000570794               0.999999986              -0.000385465              -0.000588156               0.999999986              -0.000389169              -0.000603576               0.999999986              -0.000391897              -0.000616991               0.999999986              -0.000393971              -0.000628525               0.999999986              -0.000395667              -0.000638919               0.999999986              -0.000325549              -0.000580394               0.999999985              -0.000293786              -0.000497913               0.999999985              -0.000281742              -0.000478999               0.999999985              -0.000280649              -0.000486207               0.999999985              -0.000285296              -0.000505422               0.999999985              -0.000292621              -0.000530341               0.999999985              -0.000300962              -0.000557612               0.999999985              -0.000309225              -0.000585322               0.999999985              -0.000316593              -0.000612671               0.999999985              -0.000322650              -0.000638866               0.999999985              -0.000327343              -0.000663476               0.999999986              -0.000330709              -0.000686440               0.999999986              -0.000332711              -0.000707698               0.999999986              -0.000333487              -0.000727044               0.999999986              -0.000333307              -0.000744764               0.999999986              -0.000332392              -0.000761403               0.999999986              -0.000330833              -0.000777291               0.999999986              -0.000299722              -0.000661871               0.999999985              -0.000251599              -0.000574784               0.999999985              -0.000237263              -0.000557505               0.999999985              -0.000237606              -0.000567954               0.999999985              -0.000244022              -0.000591039               0.999999985              -0.000252699              -0.000620080               0.999999985              -0.000261580              -0.000651470               0.999999985              -0.000269411              -0.000683136               0.999999985              -0.000275642              -0.000714179               0.999999986              -0.000279963              -0.000743886               0.999999986              -0.000282384              -0.000772056               0.999999986              -0.000282924              -0.000798710               0.999999986              -0.000281810              -0.000823641               0.999999986              -0.000279333              -0.000846966               0.999999986              -0.000275609              -0.000869222               0.999999986              -0.000270812              -0.000890549               0.999999986              -0.000265124              -0.000910911               0.999999986              -0.000272056              -0.000735945               0.999999985              -0.000209355              -0.000649321               0.999999985              -0.000195801              -0.000633926               0.999999985              -0.000198628              -0.000647310               0.999999985              -0.000207245              -0.000674007               0.999999985              -0.000217298              -0.000706899               0.999999985              -0.000226419              -0.000742097               0.999999985              -0.000233573              -0.000777432               0.999999986              -0.000238228              -0.000811874               0.999999986              -0.000240201              -0.000845004               0.999999986              -0.000239585              -0.000876665               0.999999986              -0.000236660              -0.000906719               0.999999986              -0.000231700              -0.000935372               0.999999986              -0.000225197              -0.000962445               0.999999986              -0.000217550              -0.000987843               0.999999986              -0.000209196              -0.001012071               0.999999986              -0.000200229              -0.001035110               0.999999986              -0.000244165              -0.000805332               0.999999985              -0.000175015              -0.000729953               0.999999985              -0.000158326              -0.000709918               0.999999985              -0.000159517              -0.000717442               0.999999985              -0.000167016              -0.000738953               0.999999985              -0.000176490              -0.000767885               0.999999985              -0.000185513              -0.000800404               0.999999985              -0.000192850              -0.000834256               0.999999986              -0.000197876              -0.000868003               0.999999986              -0.000200224              -0.000901178               0.999999986              -0.000199982              -0.000933444               0.999999986              -0.000197098              -0.000964621               0.999999986              -0.000191949              -0.000994660               0.999999986              -0.000184925              -0.001023277               0.999999986              -0.000176107              -0.001050323               0.999999986              -0.000166333              -0.001075960               0.999999986              -0.000156261              -0.001100227               0.999999986              -0.000213653              -0.000868008               0.999999985              -0.000143489              -0.000807168               0.999999985              -0.000123778              -0.000787045               0.999999985              -0.000122597              -0.000790586               0.999999985              -0.000128389              -0.000807889               0.999999985              -0.000136709              -0.000833222               0.999999985              -0.000145142              -0.000863090               0.999999986              -0.000152355              -0.000895317               0.999999986              -0.000157494              -0.000928375               0.999999986              -0.000160138              -0.000961485               0.999999986              -0.000160233              -0.000994092               0.999999986              -0.000157700              -0.001026010               0.999999986              -0.000152303              -0.001057125               0.999999986              -0.000144555              -0.001087063               0.999999986              -0.000134508              -0.001115603               0.999999986              -0.000122399              -0.001142893               0.999999986              -0.000109302              -0.001168929               0.999999986              -0.000181238              -0.000922673               0.999999985              -0.000114703              -0.000878815               0.999999985              -0.000093180              -0.000861919               0.999999985              -0.000089529              -0.000863943               0.999999985              -0.000093276              -0.000878404               0.999999985              -0.000099988              -0.000900932               0.999999986              -0.000107293              -0.000928556               0.999999986              -0.000113720              -0.000959342               0.999999986              -0.000118695              -0.000991874               0.999999986              -0.000121653              -0.001024990               0.999999986              -0.000122027              -0.001058090               0.999999986              -0.000119730              -0.001090826               0.999999986              -0.000114540              -0.001122964               0.999999986              -0.000106186              -0.001154077               0.999999986              -0.000094820              -0.001184136               0.999999986              -0.000080584              -0.001212886               0.999999986              -0.000064176              -0.001240463               0.999999986              -0.000147146              -0.000968555               0.999999985              -0.000088448              -0.000942323               0.999999985              -0.000067046              -0.000931040               0.999999985              -0.000061657              -0.000933675               0.999999986              -0.000063372              -0.000946924               0.999999986              -0.000068146              -0.000967743               0.999999986              -0.000073867              -0.000993879               0.999999986              -0.000079169              -0.001023645               0.999999986              -0.000083478              -0.001055799               0.999999986              -0.000086363              -0.001089273               0.999999986              -0.000087020              -0.001123245               0.999999986              -0.000085100              -0.001157198               0.999999986              -0.000080301              -0.001190807               0.999999986              -0.000072019              -0.001223484               0.999999986              -0.000059923              -0.001255092               0.999999986              -0.000044120              -0.001285440               0.999999986              -0.000024537              -0.001314672               0.999999986              -0.000111640              -0.001004963               0.999999986              -0.000064422              -0.000994911               0.999999986              -0.000045474              -0.000990451               0.999999986              -0.000039481              -0.000995347               0.999999986              -0.000039617              -0.001008754               0.999999986              -0.000042590              -0.001029002               0.999999986              -0.000046491              -0.001054437               0.999999986              -0.000050432              -0.001083753               0.999999986              -0.000053791              -0.001115902               0.999999986              -0.000056138              -0.001150004               0.999999986              -0.000056909              -0.001185208               0.999999986              -0.000055505              -0.001220912               0.999999986              -0.000051307              -0.001256680               0.999999986              -0.000043806              -0.001291739               0.999999986              -0.000032417              -0.001325682               0.999999986              -0.000016456              -0.001358337               0.999999986               0.000004826              -0.001389687               0.999999986              -0.000075036              -0.001031351               0.999999986              -0.000042089              -0.001034237               0.999999986              -0.000027895              -0.001036244               0.999999986              -0.000022718              -0.001044084               0.999999986              -0.000022010              -0.001058604               0.999999986              -0.000023516              -0.001079126               0.999999986              -0.000025936              -0.001104580               0.999999986              -0.000028438              -0.001133949               0.999999986              -0.000030615              -0.001166387               0.999999986              -0.000032207              -0.001201212               0.999999986              -0.000032829              -0.001237712               0.999999986              -0.000031875              -0.001275340               0.999999986              -0.000028791              -0.001313494               0.999999986              -0.000023083              -0.001351254               0.999999986              -0.000013939              -0.001388185               0.999999986              -0.000000593              -0.001423830               0.999999986               0.000018218              -0.001457884               0.999999986              -0.000037707              -0.001047272               0.999999986              -0.000020805              -0.001058534               0.999999986              -0.000013184              -0.001065259               0.999999986              -0.000010184              -0.001075555               0.999999986              -0.000009543              -0.001091243               0.999999986              -0.000010084              -0.001112250               0.999999986              -0.000011217              -0.001137991               0.999999986              -0.000012440              -0.001167709               0.999999986              -0.000013479              -0.001200616               0.999999986              -0.000014219              -0.001236096               0.999999986              -0.000014530              -0.001273585               0.999999986              -0.000014041              -0.001312619               0.999999986              -0.000012485              -0.001352604               0.999999986              -0.000009339              -0.001392541               0.999999986              -0.000004298              -0.001431891               0.999999986               0.000003403              -0.001470080               0.999999986               0.000014596              -0.001506587               0.999999986              -0.000000000              -0.001052605               0.999999986               0.000000000              -0.001066725               0.999999986              -0.000000000              -0.001075119               0.999999986               0.000000000              -0.001086408               0.999999986               0.000000000              -0.001102633               0.999999986               0.000000000              -0.001123921               0.999999986               0.000000000              -0.001149817               0.999999986              -0.000000000              -0.001179625               0.999999986              -0.000000000              -0.001212761               0.999999986               0.000000000              -0.001248482               0.999999986              -0.000000000              -0.001286323               0.999999986              -0.000000000              -0.001325879               0.999999986              -0.000000000              -0.001366577               0.999999986               0.000000000              -0.001407436               0.999999986               0.000000000              -0.001447752               0.999999986              -0.000000000              -0.001486953               0.999999986              -0.000000000              -0.001524439               0.999999986               0.000404414              -0.000000000               0.999999985               0.000444823              -0.000000000               0.999999985               0.000463364              -0.000000000               0.999999985               0.000474358               0.000000000               0.999999985               0.000483286               0.000000000               0.999999985               0.000492350               0.000000000               0.999999985               0.000502202              -0.000000000               0.999999985               0.000513032              -0.000000000               0.999999985               0.000524817              -0.000000000               0.999999985               0.000537461               0.000000000               0.999999985               0.000551038               0.000000000               0.999999985               0.000565384               0.000000000               0.999999985               0.000580305               0.000000000               0.999999985               0.000595574               0.000000000               0.999999985               0.000610905               0.000000000               0.999999985               0.000625992               0.000000000               0.999999985               0.000640298               0.000000000               0.999999985               0.000402055              -0.000102813               0.999999985               0.000439833              -0.000086052               0.999999985               0.000456740              -0.000079585               0.999999985               0.000466794              -0.000078546               0.999999985               0.000475147              -0.000080358               0.999999985               0.000483757              -0.000083808               0.999999985               0.000493290              -0.000087952               0.999999985               0.000503907              -0.000092332               0.999999985               0.000515488              -0.000096914               0.999999985               0.000527955              -0.000101525               0.999999985               0.000541228              -0.000105971               0.999999985               0.000555139              -0.000109898               0.999999985               0.000569524              -0.000113102               0.999999985               0.000584062              -0.000115367               0.999999985               0.000598430              -0.000116296               0.999999985               0.000612383              -0.000115424               0.999999985               0.000625615              -0.000111963               0.999999985               0.000394996              -0.000204544               0.999999985               0.000425152              -0.000171394               0.999999985               0.000437572              -0.000159318               0.999999985               0.000445060              -0.000157881               0.999999985               0.000451951              -0.000162061               0.999999985               0.000459674              -0.000169197               0.999999985               0.000468577              -0.000177683               0.999999985               0.000478584              -0.000186720               0.999999985               0.000489554              -0.000195956               0.999999985               0.000501275              -0.000205284               0.999999985               0.000513496              -0.000214148               0.999999985               0.000525972              -0.000221952               0.999999985               0.000538406              -0.000228460               0.999999985               0.000550626              -0.000233300               0.999999985               0.000562439              -0.000235871               0.999999985               0.000573738              -0.000235403               0.999999985               0.000584418              -0.000230872               0.999999985               0.000383513              -0.000304113               0.999999985               0.000401714              -0.000255504               0.999999985               0.000407753              -0.000239246               0.999999985               0.000411948              -0.000238498               0.999999985               0.000417165              -0.000245785               0.999999985               0.000423927              -0.000257047               0.999999985               0.000432088              -0.000270192               0.999999985               0.000441403              -0.000284096               0.999999985               0.000451549              -0.000298190               0.999999985               0.000462061              -0.000312026               0.999999985               0.000472567              -0.000325095               0.999999985               0.000482738              -0.000336837               0.999999985               0.000492438              -0.000346879               0.999999985               0.000501536              -0.000354804               0.999999985               0.000510044              -0.000360163               0.999999985               0.000518002              -0.000362304               0.999999985               0.000525526              -0.000360726               0.999999986               0.000367929              -0.000400546               0.999999985               0.000370871              -0.000338056               0.999999985               0.000369868              -0.000319325               0.999999985               0.000371016              -0.000320478               0.999999985               0.000374986              -0.000331522               0.999999985               0.000381193              -0.000347276               0.999999985               0.000388993              -0.000365255               0.999999985               0.000397763              -0.000384045               0.999999985               0.000406974              -0.000402907               0.999999985               0.000416103              -0.000421110               0.999999985               0.000424746              -0.000438154               0.999999985               0.000432649              -0.000453593               0.999999985               0.000439630              -0.000467156               0.999999985               0.000445847              -0.000478729               0.999999986               0.000451367              -0.000487928               0.999999986               0.000456282              -0.000494506               0.999999986               0.000460943              -0.000498657               0.999999986               0.000348439              -0.000492975               0.999999985               0.000334231              -0.000418921               0.999999985               0.000326873              -0.000399370               0.999999985               0.000326063              -0.000403324               0.999999985               0.000329762              -0.000418483               0.999999985               0.000336205              -0.000438890               0.999999985               0.000344092              -0.000461636               0.999999985               0.000352544              -0.000485073               0.999999985               0.000360848              -0.000508385               0.999999985               0.000368536              -0.000530747               0.999999985               0.000375232              -0.000551594               0.999999985               0.000380826              -0.000570794               0.999999986               0.000385465              -0.000588156               0.999999986               0.000389169              -0.000603576               0.999999986               0.000391897              -0.000616991               0.999999986               0.000393971              -0.000628525               0.999999986               0.000395667              -0.000638919               0.999999986               0.000325549              -0.000580394               0.999999985               0.000293786              -0.000497913               0.999999985               0.000281742              -0.000478999               0.999999985               0.000280649              -0.000486207               0.999999985               0.000285296              -0.000505422               0.999999985               0.000292621              -0.000530341               0.999999985               0.000300962              -0.000557612               0.999999985               0.000309225              -0.000585322               0.999999985               0.000316593              -0.000612671               0.999999985               0.000322650              -0.000638866               0.999999985               0.000327343              -0.000663476               0.999999986               0.000330709              -0.000686440               0.999999986               0.000332711              -0.000707698               0.999999986               0.000333487              -0.000727044               0.999999986               0.000333307              -0.000744764               0.999999986               0.000332392              -0.000761403               0.999999986               0.000330833              -0.000777291               0.999999986               0.000299722              -0.000661871               0.999999985               0.000251599              -0.000574784               0.999999985               0.000237263              -0.000557505               0.999999985               0.000237606              -0.000567954               0.999999985               0.000244022              -0.000591039               0.999999985               0.000252699              -0.000620080               0.999999985               0.000261580              -0.000651470               0.999999985               0.000269411              -0.000683136               0.999999985               0.000275642              -0.000714179               0.999999986               0.000279963              -0.000743886               0.999999986               0.000282384              -0.000772056               0.999999986               0.000282924              -0.000798710               0.999999986               0.000281810              -0.000823641               0.999999986               0.000279333              -0.000846966               0.999999986               0.000275609              -0.000869222               0.999999986               0.000270812              -0.000890549               0.999999986               0.000265124              -0.000910911               0.999999986               0.000272056              -0.000735945               0.999999985               0.000209355              -0.000649321               0.999999985               0.000195801              -0.000633926               0.999999985               0.000198628              -0.000647310               0.999999985               0.000207245              -0.000674007               0.999999985               0.000217298              -0.000706899               0.999999985               0.000226419              -0.000742097               0.999999985               0.000233573              -0.000777432               0.999999986               0.000238228              -0.000811874               0.999999986               0.000240201              -0.000845004               0.999999986               0.000239585              -0.000876665               0.999999986               0.000236660              -0.000906719               0.999999986               0.000231700              -0.000935372               0.999999986               0.000225197              -0.000962445               0.999999986               0.000217550              -0.000987843               0.999999986               0.000209196              -0.001012071               0.999999986               0.000200229              -0.001035110               0.999999986               0.000244165              -0.000805332               0.999999985               0.000175015              -0.000729953               0.999999985               0.000158326              -0.000709918               0.999999985               0.000159517              -0.000717442               0.999999985               0.000167016              -0.000738953               0.999999985               0.000176490              -0.000767885               0.999999985               0.000185513              -0.000800404               0.999999985               0.000192850              -0.000834256               0.999999986               0.000197876              -0.000868003               0.999999986               0.000200224              -0.000901178               0.999999986               0.000199982              -0.000933444               0.999999986               0.000197098              -0.000964621               0.999999986               0.000191949              -0.000994660               0.999999986               0.000184925              -0.001023277               0.999999986               0.000176107              -0.001050323               0.999999986               0.000166333              -0.001075960               0.999999986               0.000156261              -0.001100227               0.999999986               0.000213653              -0.000868008               0.999999985               0.000143489              -0.000807168               0.999999985               0.000123778              -0.000787045               0.999999985               0.000122597              -0.000790586               0.999999985               0.000128389              -0.000807889               0.999999985               0.000136709              -0.000833222               0.999999985               0.000145142              -0.000863090               0.999999986               0.000152355              -0.000895317               0.999999986               0.000157494              -0.000928375               0.999999986               0.000160138              -0.000961485               0.999999986               0.000160233              -0.000994092               0.999999986               0.000157700              -0.001026010               0.999999986               0.000152303              -0.001057125               0.999999986               0.000144555              -0.001087063               0.999999986               0.000134508              -0.001115603               0.999999986               0.000122399              -0.001142893               0.999999986               0.000109302              -0.001168929               0.999999986               0.000181238              -0.000922673               0.999999985               0.000114703              -0.000878815               0.999999985               0.000093180              -0.000861919               0.999999985               0.000089529              -0.000863943               0.999999985               0.000093276              -0.000878404               0.999999985               0.000099988              -0.000900932               0.999999986               0.000107293              -0.000928556               0.999999986               0.000113720              -0.000959342               0.999999986               0.000118695              -0.000991874               0.999999986               0.000121653              -0.001024990               0.999999986               0.000122027              -0.001058090               0.999999986               0.000119730              -0.001090826               0.999999986               0.000114540              -0.001122964               0.999999986               0.000106186              -0.001154077               0.999999986               0.000094820              -0.001184136               0.999999986               0.000080584              -0.001212886               0.999999986               0.000064176              -0.001240463               0.999999986               0.000147146              -0.000968555               0.999999985               0.000088448              -0.000942323               0.999999985               0.000067046              -0.000931040               0.999999985               0.000061657              -0.000933675               0.999999986               0.000063372              -0.000946924               0.999999986               0.000068146              -0.000967743               0.999999986               0.000073867              -0.000993879               0.999999986               0.000079169              -0.001023645               0.999999986               0.000083478              -0.001055799               0.999999986               0.000086363              -0.001089273               0.999999986               0.000087020              -0.001123245               0.999999986               0.000085100              -0.001157198               0.999999986               0.000080301              -0.001190807               0.999999986               0.000072019              -0.001223484               0.999999986               0.000059923              -0.001255092               0.999999986               0.000044120              -0.001285440               0.999999986               0.000024537              -0.001314672               0.999999986               0.000111640              -0.001004963               0.999999986               0.000064422              -0.000994911               0.999999986               0.000045474              -0.000990451               0.999999986               0.000039481              -0.000995347               0.999999986               0.000039617              -0.001008754               0.999999986               0.000042590              -0.001029002               0.999999986               0.000046491              -0.001054437               0.999999986               0.000050432              -0.001083753               0.999999986               0.000053791              -0.001115902               0.999999986               0.000056138              -0.001150004               0.999999986               0.000056909              -0.001185208               0.999999986               0.000055505              -0.001220912               0.999999986               0.000051307              -0.001256680               0.999999986               0.000043806              -0.001291739               0.999999986               0.000032417              -0.001325682               0.999999986               0.000016456              -0.001358337               0.999999986              -0.000004826              -0.001389687               0.999999986               0.000075036              -0.001031351               0.999999986               0.000042089              -0.001034237               0.999999986               0.000027895              -0.001036244               0.999999986               0.000022718              -0.001044084               0.999999986               0.000022010              -0.001058604               0.999999986               0.000023516              -0.001079126               0.999999986               0.000025936              -0.001104580               0.999999986               0.000028438              -0.001133949               0.999999986               0.000030615              -0.001166387               0.999999986               0.000032207              -0.001201212               0.999999986               0.000032829              -0.001237712               0.999999986               0.000031875              -0.001275340               0.999999986               0.000028791              -0.001313494               0.999999986               0.000023083              -0.001351254               0.999999986               0.000013939              -0.001388185               0.999999986               0.000000593              -0.001423830               0.999999986              -0.000018218              -0.001457884               0.999999986               0.000037707              -0.001047272               0.999999986               0.000020805              -0.001058534               0.999999986               0.000013184              -0.001065259               0.999999986               0.000010184              -0.001075555               0.999999986               0.000009543              -0.001091243               0.999999986               0.000010084              -0.001112250               0.999999986               0.000011217              -0.001137991               0.999999986               0.000012440              -0.001167709               0.999999986               0.000013479              -0.001200616               0.999999986               0.000014219              -0.001236096               0.999999986               0.000014530              -0.001273585               0.999999986               0.000014041              -0.001312619               0.999999986               0.000012485              -0.001352604               0.999999986               0.000009339              -0.001392541               0.999999986               0.000004298              -0.001431891               0.999999986              -0.000003403              -0.001470080               0.999999986              -0.000014596              -0.001506587               0.999999986              -0.000000000              -0.001052605               0.999999986               0.000000000              -0.001066725               0.999999986              -0.000000000              -0.001075119               0.999999986               0.000000000              -0.001086408               0.999999986               0.000000000              -0.001102633               0.999999986               0.000000000              -0.001123921               0.999999986               0.000000000              -0.001149817               0.999999986              -0.000000000              -0.001179625               0.999999986              -0.000000000              -0.001212761               0.999999986               0.000000000              -0.001248482               0.999999986              -0.000000000              -0.001286323               0.999999986              -0.000000000              -0.001325879               0.999999986              -0.000000000              -0.001366577               0.999999986               0.000000000              -0.001407436               0.999999986               0.000000000              -0.001447752               0.999999986              -0.000000000              -0.001486953               0.999999986              -0.000000000              -0.001524439               0.999999986               0.000404414              -0.000000000               0.999999985               0.000444823              -0.000000000               0.999999985               0.000463364              -0.000000000               0.999999985               0.000474358               0.000000000               0.999999985               0.000483286               0.000000000               0.999999985               0.000492350               0.000000000               0.999999985               0.000502202              -0.000000000               0.999999985               0.000513032              -0.000000000               0.999999985               0.000524817              -0.000000000               0.999999985               0.000537461               0.000000000               0.999999985               0.000551038               0.000000000               0.999999985               0.000565384               0.000000000               0.999999985               0.000580305               0.000000000               0.999999985               0.000595574               0.000000000               0.999999985               0.000610905               0.000000000               0.999999985               0.000625992               0.000000000               0.999999985               0.000640298               0.000000000               0.999999985               0.000402055               0.000102813               0.999999985               0.000439833               0.000086052               0.999999985               0.000456740               0.000079585               0.999999985               0.000466794               0.000078546               0.999999985               0.000475147               0.000080358               0.999999985               0.000483757               0.000083808               0.999999985               0.000493290               0.000087952               0.999999985               0.000503907               0.000092332               0.999999985               0.000515488               0.000096914               0.999999985               0.000527955               0.000101525               0.999999985               0.000541228               0.000105971               0.999999985               0.000555139               0.000109898               0.999999985               0.000569524               0.000113102               0.999999985               0.000584062               0.000115367               0.999999985               0.000598430               0.000116296               0.999999985               0.000612383               0.000115424               0.999999985               0.000625615               0.000111963               0.999999985               0.000394996               0.000204544               0.999999985               0.000425152               0.000171394               0.999999985               0.000437572               0.000159318               0.999999985               0.000445060               0.000157881               0.999999985               0.000451951               0.000162061               0.999999985               0.000459674               0.000169197               0.999999985               0.000468577               0.000177683               0.999999985               0.000478584               0.000186720               0.999999985               0.000489554               0.000195956               0.999999985               0.000501275               0.000205284               0.999999985               0.000513496               0.000214148               0.999999985               0.000525972               0.000221952               0.999999985               0.000538406               0.000228460               0.999999985               0.000550626               0.000233300               0.999999985               0.000562439               0.000235871               0.999999985               0.000573738               0.000235403               0.999999985               0.000584418               0.000230872               0.999999985               0.000383513               0.000304113               0.999999985               0.000401714               0.000255504               0.999999985               0.000407753               0.000239246               0.999999985               0.000411948               0.000238498               0.999999985               0.000417165               0.000245785               0.999999985               0.000423927               0.000257047               0.999999985               0.000432088               0.000270192               0.999999985               0.000441403               0.000284096               0.999999985               0.000451549               0.000298190               0.999999985               0.000462061               0.000312026               0.999999985               0.000472567               0.000325095               0.999999985               0.000482738               0.000336837               0.999999985               0.000492438               0.000346879               0.999999985               0.000501536               0.000354804               0.999999985               0.000510044               0.000360163               0.999999985               0.000518002               0.000362304               0.999999985               0.000525526               0.000360726               0.999999986               0.000367929               0.000400546               0.999999985               0.000370871               0.000338056               0.999999985               0.000369868               0.000319325               0.999999985               0.000371016               0.000320478               0.999999985               0.000374986               0.000331522               0.999999985               0.000381193               0.000347276               0.999999985               0.000388993               0.000365255               0.999999985               0.000397763               0.000384045               0.999999985               0.000406974               0.000402907               0.999999985               0.000416103               0.000421110               0.999999985               0.000424746               0.000438154               0.999999985               0.000432649               0.000453593               0.999999985               0.000439630               0.000467156               0.999999985               0.000445847               0.000478729               0.999999986               0.000451367               0.000487928               0.999999986               0.000456282               0.000494506               0.999999986               0.000460943               0.000498657               0.999999986               0.000348439               0.000492975               0.999999985               0.000334231               0.000418921               0.999999985               0.000326873               0.000399370               0.999999985               0.000326063               0.000403324               0.999999985               0.000329762               0.000418483               0.999999985               0.000336205               0.000438890               0.999999985               0.000344092               0.000461636               0.999999985               0.000352544               0.000485073               0.999999985               0.000360848               0.000508385               0.999999985               0.000368536               0.000530747               0.999999985               0.000375232               0.000551594               0.999999985               0.000380826               0.000570794               0.999999986               0.000385465               0.000588156               0.999999986               0.000389169               0.000603576               0.999999986               0.000391897               0.000616991               0.999999986               0.000393971               0.000628525               0.999999986               0.000395667               0.000638919               0.999999986               0.000325549               0.000580394               0.999999985               0.000293786               0.000497913               0.999999985               0.000281742               0.000478999               0.999999985               0.000280649               0.000486207               0.999999985               0.000285296               0.000505422               0.999999985               0.000292621               0.000530341               0.999999985               0.000300962               0.000557612               0.999999985               0.000309225               0.000585322               0.999999985               0.000316593               0.000612671               0.999999985               0.000322650               0.000638866               0.999999985               0.000327343               0.000663476               0.999999986               0.000330709               0.000686440               0.999999986               0.000332711               0.000707698               0.999999986               0.000333487               0.000727044               0.999999986               0.000333307               0.000744764               0.999999986               0.000332392               0.000761403               0.999999986               0.000330833               0.000777291               0.999999986               0.000299722               0.000661871               0.999999985               0.000251599               0.000574784               0.999999985               0.000237263               0.000557505               0.999999985               0.000237606               0.000567954               0.999999985               0.000244022               0.000591039               0.999999985               0.000252699               0.000620080               0.999999985               0.000261580               0.000651470               0.999999985               0.000269411               0.000683136               0.999999985               0.000275642               0.000714179               0.999999986               0.000279963               0.000743886               0.999999986               0.000282384               0.000772056               0.999999986               0.000282924               0.000798710               0.999999986               0.000281810               0.000823641               0.999999986               0.000279333               0.000846966               0.999999986               0.000275609               0.000869222               0.999999986               0.000270812               0.000890549               0.999999986               0.000265124               0.000910911               0.999999986               0.000272056               0.000735945               0.999999985               0.000209355               0.000649321               0.999999985               0.000195801               0.000633926               0.999999985               0.000198628               0.000647310               0.999999985               0.000207245               0.000674007               0.999999985               0.000217298               0.000706899               0.999999985               0.000226419               0.000742097               0.999999985               0.000233573               0.000777432               0.999999986               0.000238228               0.000811874               0.999999986               0.000240201               0.000845004               0.999999986               0.000239585               0.000876665               0.999999986               0.000236660               0.000906719               0.999999986               0.000231700               0.000935372               0.999999986               0.000225197               0.000962445               0.999999986               0.000217550               0.000987843               0.999999986               0.000209196               0.001012071               0.999999986               0.000200229               0.001035110               0.999999986               0.000244165               0.000805332               0.999999985               0.000175015               0.000729953               0.999999985               0.000158326               0.000709918               0.999999985               0.000159517               0.000717442               0.999999985               0.000167016               0.000738953               0.999999985               0.000176490               0.000767885               0.999999985               0.000185513               0.000800404               0.999999985               0.000192850               0.000834256               0.999999986               0.000197876               0.000868003               0.999999986               0.000200224               0.000901178               0.999999986               0.000199982               0.000933444               0.999999986               0.000197098               0.000964621               0.999999986               0.000191949               0.000994660               0.999999986               0.000184925               0.001023277               0.999999986               0.000176107               0.001050323               0.999999986               0.000166333               0.001075960               0.999999986               0.000156261               0.001100227               0.999999986               0.000213653               0.000868008               0.999999985               0.000143489               0.000807168               0.999999985               0.000123778               0.000787045               0.999999985               0.000122597               0.000790586               0.999999985               0.000128389               0.000807889               0.999999985               0.000136709               0.000833222               0.999999985               0.000145142               0.000863090               0.999999986               0.000152355               0.000895317               0.999999986               0.000157494               0.000928375               0.999999986               0.000160138               0.000961485               0.999999986               0.000160233               0.000994092               0.999999986               0.000157700               0.001026010               0.999999986               0.000152303               0.001057125               0.999999986               0.000144555               0.001087063               0.999999986               0.000134508               0.001115603               0.999999986               0.000122399               0.001142893               0.999999986               0.000109302               0.001168929               0.999999986               0.000181238               0.000922673               0.999999985               0.000114703               0.000878815               0.999999985               0.000093180               0.000861919               0.999999985               0.000089529               0.000863943               0.999999985               0.000093276               0.000878404               0.999999985               0.000099988               0.000900932               0.999999986               0.000107293               0.000928556               0.999999986               0.000113720               0.000959342               0.999999986               0.000118695               0.000991874               0.999999986               0.000121653               0.001024990               0.999999986               0.000122027               0.001058090               0.999999986               0.000119730               0.001090826               0.999999986               0.000114540               0.001122964               0.999999986               0.000106186               0.001154077               0.999999986               0.000094820               0.001184136               0.999999986               0.000080584               0.001212886               0.999999986               0.000064176               0.001240463               0.999999986               0.000147146               0.000968555               0.999999985               0.000088448               0.000942323               0.999999985               0.000067046               0.000931040               0.999999985               0.000061657               0.000933675               0.999999986               0.000063372               0.000946924               0.999999986               0.000068146               0.000967743               0.999999986               0.000073867               0.000993879               0.999999986               0.000079169               0.001023645               0.999999986               0.000083478               0.001055799               0.999999986               0.000086363               0.001089273               0.999999986               0.000087020               0.001123245               0.999999986               0.000085100               0.001157198               0.999999986               0.000080301               0.001190807               0.999999986               0.000072019               0.001223484               0.999999986               0.000059923               0.001255092               0.999999986               0.000044120               0.001285440               0.999999986               0.000024537               0.001314672               0.999999986               0.000111640               0.001004963               0.999999986               0.000064422               0.000994911               0.999999986               0.000045474               0.000990451               0.999999986               0.000039481               0.000995347               0.999999986               0.000039617               0.001008754               0.999999986               0.000042590               0.001029002               0.999999986               0.000046491               0.001054437               0.999999986               0.000050432               0.001083753               0.999999986               0.000053791               0.001115902               0.999999986               0.000056138               0.001150004               0.999999986               0.000056909               0.001185208               0.999999986               0.000055505               0.001220912               0.999999986               0.000051307               0.001256680               0.999999986               0.000043806               0.001291739               0.999999986               0.000032417               0.001325682               0.999999986               0.000016456               0.001358337               0.999999986              -0.000004826               0.001389687               0.999999986               0.000075036               0.001031351               0.999999986               0.000042089               0.001034237               0.999999986               0.000027895               0.001036244               0.999999986               0.000022718               0.001044084               0.999999986               0.000022010               0.001058604               0.999999986               0.000023516               0.001079126               0.999999986               0.000025936               0.001104580               0.999999986               0.000028438               0.001133949               0.999999986               0.000030615               0.001166387               0.999999986               0.000032207               0.001201212               0.999999986               0.000032829               0.001237712               0.999999986               0.000031875               0.001275340               0.999999986               0.000028791               0.001313494               0.999999986               0.000023083               0.001351254               0.999999986               0.000013939               0.001388185               0.999999986               0.000000593               0.001423830               0.999999986              -0.000018218               0.001457884               0.999999986               0.000037707               0.001047272               0.999999986               0.000020805               0.001058534               0.999999986               0.000013184               0.001065259               0.999999986               0.000010184               0.001075555               0.999999986               0.000009543               0.001091243               0.999999986               0.000010084               0.001112250               0.999999986               0.000011217               0.001137991               0.999999986               0.000012440               0.001167709               0.999999986               0.000013479               0.001200616               0.999999986               0.000014219               0.001236096               0.999999986               0.000014530               0.001273585               0.999999986               0.000014041               0.001312619               0.999999986               0.000012485               0.001352604               0.999999986               0.000009339               0.001392541               0.999999986               0.000004298               0.001431891               0.999999986              -0.000003403               0.001470080               0.999999986              -0.000014596               0.001506587               0.999999986              -0.000000000               0.001052605               0.999999986               0.000000000               0.001066725               0.999999986              -0.000000000               0.001075119               0.999999986               0.000000000               0.001086408               0.999999986               0.000000000               0.001102633               0.999999986              -0.000000000               0.001123921               0.999999986              -0.000000000               0.001149817               0.999999986              -0.000000000               0.001179625               0.999999986               0.000000000               0.001212761               0.999999986              -0.000000000               0.001248482               0.999999986              -0.000000000               0.001286323               0.999999986               0.000000000               0.001325879               0.999999986               0.000000000               0.001366577               0.999999986              -0.000000000               0.001407436               0.999999986              -0.000000000               0.001447752               0.999999986               0.000000000               0.001486953               0.999999986              -0.000000000               0.001524439               0.999999986 </DataArray>
<DataArray type="Float64"                                    Name="defo"                                                      NumberOfComponents=" 3" format="ascii">
             -0.000404414              -0.000000000               0.999999985              -0.000444823               0.000000000               0.999999985              -0.000463364               0.000000000               0.999999985              -0.000474358               0.000000000               0.999999985              -0.000483286               0.000000000               0.999999985              -0.000492350               0.000000000               0.999999985              -0.000502202               0.000000000               0.999999985              -0.000513032               0.000000000               0.999999985              -0.000524817               0.000000000               0.999999985              -0.000537461              -0.000000000               0.999999985              -0.000551038              -0.000000000               0.999999985              -0.000565384              -0.000000000               0.999999985              -0.000580305              -0.000000000               0.999999985              -0.000595574              -0.000000000               0.999999985              -0.000610905              -0.000000000               0.999999985              -0.000625992               0.000000000               0.999999985              -0.000640298               0.000000000               0.999999985              -0.000402055               0.000102813               0.999999985              -0.000439833               0.000086052               0.999999985              -0.000456740               0.000079585               0.999999985              -0.000466794               0.000078546               0.999999985              -0.000475147               0.000080358               0.999999985              -0.000483757               0.000083808               0.999999985              -0.000493290               0.000087952               0.999999985              -0.000503907               0.000092332               0.999999985              -0.000515488               0.000096914               0.999999985              -0.000527955               0.000101525               0.999999985              -0.000541228               0.000105971               0.999999985              -0.000555139               0.000109898               0.999999985              -0.000569524               0.000113102               0.999999985              -0.000584062               0.000115367               0.999999985              -0.000598430               0.000116296               0.999999985              -0.000612383               0.000115424               0.999999985              -0.000625615               0.000111963               0.999999985              -0.000394996               0.000204544               0.999999985              -0.000425152               0.000171394               0.999999985              -0.000437572               0.000159318               0.999999985              -0.000445060               0.000157881               0.999999985              -0.000451951               0.000162061               0.999999985              -0.000459674               0.000169197               0.999999985              -0.000468577               0.000177683               0.999999985              -0.000478584               0.000186720               0.999999985              -0.000489554               0.000195956               0.999999985              -0.000501275               0.000205284               0.999999985              -0.000513496               0.000214148               0.999999985              -0.000525972               0.000221952               0.999999985              -0.000538406               0.000228460               0.999999985              -0.000550626               0.000233300               0.999999985              -0.000562439               0.000235871               0.999999985              -0.000573738               0.000235403               0.999999985              -0.000584418               0.000230872               0.999999985              -0.000383513               0.000304113               0.999999985              -0.000401714               0.000255504               0.999999985              -0.000407753               0.000239246               0.999999985              -0.000411948               0.000238498               0.999999985              -0.000417165               0.000245785               0.999999985              -0.000423927               0.000257047               0.999999985              -0.000432088               0.000270192               0.999999985              -0.000441403               0.000284096               0.999999985              -0.000451549               0.000298190               0.999999985              -0.000462061               0.000312026               0.999999985              -0.000472567               0.000325095               0.999999985              -0.000482738               0.000336837               0.999999985              -0.000492438               0.000346879               0.999999985              -0.000501536               0.000354804               0.999999985              -0.000510044               0.000360163               0.999999985              -0.000518002               0.000362304               0.999999985              -0.000525526               0.000360726               0.999999986              -0.000367929               0.000400546               0.999999985              -0.000370871               0.000338056               0.999999985              -0.000369868               0.000319325               0.999999985              -0.000371016               0.000320478               0.999999985              -0.000374986               0.000331522               0.999999985              -0.000381193               0.000347276               0.999999985              -0.000388993               0.000365255               0.999999985              -0.000397763               0.000384045               0.999999985              -0.000406974               0.000402907               0.999999985              -0.000416103               0.000421110               0.999999985              -0.000424746               0.000438154               0.999999985              -0.000432649               0.000453593               0.999999985              -0.000439630               0.000467156               0.999999985              -0.000445847               0.000478729               0.999999986              -0.000451367               0.000487928               0.999999986              -0.000456282               0.000494506               0.999999986              -0.000460943               0.000498657               0.999999986              -0.000348439               0.000492975               0.999999985              -0.000334231               0.000418921               0.999999985              -0.000326873               0.000399370               0.999999985              -0.000326063               0.000403324               0.999999985              -0.000329762               0.000418483               0.999999985              -0.000336205               0.000438890               0.999999985              -0.000344092               0.000461636               0.999999985              -0.000352544               0.000485073               0.999999985              -0.000360848               0.000508385               0.999999985              -0.000368536               0.000530747               0.999999985              -0.000375232               0.000551594               0.999999985              -0.000380826               0.000570794               0.999999986              -0.000385465               0.000588156               0.999999986              -0.000389169               0.000603576               0.999999986              -0.000391897               0.000616991               0.999999986              -0.000393971               0.000628525               0.999999986              -0.000395667               0.000638919               0.999999986              -0.000325549               0.000580394               0.999999985              -0.000293786               0.000497913               0.999999985              -0.000281742               0.000478999               0.999999985              -0.000280649               0.000486207               0.999999985              -0.000285296               0.000505422               0.999999985              -0.000292621               0.000530341               0.999999985              -0.000300962               0.000557612               0.999999985              -0.000309225               0.000585322               0.999999985              -0.000316593               0.000612671               0.999999985              -0.000322650               0.000638866               0.999999985              -0.000327343               0.000663476               0.999999986              -0.000330709               0.000686440               0.999999986              -0.000332711               0.000707698               0.999999986              -0.000333487               0.000727044               0.999999986              -0.000333307               0.000744764               0.999999986              -0.000332392               0.000761403               0.999999986              -0.000330833               0.000777291               0.999999986              -0.000299722               0.000661871               0.999999985              -0.000251599               0.000574784               0.999999985              -0.000237263               0.000557505               0.999999985              -0.000237606               0.000567954               0.999999985              -0.000244022               0.000591039               0.999999985              -0.000252699               0.000620080               0.999999985              -0.000261580               0.000651470               0.999999985              -0.000269411               0.000683136               0.999999985              -0.000275642               0.000714179               0.999999986              -0.000279963               0.000743886               0.999999986              -0.000282384               0.000772056               0.999999986              -0.000282924               0.000798710               0.999999986              -0.000281810               0.000823641               0.999999986              -0.000279333               0.000846966               0.999999986              -0.000275609               0.000869222               0.999999986              -0.000270812               0.000890549               0.999999986              -0.000265124               0.000910911               0.999999986              -0.000272056               0.000735945               0.999999985              -0.000209355               0.000649321               0.999999985              -0.000195801               0.000633926               0.999999985              -0.000198628               0.000647310               0.999999985              -0.000207245               0.000674007               0.999999985              -0.000217298               0.000706899               0.999999985              -0.000226419               0.000742097               0.999999985              -0.000233573               0.000777432               0.999999986              -0.000238228               0.000811874               0.999999986              -0.000240201               0.000845004               0.999999986              -0.000239585               0.000876665               0.999999986              -0.000236660               0.000906719               0.999999986              -0.000231700               0.000935372               0.999999986              -0.000225197               0.000962445               0.999999986              -0.000217550               0.000987843               0.999999986              -0.000209196               0.001012071               0.999999986              -0.000200229               0.001035110               0.999999986              -0.000244165               0.000805332               0.999999985              -0.000175015               0.000729953               0.999999985              -0.000158326               0.000709918               0.999999985              -0.000159517               0.000717442               0.999999985              -0.000167016               0.000738953               0.999999985              -0.000176490               0.000767885               0.999999985              -0.000185513               0.000800404               0.999999985              -0.000192850               0.000834256               0.999999986              -0.000197876               0.000868003               0.999999986              -0.000200224               0.000901178               0.999999986              -0.000199982               0.000933444               0.999999986              -0.000197098               0.000964621               0.999999986              -0.000191949               0.000994660               0.999999986              -0.000184925               0.001023277               0.999999986              -0.000176107               0.001050323               0.999999986              -0.000166333               0.001075960               0.999999986              -0.000156261               0.001100227               0.999999986              -0.000213653               0.000868008               0.999999985              -0.000143489               0.000807168               0.999999985              -0.000123778               0.000787045               0.999999985              -0.000122597               0.000790586               0.999999985              -0.000128389               0.000807889               0.999999985              -0.000136709               0.000833222               0.999999985              -0.000145142               0.000863090               0.999999986              -0.000152355               0.000895317               0.999999986              -0.000157494               0.000928375               0.999999986              -0.000160138               0.000961485               0.999999986              -0.000160233               0.000994092               0.999999986              -0.000157700               0.001026010               0.999999986              -0.000152303               0.001057125               0.999999986              -0.000144555               0.001087063               0.999999986              -0.000134508               0.001115603               0.999999986              -0.000122399               0.001142893               0.999999986              -0.000109302               0.001168929               0.999999986              -0.000181238               0.000922673               0.999999985              -0.000114703               0.000878815               0.999999985              -0.000093180               0.000861919               0.999999985              -0.000089529               0.000863943               0.999999985              -0.000093276               0.000878404               0.999999985              -0.000099988               0.000900932               0.999999986              -0.000107293               0.000928556               0.999999986              -0.000113720               0.000959342               0.999999986              -0.000118695               0.000991874               0.999999986              -0.000121653               0.001024990               0.999999986              -0.000122027               0.001058090               0.999999986              -0.000119730               0.001090826               0.999999986              -0.000114540               0.001122964               0.999999986              -0.000106186               0.001154077               0.999999986              -0.000094820               0.001184136               0.999999986              -0.000080584               0.001212886               0.999999986              -0.000064176               0.001240463               0.999999986              -0.000147146               0.000968555               0.999999985              -0.000088448               0.000942323               0.999999985              -0.000067046               0.000931040               0.999999985              -0.000061657               0.000933675               0.999999986              -0.000063372               0.000946924               0.999999986              -0.000068146               0.000967743               0.999999986              -0.000073867               0.000993879               0.999999986              -0.000079169               0.001023645               0.999999986              -0.000083478               0.001055799               0.999999986              -0.000086363               0.001089273               0.999999986              -0.000087020               0.001123245               0.999999986              -0.000085100               0.001157198               0.999999986              -0.000080301               0.001190807               0.999999986              -0.000072019               0.001223484               0.999999986              -0.000059923               0.001255092               0.999999986              -0.000044120               0.001285440               0.999999986              -0.000024537               0.001314672               0.999999986              -0.000111640               0.001004963               0.999999986              -0.000064422               0.000994911               0.999999986              -0.000045474               0.000990451               0.999999986              -0.000039481               0.000995347               0.999999986              -0.000039617               0.001008754               0.999999986              -0.000042590               0.001029002               0.999999986              -0.000046491               0.001054437               0.999999986              -0.000050432               0.001083753               0.999999986              -0.000053791               0.001115902               0.999999986              -0.000056138               0.001150004               0.999999986              -0.000056909               0.001185208               0.999999986              -0.000055505               0.001220912               0.999999986              -0.000051307               0.001256680               0.999999986              -0.000043806               0.001291739               0.999999986              -0.000032417               0.001325682               0.999999986              -0.000016456               0.001358337               0.999999986               0.000004826               0.001389687               0.999999986              -0.000075036               0.001031351               0.999999986              -0.000042089               0.001034237               0.999999986              -0.000027895               0.001036244               0.999999986              -0.000022718               0.001044084               0.999999986              -0.000022010               0.001058604               0.999999986              -0.000023516               0.001079126               0.999999986              -0.000025936               0.001104580               0.999999986              -0.000028438               0.001133949               0.999999986              -0.000030615               0.001166387               0.999999986              -0.000032207               0.001201212               0.999999986              -0.000032829               0.001237712               0.999999986              -0.000031875               0.001275340               0.999999986              -0.000028791               0.001313494               0.999999986              -0.000023083               0.001351254               0.999999986              -0.000013939               0.001388185               0.999999986              -0.000000593               0.001423830               0.999999986               0.000018218               0.001457884               0.999999986              -0.000037707               0.001047272               0.999999986              -0.000020805               0.001058534               0.999999986              -0.000013184               0.001065259               0.999999986              -0.000010184               0.001075555               0.999999986              -0.000009543               0.001091243               0.999999986              -0.000010084               0.001112250               0.999999986              -0.000011217               0.001137991               0.999999986              -0.000012440               0.001167709               0.999999986              -0.000013479               0.001200616               0.999999986              -0.000014219               0.001236096               0.999999986              -0.000014530               0.001273585               0.999999986              -0.000014041               0.001312619               0.999999986              -0.000012485               0.001352604               0.999999986              -0.000009339               0.001392541               0.999999986              -0.000004298               0.001431891               0.999999986               0.000003403               0.001470080               0.999999986               0.000014596               0.001506587               0.999999986              -0.000000000               0.001052605               0.999999986               0.000000000               0.001066725               0.999999986              -0.000000000               0.001075119               0.999999986               0.000000000               0.001086408               0.999999986               0.000000000               0.001102633               0.999999986              -0.000000000               0.001123921               0.999999986              -0.000000000               0.001149817               0.999999986              -0.000000000               0.001179625               0.999999986               0.000000000               0.001212761               0.999999986              -0.000000000               0.001248482               0.999999986              -0.000000000               0.001286323               0.999999986               0.000000000               0.001325879               0.999999986               0.000000000               0.001366577               0.999999986              -0.000000000               0.001407436               0.999999986              -0.000000000               0.001447752               0.999999986               0.000000000               0.001486953               0.999999986              -0.000000000               0.001524439               0.999999986              -0.000404414              -0.000000000               0.999999985              -0.000444823               0.000000000               0.999999985              -0.000463364               0.000000000               0.999999985              -0.000474358               0.000000000               0.999999985              -0.000483286               0.000000000               0.999999985              -0.000492350               0.000000000               0.999999985              -0.000502202               0.000000000               0.999999985              -0.000513032               0.000000000               0.999999985              -0.000524817               0.000000000               0.999999985              -0.000537461              -0.000000000               0.999999985              -0.000551038              -0.000000000               0.999999985              -0.000565384              -0.000000000               0.999999985              -0.000580305              -0.000000000               0.999999985              -0.000595574              -0.000000000               0.999999985              -0.000610905              -0.000000000               0.999999985              -0.000625992               0.000000000               0.999999985              -0.000640298               0.000000000               0.999999985              -0.000402055              -0.000102813               0.999999985              -0.000439833              -0.000086052               0.999999985              -0.000456740              -0.000079585               0.999999985              -0.000466794              -0.000078546               0.999999985              -0.000475147              -0.000080358               0.999999985              -0.000483757              -0.000083808               0.999999985              -0.000493290              -0.000087952               0.999999985              -0.000503907              -0.000092332               0.999999985              -0.000515488              -0.000096914               0.999999985              -0.000527955              -0.000101525               0.999999985              -0.000541228              -0.000105971               0.999999985              -0.000555139              -0.000109898               0.999999985              -0.000569524              -0.000113102               0.999999985              -0.000584062              -0.000115367               0.999999985              -0.000598430              -0.000116296               0.999999985              -0.000612383              -0.000115424               0.999999985              -0.000625615              -0.000111963               0.999999985              -0.000394996              -0.000204544               0.999999985              -0.000425152              -0.000171394               0.999999985              -0.000437572              -0.000159318               0.999999985              -0.000445060              -0.000157881               0.999999985              -0.000451951              -0.000162061               0.999999985              -0.000459674              -0.000169197               0.999999985              -0.000468577              -0.000177683               0.999999985              -0.000478584              -0.000186720               0.999999985              -0.000489554              -0.000195956               0.999999985              -0.000501275              -0.000205284               0.999999985              -0.000513496              -0.000214148               0.999999985              -0.000525972              -0.000221952               0.999999985              -0.000538406              -0.000228460               0.999999985              -0.000550626              -0.000233300               0.999999985              -0.000562439              -0.000235871               0.999999985              -0.000573738              -0.000235403               0.999999985              -0.000584418              -0.000230872               0.999999985              -0.000383513              -0.000304113               0.999999985              -0.000401714              -0.000255504               0.999999985              -0.000407753              -0.000239246               0.999999985              -0.000411948              -0.000238498               0.999999985              -0.000417165              -0.000245785               0.999999985              -0.000423927              -0.000257047               0.999999985              -0.000432088              -0.000270192               0.999999985              -0.000441403              -0.000284096               0.999999985              -0.000451549              -0.000298190               0.999999985              -0.000462061              -0.000312026               0.999999985              -0.000472567              -0.000325095               0.999999985              -0.000482738              -0.000336837               0.999999985              -0.000492438              -0.000346879               0.999999985              -0.000501536              -0.000354804               0.999999985              -0.000510044              -0.000360163               0.999999985              -0.000518002              -0.000362304               0.999999985              -0.000525526              -0.000360726               0.999999986              -0.000367929              -0.000400546               0.999999985              -0.000370871              -0.000338056               0.999999985              -0.000369868              -0.000319325               0.999999985              -0.000371016              -0.000320478               0.999999985              -0.000374986              -0.000331522               0.999999985              -0.000381193              -0.000347276               0.999999985              -0.000388993              -0.000365255               0.999999985              -0.000397763              -0.000384045               0.999999985              -0.000406974              -0.000402907               0.999999985              -0.000416103              -0.000421110               0.999999985              -0.000424746              -0.000438154               0.999999985              -0.000432649              -0.000453593               0.999999985              -0.000439630              -0.000467156               0.999999985              -0.000445847              -0.000478729               0.999999986              -0.000451367              -0.000487928               0.999999986              -0.000456282              -0.000494506               0.999999986              -0.000460943              -0.000498657               0.999999986              -0.000348439              -0.000492975               0.999999985              -0.000334231              -0.000418921               0.999999985              -0.000326873              -0.000399370               0.999999985              -0.000326063              -0.000403324               0.999999985              -0.000329762              -0.000418483               0.999999985              -0.000336205              -0.000438890               0.999999985              -0.000344092              -0.000461636               0.999999985              -0.000352544              -0.000485073               0.999999985              -0.000360848              -0.000508385               0.999999985              -0.000368536              -0.000530747               0.999999985              -0.000375232              -0.000551594               0.999999985              -0.000380826              -0.000570794               0.999999986              -0.000385465              -0.000588156               0.999999986              -0.000389169              -0.000603576               0.999999986              -0.000391897              -0.000616991               0.999999986              -0.000393971              -0.000628525               0.999999986              -0.000395667              -0.000638919               0.999999986              -0.000325549              -0.000580394               0.999999985              -0.000293786              -0.000497913               0.999999985              -0.000281742              -0.000478999               0.999999985              -0.000280649              -0.000486207               0.999999985              -0.000285296              -0.000505422               0.999999985              -0.000292621              -0.000530341               0.999999985              -0.000300962              -0.000557612               0.999999985              -0.000309225              -0.000585322               0.999999985              -0.000316593              -0.000612671               0.999999985              -0.000322650              -0.000638866               0.999999985              -0.000327343              -0.000663476               0.999999986              -0.000330709              -0.000686440               0.999999986              -0.000332711              -0.000707698               0.999999986              -0.000333487              -0.000727044               0.999999986              -0.000333307              -0.000744764               0.999999986              -0.000332392              -0.000761403               0.999999986              -0.000330833              -0.000777291               0.999999986              -0.000299722              -0.000661871               0.999999985              -0.000251599              -0.000574784               0.999999985              -0.000237263              -0.000557505               0.999999985              -0.000237606              -0.000567954               0.999999985              -0.000244022              -0.000591039               0.999999985              -0.000252699              -0.000620080               0.999999985              -0.000261580              -0.000651470               0.999999985              -0.000269411              -0.000683136               0.999999985              -0.000275642              -0.000714179               0.999999986              -0.000279963              -0.000743886               0.999999986              -0.000282384              -0.000772056               0.999999986              -0.000282924              -0.000798710               0.999999986              -0.000281810              -0.000823641               0.999999986              -0.000279333              -0.000846966               0.999999986              -0.000275609              -0.000869222               0.999999986              -0.000270812              -0.000890549               0.999999986              -0.000265124              -0.000910911               0.999999986              -0.000272056              -0.000735945               0.999999985              -0.000209355              -0.000649321               0.999999985              -0.000195801              -0.000633926               0.999999985              -0.000198628              -0.000647310               0.999999985              -0.000207245              -0.000674007               0.999999985              -0.000217298              -0.000706899               0.999999985              -0.000226419              -0.000742097               0.999999985              -0.000233573              -0.000777432               0.999999986              -0.000238228              -0.000811874               0.999999986              -0.000240201              -0.000845004               0.999999986              -0.000239585              -0.000876665               0.999999986              -0.000236660              -0.000906719               0.999999986              -0.000231700              -0.000935372               0.999999986              -0.000225197              -0.000962445               0.999999986              -0.000217550              -0.000987843               0.999999986              -0.000209196              -0.001012071               0.999999986              -0.000200229              -0.001035110               0.999999986              -0.000244165              -0.000805332               0.999999985              -0.000175015              -0.000729953               0.999999985              -0.000158326              -0.000709918               0.999999985              -0.000159517              -0.000717442               0.999999985              -0.000167016              -0.000738953               0.999999985              -0.000176490              -0.000767885               0.999999985              -0.000185513              -0.000800404               0.999999985              -0.000192850              -0.000834256               0.999999986              -0.000197876              -0.000868003               0.999999986              -0.000200224              -0.000901178               0.999999986              -0.000199982              -0.000933444               0.999999986              -0.000197098              -0.000964621               0.999999986              -0.000191949              -0.000994660               0.999999986              -0.000184925              -0.001023277               0.999999986              -0.000176107              -0.001050323               0.999999986              -0.000166333              -0.001075960               0.999999986              -0.000156261              -0.001100227               0.999999986              -0.000213653              -0.000868008               0.999999985              -0.000143489              -0.000807168               0.999999985              -0.000123778              -0.000787045               0.999999985              -0.000122597              -0.000790586               0.999999985              -0.000128389              -0.000807889               0.999999985              -0.000136709              -0.000833222               0.999999985              -0.000145142              -0.000863090               0.999999986              -0.000152355              -0.000895317               0.999999986              -0.000157494              -0.000928375               0.999999986              -0.000160138              -0.000961485               0.999999986              -0.000160233              -0.000994092               0.999999986              -0.000157700              -0.001026010               0.999999986              -0.000152303              -0.001057125               0.999999986              -0.000144555              -0.001087063               0.999999986              -0.000134508              -0.001115603               0.999999986              -0.000122399              -0.001142893               0.999999986              -0.000109302              -0.001168929               0.999999986              -0.000181238              -0.000922673               0.999999985              -0.000114703              -0.000878815               0.999999985              -0.000093180              -0.000861919               0.999999985              -0.000089529              -0.000863943               0.999999985              -0.000093276              -0.000878404               0.999999985              -0.000099988              -0.000900932               0.999999986              -0.000107293              -0.000928556               0.999999986              -0.000113720              -0.000959342               0.999999986              -0.000118695              -0.000991874               0.999999986              -0.000121653              -0.001024990               0.999999986              -0.000122027              -0.001058090               0.999999986              -0.000119730              -0.001090826               0.999999986              -0.000114540              -0.001122964               0.999999986              -0.000106186              -0.001154077               0.999999986              -0.000094820              -0.001184136               0.999999986              -0.000080584              -0.001212886               0.999999986              -0.000064176              -0.001240463               0.999999986              -0.000147146              -0.000968555               0.999999985              -0.000088448              -0.000942323               0.999999985              -0.000067046              -0.000931040               0.999999985              -0.000061657              -0.000933675               0.999999986              -0.000063372              -0.000946924               0.999999986              -0.000068146              -0.000967743               0.999999986              -0.000073867              -0.000993879               0.999999986              -0.000079169              -0.001023645               0.999999986              -0.000083478              -0.001055799               0.999999986              -0.000086363              -0.001089273               0.999999986              -0.000087020              -0.001123245               0.999999986              -0.000085100              -0.001157198               0.999999986              -0.000080301              -0.001190807               0.999999986              -0.000072019              -0.001223484               0.999999986              -0.000059923              -0.001255092               0.999999986              -0.000044120              -0.001285440               0.999999986              -0.000024537              -0.001314672               0.999999986              -0.000111640              -0.001004963               0.999999986              -0.000064422              -0.000994911               0.999999986              -0.000045474              -0.000990451               0.999999986              -0.000039481              -0.000995347               0.999999986              -0.000039617              -0.001008754               0.999999986              -0.000042590              -0.001029002               0.999999986              -0.000046491              -0.001054437               0.999999986              -0.000050432              -0.001083753               0.999999986              -0.000053791              -0.001115902               0.999999986              -0.000056138              -0.001150004               0.999999986              -0.000056909              -0.001185208               0.999999986              -0.000055505              -0.001220912               0.999999986              -0.000051307              -0.001256680               0.999999986              -0.000043806              -0.001291739               0.999999986              -0.000032417              -0.001325682               0.999999986              -0.000016456              -0.001358337               0.999999986               0.000004826              -0.001389687               0.999999986              -0.000075036              -0.001031351               0.999999986              -0.000042089              -0.001034237               0.999999986              -0.000027895              -0.001036244               0.999999986              -0.000022718              -0.001044084               0.999999986              -0.000022010              -0.001058604               0.999999986              -0.000023516              -0.001079126               0.999999986              -0.000025936              -0.001104580               0.999999986              -0.000028438              -0.001133949               0.999999986              -0.000030615              -0.001166387               0.999999986              -0.000032207              -0.001201212               0.999999986              -0.000032829              -0.001237712               0.999999986              -0.000031875              -0.001275340               0.999999986              -0.000028791              -0.001313494               0.999999986              -0.000023083              -0.001351254               0.999999986              -0.000013939              -0.001388185               0.999999986              -0.000000593              -0.001423830               0.999999986               0.000018218              -0.001457884               0.999999986              -0.000037707              -0.001047272               0.999999986              -0.000020805              -0.001058534               0.999999986              -0.000013184              -0.001065259               0.999999986              -0.000010184              -0.001075555               0.999999986              -0.000009543              -0.001091243               0.999999986              -0.000010084              -0.001112250               0.999999986              -0.000011217              -0.001137991               0.999999986              -0.000012440              -0.001167709               0.999999986              -0.000013479              -0.001200616               0.999999986              -0.000014219              -0.001236096               0.999999986              -0.000014530              -0.001273585               0.999999986              -0.000014041              -0.001312619               0.999999986              -0.000012485              -0.001352604               0.999999986              -0.000009339              -0.001392541               0.999999986              -0.000004298              -0.001431891               0.999999986               0.000003403              -0.001470080               0.999999986               0.000014596              -0.001506587               0.999999986              -0.000000000              -0.001052605               0.999999986               0.000000000              -0.001066725               0.999999986              -0.000000000              -0.001075119               0.999999986               0.000000000              -0.001086408               0.999999986               0.000000000              -0.001102633               0.999999986               0.000000000              -0.001123921               0.999999986               0.000000000              -0.001149817               0.999999986              -0.000000000              -0.001179625               0.999999986              -0.000000000              -0.001212761               0.999999986               0.000000000              -0.001248482               0.999999986              -0.000000000              -0.001286323               0.999999986              -0.000000000              -0.001325879               0.999999986              -0.000000000              -0.001366577               0.999999986               0.000000000              -0.001407436               0.999999986               0.000000000              -0.001447752               0.999999986              -0.000000000              -0.001486953               0.999999986              -0.000000000              -0.001524439               0.999999986               0.000404414              -0.000000000               0.999999985               0.000444823              -0.000000000               0.999999985               0.000463364              -0.000000000               0.999999985               0.000474358               0.000000000               0.999999985               0.000483286               0.000000000               0.999999985               0.000492350               0.000000000               0.999999985               0.000502202              -0.000000000               0.999999985               0.000513032              -0.000000000               0.999999985               0.000524817              -0.000000000               0.999999985               0.000537461               0.000000000               0.999999985               0.000551038               0.000000000               0.999999985               0.000565384               0.000000000               0.999999985               0.000580305               0.000000000               0.999999985               0.000595574               0.000000000               0.999999985               0.000610905               0.000000000               0.999999985               0.000625992               0.000000000               0.999999985               0.000640298               0.000000000               0.999999985               0.000402055              -0.000102813               0.999999985               0.000439833              -0.000086052               0.999999985               0.000456740              -0.000079585               0.999999985               0.000466794              -0.000078546               0.999999985               0.000475147              -0.000080358               0.999999985               0.000483757              -0.000083808               0.999999985               0.000493290              -0.000087952               0.999999985               0.000503907              -0.000092332               0.999999985               0.000515488              -0.000096914               0.999999985               0.000527955              -0.000101525               0.999999985               0.000541228              -0.000105971               0.999999985               0.000555139              -0.000109898               0.999999985               0.000569524              -0.000113102               0.999999985               0.000584062              -0.000115367               0.999999985               0.000598430              -0.000116296               0.999999985               0.000612383              -0.000115424               0.999999985               0.000625615              -0.000111963               0.999999985               0.000394996              -0.000204544               0.999999985               0.000425152              -0.000171394               0.999999985               0.000437572              -0.000159318               0.999999985               0.000445060              -0.000157881               0.999999985               0.000451951              -0.000162061               0.999999985               0.000459674              -0.000169197               0.999999985               0.000468577              -0.000177683               0.999999985               0.000478584              -0.000186720               0.999999985               0.000489554              -0.000195956               0.999999985               0.000501275              -0.000205284               0.999999985               0.000513496              -0.000214148               0.999999985               0.000525972              -0.000221952               0.999999985               0.000538406              -0.000228460               0.999999985               0.000550626              -0.000233300               0.999999985               0.000562439              -0.000235871               0.999999985               0.000573738              -0.000235403               0.999999985               0.000584418              -0.000230872               0.999999985               0.000383513              -0.000304113               0.999999985               0.000401714              -0.000255504               0.999999985               0.000407753              -0.000239246               0.999999985               0.000411948              -0.000238498               0.999999985               0.000417165              -0.000245785               0.999999985               0.000423927              -0.000257047               0.999999985               0.000432088              -0.000270192               0.999999985               0.000441403              -0.000284096               0.999999985               0.000451549              -0.000298190               0.999999985               0.000462061              -0.000312026               0.999999985               0.000472567              -0.000325095               0.999999985               0.000482738              -0.000336837               0.999999985               0.000492438              -0.000346879               0.999999985               0.000501536              -0.000354804               0.999999985               0.000510044              -0.000360163               0.999999985               0.000518002              -0.000362304               0.999999985               0.000525526              -0.000360726               0.999999986               0.000367929              -0.000400546               0.999999985               0.000370871              -0.000338056               0.999999985               0.000369868              -0.000319325               0.999999985               0.000371016              -0.000320478               0.999999985               0.000374986              -0.000331522               0.999999985               0.000381193              -0.000347276               0.999999985               0.000388993              -0.000365255               0.999999985               0.000397763              -0.000384045               0.999999985               0.000406974              -0.000402907               0.999999985               0.000416103              -0.000421110               0.999999985               0.000424746              -0.000438154               0.999999985               0.000432649              -0.000453593               0.999999985               0.000439630              -0.000467156               0.999999985               0.000445847              -0.000478729               0.999999986               0.000451367              -0.000487928               0.999999986               0.000456282              -0.000494506               0.999999986               0.000460943              -0.000498657               0.999999986               0.000348439              -0.000492975               0.999999985               0.000334231              -0.000418921               0.999999985               0.000326873              -0.000399370               0.999999985               0.000326063              -0.000403324               0.999999985               0.000329762              -0.000418483               0.999999985               0.000336205              -0.000438890               0.999999985               0.000344092              -0.000461636               0.999999985               0.000352544              -0.000485073               0.999999985               0.000360848              -0.000508385               0.999999985               0.000368536              -0.000530747               0.999999985               0.000375232              -0.000551594               0.999999985               0.000380826              -0.000570794               0.999999986               0.000385465              -0.000588156               0.999999986               0.000389169              -0.000603576               0.999999986               0.000391897              -0.000616991               0.999999986               0.000393971              -0.000628525               0.999999986               0.000395667              -0.000638919               0.999999986               0.000325549              -0.000580394               0.999999985               0.000293786              -0.000497913               0.999999985               0.000281742              -0.000478999               0.999999985               0.000280649              -0.000486207               0.999999985               0.000285296              -0.000505422               0.999999985               0.000292621              -0.000530341               0.999999985               0.000300962              -0.000557612               0.999999985               0.000309225              -0.000585322               0.999999985               0.000316593              -0.000612671               0.999999985               0.000322650              -0.000638866               0.999999985               0.000327343              -0.000663476               0.999999986               0.000330709              -0.000686440               0.999999986               0.000332711              -0.000707698               0.999999986               0.000333487              -0.000727044               0.999999986               0.000333307              -0.000744764               0.999999986               0.000332392              -0.000761403               0.999999986               0.000330833              -0.000777291               0.999999986               0.000299722              -0.000661871               0.999999985               0.000251599              -0.000574784               0.999999985               0.000237263              -0.000557505               0.999999985               0.000237606              -0.000567954               0.999999985               0.000244022              -0.000591039               0.999999985               0.000252699              -0.000620080               0.999999985               0.000261580              -0.000651470               0.999999985               0.000269411              -0.000683136               0.999999985               0.000275642              -0.000714179               0.999999986               0.000279963              -0.000743886               0.999999986               0.000282384              -0.000772056               0.999999986               0.000282924              -0.000798710               0.999999986               0.000281810              -0.000823641               0.999999986               0.000279333              -0.000846966               0.999999986               0.000275609              -0.000869222               0.999999986               0.000270812              -0.000890549               0.999999986               0.000265124              -0.000910911               0.999999986               0.000272056              -0.000735945               0.999999985               0.000209355              -0.000649321               0.999999985               0.000195801              -0.000633926               0.999999985               0.000198628              -0.000647310               0.999999985               0.000207245              -0.000674007               0.999999985               0.000217298              -0.000706899               0.999999985               0.000226419              -0.000742097               0.999999985               0.000233573              -0.000777432               0.999999986               0.000238228              -0.000811874               0.999999986               0.000240201              -0.000845004               0.999999986               0.000239585              -0.000876665               0.999999986               0.000236660              -0.000906719               0.999999986               0.000231700              -0.000935372               0.999999986               0.000225197              -0.000962445               0.999999986               0.000217550              -0.000987843               0.999999986               0.000209196              -0.001012071               0.999999986               0.000200229              -0.001035110               0.999999986               0.000244165              -0.000805332               0.999999985               0.000175015              -0.000729953               0.999999985               0.000158326              -0.000709918               0.999999985               0.000159517              -0.000717442               0.999999985               0.000167016              -0.000738953               0.999999985               0.000176490              -0.000767885               0.999999985               0.000185513              -0.000800404               0.999999985               0.000192850              -0.000834256               0.999999986               0.000197876              -0.000868003               0.999999986               0.000200224              -0.000901178               0.999999986               0.000199982              -0.000933444               0.999999986               0.000197098              -0.000964621               0.999999986               0.000191949              -0.000994660               0.999999986               0.000184925              -0.001023277               0.999999986               0.000176107              -0.001050323               0.999999986               0.000166333              -0.001075960               0.999999986               0.000156261              -0.001100227               0.999999986               0.000213653              -0.000868008               0.999999985               0.000143489              -0.000807168               0.999999985               0.000123778              -0.000787045               0.999999985               0.000122597              -0.000790586               0.999999985               0.000128389              -0.000807889               0.999999985               0.000136709              -0.000833222               0.999999985               0.000145142              -0.000863090               0.999999986               0.000152355              -0.000895317               0.999999986               0.000157494              -0.000928375               0.999999986               0.000160138              -0.000961485               0.999999986               0.000160233              -0.000994092               0.999999986               0.000157700              -0.001026010               0.999999986               0.000152303              -0.001057125               0.999999986               0.000144555              -0.001087063               0.999999986               0.000134508              -0.001115603               0.999999986               0.000122399              -0.001142893               0.999999986               0.000109302              -0.001168929               0.999999986               0.000181238              -0.000922673               0.999999985               0.000114703              -0.000878815               0.999999985               0.000093180              -0.000861919               0.999999985               0.000089529              -0.000863943               0.999999985               0.000093276              -0.000878404               0.999999985               0.000099988              -0.000900932               0.999999986               0.000107293              -0.000928556               0.999999986               0.000113720              -0.000959342               0.999999986               0.000118695              -0.000991874               0.999999986               0.000121653              -0.001024990               0.999999986               0.000122027              -0.001058090               0.999999986               0.000119730              -0.001090826               0.999999986               0.000114540              -0.001122964               0.999999986               0.000106186              -0.001154077               0.999999986               0.000094820              -0.001184136               0.999999986               0.000080584              -0.001212886               0.999999986               0.000064176              -0.001240463               0.999999986               0.000147146              -0.000968555               0.999999985               0.000088448              -0.000942323               0.999999985               0.000067046              -0.000931040               0.999999985               0.000061657              -0.000933675               0.999999986               0.000063372              -0.000946924               0.999999986               0.000068146              -0.000967743               0.999999986               0.000073867              -0.000993879               0.999999986               0.000079169              -0.001023645               0.999999986               0.000083478              -0.001055799               0.999999986               0.000086363              -0.001089273               0.999999986               0.000087020              -0.001123245               0.999999986               0.000085100              -0.001157198               0.999999986               0.000080301              -0.001190807               0.999999986               0.000072019              -0.001223484               0.999999986               0.000059923              -0.001255092               0.999999986               0.000044120              -0.001285440               0.999999986               0.000024537              -0.001314672               0.999999986               0.000111640              -0.001004963               0.999999986               0.000064422              -0.000994911               0.999999986               0.000045474              -0.000990451               0.999999986               0.000039481              -0.000995347               0.999999986               0.000039617              -0.001008754               0.999999986               0.000042590              -0.001029002               0.999999986               0.000046491              -0.001054437               0.999999986               0.000050432              -0.001083753               0.999999986               0.000053791              -0.001115902               0.999999986               0.000056138              -0.001150004               0.999999986               0.000056909              -0.001185208               0.999999986               0.000055505              -0.001220912               0.999999986               0.000051307              -0.001256680               0.999999986               0.000043806              -0.001291739               0.999999986               0.000032417              -0.001325682               0.999999986               0.000016456              -0.001358337               0.999999986              -0.000004826              -0.001389687               0.999999986               0.000075036              -0.001031351               0.999999986               0.000042089              -0.001034237               0.999999986               0.000027895              -0.001036244               0.999999986               0.000022718              -0.001044084               0.999999986               0.000022010              -0.001058604               0.999999986               0.000023516              -0.001079126               0.999999986               0.000025936              -0.001104580               0.999999986               0.000028438              -0.001133949               0.999999986               0.000030615              -0.001166387               0.999999986               0.000032207              -0.001201212               0.999999986               0.000032829              -0.001237712               0.999999986               0.000031875              -0.001275340               0.999999986               0.000028791              -0.001313494               0.999999986               0.000023083              -0.001351254               0.999999986               0.000013939              -0.001388185               0.999999986               0.000000593              -0.001423830               0.999999986              -0.000018218              -0.001457884               0.999999986               0.000037707              -0.001047272               0.999999986               0.000020805              -0.001058534               0.999999986               0.000013184              -0.001065259               0.999999986               0.000010184              -0.001075555               0.999999986               0.000009543              -0.001091243               0.999999986               0.000010084              -0.001112250               0.999999986               0.000011217              -0.001137991               0.999999986               0.000012440              -0.001167709               0.999999986               0.000013479              -0.001200616               0.999999986               0.000014219              -0.001236096               0.999999986               0.000014530              -0.001273585               0.999999986               0.000014041              -0.001312619               0.999999986               0.000012485              -0.001352604               0.999999986               0.000009339              -0.001392541               0.999999986               0.000004298              -0.001431891               0.999999986              -0.000003403              -0.001470080               0.999999986              -0.000014596              -0.001506587               0.999999986              -0.000000000              -0.001052605               0.999999986               0.000000000              -0.001066725               0.999999986              -0.000000000              -0.001075119               0.999999986               0.000000000              -0.001086408               0.999999986               0.000000000              -0.001102633               0.999999986               0.000000000              -0.001123921               0.999999986               0.000000000              -0.001149817               0.999999986              -0.000000000              -0.001179625               0.999999986              -0.000000000              -0.001212761               0.999999986               0.000000000              -0.001248482               0.999999986              -0.000000000              -0.001286323               0.999999986              -0.000000000              -0.001325879               0.999999986              -0.000000000              -0.001366577               0.999999986               0.000000000              -0.001407436               0.999999986               0.000000000              -0.001447752               0.999999986              -0.000000000              -0.001486953               0.999999986              -0.000000000              -0.001524439               0.999999986               0.000404414              -0.000000000               0.999999985               0.000444823              -0.000000000               0.999999985               0.000463364              -0.000000000               0.999999985               0.000474358               0.000000000               0.999999985               0.000483286               0.000000000               0.999999985               0.000492350               0.000000000               0.999999985               0.000502202              -0.000000000               0.999999985               0.000513032              -0.000000000               0.999999985               0.000524817              -0.000000000               0.999999985               0.000537461               0.000000000               0.999999985               0.000551038               0.000000000               0.999999985               0.000565384               0.000000000               0.999999985               0.000580305               0.000000000               0.999999985               0.000595574               0.000000000               0.999999985               0.000610905               0.000000000               0.999999985               0.000625992               0.000000000               0.999999985               0.000640298               0.000000000               0.999999985               0.000402055               0.000102813               0.999999985               0.000439833               0.000086052               0.999999985               0.000456740               0.000079585               0.999999985               0.000466794               0.000078546               0.999999985               0.000475147               0.000080358               0.999999985               0.000483757               0.000083808               0.999999985               0.000493290               0.000087952               0.999999985               0.000503907               0.000092332               0.999999985               0.000515488               0.000096914               0.999999985               0.000527955               0.000101525               0.999999985               0.000541228               0.000105971               0.999999985               0.000555139               0.000109898               0.999999985               0.000569524               0.000113102               0.999999985               0.000584062               0.000115367               0.999999985               0.000598430               0.000116296               0.999999985               0.000612383               0.000115424               0.999999985               0.000625615               0.000111963               0.999999985               0.000394996               0.000204544               0.999999985               0.000425152               0.000171394               0.999999985               0.000437572               0.000159318               0.999999985               0.000445060               0.000157881               0.999999985               0.000451951               0.000162061               0.999999985               0.000459674               0.000169197               0.999999985               0.000468577               0.000177683               0.999999985               0.000478584               0.000186720               0.999999985               0.000489554               0.000195956               0.999999985               0.000501275               0.000205284               0.999999985               0.000513496               0.000214148               0.999999985               0.000525972               0.000221952               0.999999985               0.000538406               0.000228460               0.999999985               0.000550626               0.000233300               0.999999985               0.000562439               0.000235871               0.999999985               0.000573738               0.000235403               0.999999985               0.000584418               0.000230872               0.999999985               0.000383513               0.000304113               0.999999985               0.000401714               0.000255504               0.999999985               0.000407753               0.000239246               0.999999985               0.000411948               0.000238498               0.999999985               0.000417165               0.000245785               0.999999985               0.000423927               0.000257047               0.999999985               0.000432088               0.000270192               0.999999985               0.000441403               0.000284096               0.999999985               0.000451549               0.000298190               0.999999985               0.000462061               0.000312026               0.999999985               0.000472567               0.000325095               0.999999985               0.000482738               0.000336837               0.999999985               0.000492438               0.000346879               0.999999985               0.000501536               0.000354804               0.999999985               0.000510044               0.000360163               0.999999985               0.000518002               0.000362304               0.999999985               0.000525526               0.000360726               0.999999986               0.000367929               0.000400546               0.999999985               0.000370871               0.000338056               0.999999985               0.000369868               0.000319325               0.999999985               0.000371016               0.000320478               0.999999985               0.000374986               0.000331522               0.999999985               0.000381193               0.000347276               0.999999985               0.000388993               0.000365255               0.999999985               0.000397763               0.000384045               0.999999985               0.000406974               0.000402907               0.999999985               0.000416103               0.000421110               0.999999985               0.000424746               0.000438154               0.999999985               0.000432649               0.000453593               0.999999985               0.000439630               0.000467156               0.999999985               0.000445847               0.000478729               0.999999986               0.000451367               0.000487928               0.999999986               0.000456282               0.000494506               0.999999986               0.000460943               0.000498657               0.999999986               0.000348439               0.000492975               0.999999985               0.000334231               0.000418921               0.999999985               0.000326873               0.000399370               0.999999985               0.000326063               0.000403324               0.999999985               0.000329762               0.000418483               0.999999985               0.000336205               0.000438890               0.999999985               0.000344092               0.000461636               0.999999985               0.000352544               0.000485073               0.999999985               0.000360848               0.000508385               0.999999985               0.000368536               0.000530747               0.999999985               0.000375232               0.000551594               0.999999985               0.000380826               0.000570794               0.999999986               0.000385465               0.000588156               0.999999986               0.000389169               0.000603576               0.999999986               0.000391897               0.000616991               0.999999986               0.000393971               0.000628525               0.999999986               0.000395667               0.000638919               0.999999986               0.000325549               0.000580394               0.999999985               0.000293786               0.000497913               0.999999985               0.000281742               0.000478999               0.999999985               0.000280649               0.000486207               0.999999985               0.000285296               0.000505422               0.999999985               0.000292621               0.000530341               0.999999985               0.000300962               0.000557612               0.999999985               0.000309225               0.000585322               0.999999985               0.000316593               0.000612671               0.999999985               0.000322650               0.000638866               0.999999985               0.000327343               0.000663476               0.999999986               0.000330709               0.000686440               0.999999986               0.000332711               0.000707698               0.999999986               0.000333487               0.000727044               0.999999986               0.000333307               0.000744764               0.999999986               0.000332392               0.000761403               0.999999986               0.000330833               0.000777291               0.999999986               0.000299722               0.000661871               0.999999985               0.000251599               0.000574784               0.999999985               0.000237263               0.000557505               0.999999985               0.000237606               0.000567954               0.999999985               0.000244022               0.000591039               0.999999985               0.000252699               0.000620080               0.999999985               0.000261580               0.000651470               0.999999985               0.000269411               0.000683136               0.999999985               0.000275642               0.000714179               0.999999986               0.000279963               0.000743886               0.999999986               0.000282384               0.000772056               0.999999986               0.000282924               0.000798710               0.999999986               0.000281810               0.000823641               0.999999986               0.000279333               0.000846966               0.999999986               0.000275609               0.000869222               0.999999986               0.000270812               0.000890549               0.999999986               0.000265124               0.000910911               0.999999986               0.000272056               0.000735945               0.999999985               0.000209355               0.000649321               0.999999985               0.000195801               0.000633926               0.999999985               0.000198628               0.000647310               0.999999985               0.000207245               0.000674007               0.999999985               0.000217298               0.000706899               0.999999985               0.000226419               0.000742097               0.999999985               0.000233573               0.000777432               0.999999986               0.000238228               0.000811874               0.999999986               0.000240201               0.000845004               0.999999986               0.000239585               0.000876665               0.999999986               0.000236660               0.000906719               0.999999986               0.000231700               0.000935372               0.999999986               0.000225197               0.000962445               0.999999986               0.000217550               0.000987843               0.999999986               0.000209196               0.001012071               0.999999986               0.000200229               0.001035110               0.999999986               0.000244165               0.000805332               0.999999985               0.000175015               0.000729953               0.999999985               0.000158326               0.000709918               0.999999985               0.000159517               0.000717442               0.999999985               0.000167016               0.000738953               0.999999985               0.000176490               0.000767885               0.999999985               0.000185513               0.000800404               0.999999985               0.000192850               0.000834256               0.999999986               0.000197876               0.000868003               0.999999986               0.000200224               0.000901178               0.999999986               0.000199982               0.000933444               0.999999986               0.000197098               0.000964621               0.999999986               0.000191949               0.000994660               0.999999986               0.000184925               0.001023277               0.999999986               0.000176107               0.001050323               0.999999986               0.000166333               0.001075960               0.999999986               0.000156261               0.001100227               0.999999986               0.000213653               0.000868008               0.999999985               0.000143489               0.000807168               0.999999985               0.000123778               0.000787045               0.999999985               0.000122597               0.000790586               0.999999985               0.000128389               0.000807889               0.999999985               0.000136709               0.000833222               0.999999985               0.000145142               0.000863090               0.999999986               0.000152355               0.000895317               0.999999986               0.000157494               0.000928375               0.999999986               0.000160138               0.000961485               0.999999986               0.000160233               0.000994092               0.999999986               0.000157700               0.001026010               0.999999986               0.000152303               0.001057125               0.999999986               0.000144555               0.001087063               0.999999986               0.000134508               0.001115603               0.999999986               0.000122399               0.001142893               0.999999986               0.000109302               0.001168929               0.999999986               0.000181238               0.000922673               0.999999985               0.000114703               0.000878815               0.999999985               0.000093180               0.000861919               0.999999985               0.000089529               0.000863943               0.999999985               0.000093276               0.000878404               0.999999985               0.000099988               0.000900932               0.999999986               0.000107293               0.000928556               0.999999986               0.000113720               0.000959342               0.999999986               0.000118695               0.000991874               0.999999986               0.000121653               0.001024990               0.999999986               0.000122027               0.001058090               0.999999986               0.000119730               0.001090826               0.999999986               0.000114540               0.001122964               0.999999986               0.000106186               0.001154077               0.999999986               0.000094820               0.001184136               0.999999986               0.000080584               0.001212886               0.999999986               0.000064176               0.001240463               0.999999986               0.000147146               0.000968555               0.999999985               0.000088448               0.000942323               0.999999985               0.000067046               0.000931040               0.999999985               0.000061657               0.000933675               0.999999986               0.000063372               0.000946924               0.999999986               0.000068146               0.000967743               0.999999986               0.000073867               0.000993879               0.999999986               0.000079169               0.001023645               0.999999986               0.000083478               0.001055799               0.999999986               0.000086363               0.001089273               0.999999986               0.000087020               0.001123245               0.999999986               0.000085100               0.001157198               0.999999986               0.000080301               0.001190807               0.999999986               0.000072019               0.001223484               0.999999986               0.000059923               0.001255092               0.999999986               0.000044120               0.001285440               0.999999986               0.000024537               0.001314672               0.999999986               0.000111640               0.001004963               0.999999986               0.000064422               0.000994911               0.999999986               0.000045474               0.000990451               0.999999986               0.000039481               0.000995347               0.999999986               0.000039617               0.001008754               0.999999986               0.000042590               0.001029002               0.999999986               0.000046491               0.001054437               0.999999986               0.000050432               0.001083753               0.999999986               0.000053791               0.001115902               0.999999986               0.000056138               0.001150004               0.999999986               0.000056909               0.001185208               0.999999986               0.000055505               0.001220912               0.999999986               0.000051307               0.001256680               0.999999986               0.000043806               0.001291739               0.999999986               0.000032417               0.001325682               0.999999986               0.000016456               0.001358337               0.999999986              -0.000004826               0.001389687               0.999999986               0.000075036               0.001031351               0.999999986               0.000042089               0.001034237               0.999999986               0.000027895               0.001036244               0.999999986               0.000022718               0.001044084               0.999999986               0.000022010               0.001058604               0.999999986               0.000023516               0.001079126               0.999999986               0.000025936               0.001104580               0.999999986               0.000028438               0.001133949               0.999999986               0.000030615               0.001166387               0.999999986               0.000032207               0.001201212               0.999999986               0.000032829               0.001237712               0.999999986               0.000031875               0.001275340               0.999999986               0.000028791               0.001313494               0.999999986               0.000023083               0.001351254               0.999999986               0.000013939               0.001388185               0.999999986               0.000000593               0.001423830               0.999999986              -0.000018218               0.001457884               0.999999986               0.000037707               0.001047272               0.999999986               0.000020805               0.001058534               0.999999986               0.000013184               0.001065259               0.999999986               0.000010184               0.001075555               0.999999986               0.000009543               0.001091243               0.999999986               0.000010084               0.001112250               0.999999986               0.000011217               0.001137991               0.999999986               0.000012440               0.001167709               0.999999986               0.000013479               0.001200616               0.999999986               0.000014219               0.001236096               0.999999986               0.000014530               0.001273585               0.999999986               0.000014041               0.001312619               0.999999986               0.000012485               0.001352604               0.999999986               0.000009339               0.001392541               0.999999986               0.000004298               0.001431891               0.999999986              -0.000003403               0.001470080               0.999999986              -0.000014596               0.001506587               0.999999986              -0.000000000               0.001052605               0.999999986               0.000000000               0.001066725               0.999999986              -0.000000000               0.001075119               0.999999986               0.000000000               0.001086408               0.999999986               0.000000000               0.001102633               0.999999986              -0.000000000               0.001123921               0.999999986              -0.000000000               0.001149817               0.999999986              -0.000000000               0.001179625               0.999999986               0.000000000               0.001212761               0.999999986              -0.000000000               0.001248482               0.999999986              -0.000000000               0.001286323               0.999999986               0.000000000               0.001325879               0.999999986               0.000000000               0.001366577               0.999999986              -0.000000000               0.001407436               0.999999986              -0.000000000               0.001447752               0.999999986               0.000000000               0.001486953               0.999999986              -0.000000000               0.001524439               0.999999986 </DataArray>
<DataArray type="Float64"                                    Name="stress"                                                      NumberOfComponents="10" format="ascii">
              0.001699182               0.018932267               0.000000000              -0.001729336               0.006887138               0.005157802               0.000000000               0.000000000               0.000000000               0.000000000               0.001722591               0.015045331               0.000000000              -0.001234692               0.005426624               0.004191932               0.000000000               0.000000000               0.000000000               0.000000000               0.002289137               0.011912152               0.000000000              -0.000630591               0.004180875               0.003550284               0.000000000               0.000000000               0.000000000               0.000000000               0.002231205               0.010179184               0.000000000              -0.000435695               0.003538259               0.003102564               0.000000000               0.000000000               0.000000000               0.000000000               0.001976262               0.009118059              -0.000000000              -0.000398658               0.003172209               0.002773550               0.000000000               0.000000000               0.000000000               0.000000000               0.001683096               0.008412207               0.000000000              -0.000420364               0.002944162               0.002523798               0.000000000               0.000000000               0.000000000               0.000000000               0.001405644               0.007895405              -0.000000000              -0.000459808               0.002785045               0.002325237               0.000000000               0.000000000               0.000000000               0.000000000               0.001157531               0.007487384              -0.000000000              -0.000501848               0.002663052               0.002161205               0.000000000               0.000000000               0.000000000               0.000000000               0.000943263               0.007156441              -0.000000000              -0.000540830               0.002565733               0.002024903               0.000000000               0.000000000               0.000000000               0.000000000               0.000748182               0.006872748              -0.000000000              -0.000578524               0.002483734               0.001905211               0.000000000               0.000000000               0.000000000               0.000000000               0.000569257               0.006613510               0.000000000              -0.000613216               0.002408886               0.001795671               0.000000000               0.000000000               0.000000000               0.000000000               0.000411903               0.006359629               0.000000000              -0.000640488               0.002333351               0.001692863               0.000000000               0.000000000               0.000000000               0.000000000               0.000277990               0.006099863              -0.000000000              -0.000658235               0.002252679               0.001594444               0.000000000               0.000000000               0.000000000               0.000000000               0.000171136               0.005825529              -0.000000000              -0.000664013               0.002163161               0.001499148               0.000000000               0.000000000               0.000000000               0.000000000               0.000087846               0.005521516               0.000000000              -0.000657246               0.002059569               0.001402323               0.000000000               0.000000000               0.000000000               0.000000000               0.000032691               0.005172406               0.000000000              -0.000634290               0.001935548               0.001301258               0.000000000               0.000000000               0.000000000               0.000000000              -0.000014483               0.004902363               0.000000000              -0.000618225               0.001840180               0.001221955               0.000000000               0.000000000               0.000000000               0.000000000               0.001770006               0.018557721              -0.001316337              -0.001655959               0.006737831               0.005081872               0.000000000               0.000000000               0.000000000               0.000000000               0.001703840               0.014797663              -0.000702726              -0.001210765               0.005336093               0.004125328               0.000000000               0.000000000               0.000000000               0.000000000               0.002174579               0.011802442              -0.000086591              -0.000659836               0.004154054               0.003494217               0.000000000               0.000000000               0.000000000               0.000000000               0.002078550               0.010139892               0.000177180              -0.000488029               0.003542607               0.003054577               0.000000000               0.000000000               0.000000000               0.000000000               0.001818459               0.009117741               0.000287033              -0.000457794               0.003191815               0.002734020               0.000000000               0.000000000               0.000000000               0.000000000               0.001530329               0.008427892               0.000325298              -0.000479612               0.002969140               0.002489528               0.000000000               0.000000000               0.000000000               0.000000000               0.001260324               0.007919149               0.000327548              -0.000517271               0.002812114               0.002294843               0.000000000               0.000000000               0.000000000               0.000000000               0.001023446               0.007518677               0.000318825              -0.000556041               0.002691547               0.002135507               0.000000000               0.000000000               0.000000000               0.000000000               0.000820147               0.007189886               0.000308145              -0.000591179               0.002593665               0.002002485               0.000000000               0.000000000               0.000000000               0.000000000               0.000640766               0.006908591               0.000293942              -0.000623285               0.002510602               0.001887317               0.000000000               0.000000000               0.000000000               0.000000000               0.000481197               0.006650300               0.000274505              -0.000650837               0.002433690               0.001782853               0.000000000               0.000000000               0.000000000               0.000000000               0.000341650               0.006397083               0.000251683              -0.000671515               0.002356178               0.001684663               0.000000000               0.000000000               0.000000000               0.000000000               0.000226147               0.006142355               0.000227817              -0.000682987               0.002275094               0.001592106               0.000000000               0.000000000               0.000000000               0.000000000               0.000139261               0.005879637               0.000197551              -0.000682730               0.002187436               0.001504706               0.000000000               0.000000000               0.000000000               0.000000000               0.000074620               0.005595824               0.000154532              -0.000671494               0.002089087               0.001417593               0.000000000               0.000000000               0.000000000               0.000000000               0.000029590               0.005277077               0.000089630              -0.000648537               0.001975187               0.001326650               0.000000000               0.000000000               0.000000000               0.000000000              -0.000012234               0.005036311               0.000054992              -0.000634125               0.001890128               0.001256003               0.000000000               0.000000000               0.000000000               0.000000000               0.001950277               0.017485362              -0.002463452              -0.001454314               0.006313167               0.004858853               0.000000000               0.000000000               0.000000000               0.000000000               0.001637474               0.014096056              -0.001319704              -0.001147952               0.005081289               0.003933337               0.000000000               0.000000000               0.000000000               0.000000000               0.001846822               0.011489721              -0.000182716              -0.000743655               0.004077753               0.003334099               0.000000000               0.000000000               0.000000000               0.000000000               0.001655043               0.010021111               0.000290673              -0.000631996               0.003551002               0.002919006               0.000000000               0.000000000               0.000000000               0.000000000               0.001379011               0.009098322               0.000480963              -0.000620160               0.003239463               0.002619304               0.000000000               0.000000000               0.000000000               0.000000000               0.001109054               0.008454357               0.000543119              -0.000640898               0.003031723               0.002390825               0.000000000               0.000000000               0.000000000               0.000000000               0.000872981               0.007971621               0.000547591              -0.000669083               0.002880208               0.002211125               0.000000000               0.000000000               0.000000000               0.000000000               0.000674607               0.007589233               0.000531722              -0.000695675               0.002761611               0.002065936               0.000000000               0.000000000               0.000000000               0.000000000               0.000510155               0.007268790               0.000512959              -0.000717289               0.002662002               0.001944713               0.000000000               0.000000000               0.000000000               0.000000000               0.000375271               0.006987140               0.000491134              -0.000732664               0.002573245               0.001840581               0.000000000               0.000000000               0.000000000               0.000000000               0.000265333               0.006727880               0.000459787              -0.000741483               0.002489765               0.001748282               0.000000000               0.000000000               0.000000000               0.000000000               0.000178956               0.006482538               0.000423582              -0.000743207               0.002408560               0.001665353               0.000000000               0.000000000               0.000000000               0.000000000               0.000112898               0.006244708               0.000384356              -0.000738250               0.002327632               0.001589382               0.000000000               0.000000000               0.000000000               0.000000000               0.000064105               0.006009184               0.000332591              -0.000727107               0.002245410               0.001518303               0.000000000               0.000000000               0.000000000               0.000000000               0.000029724               0.005773561               0.000257030              -0.000710547               0.002161350               0.001450803               0.000000000               0.000000000               0.000000000               0.000000000               0.000007054               0.005536338               0.000146718              -0.000689395               0.002075226               0.001385831               0.000000000               0.000000000               0.000000000               0.000000000              -0.000016025               0.005376266               0.000087154              -0.000678041               0.002018084               0.001340043               0.000000000               0.000000000               0.000000000               0.000000000               0.002162062               0.015860842              -0.003310993              -0.001171831               0.005677504               0.004505673               0.000000000               0.000000000               0.000000000               0.000000000               0.001503172               0.013048496              -0.001790204              -0.001067371               0.004705245               0.003637875               0.000000000               0.000000000               0.000000000               0.000000000               0.001345465               0.011018344              -0.000297136              -0.000872741               0.003963659               0.003090917               0.000000000               0.000000000               0.000000000               0.000000000               0.001042577               0.009824759               0.000297864              -0.000837126               0.003553929               0.002716803               0.000000000               0.000000000               0.000000000               0.000000000               0.000764505               0.009033794               0.000528662              -0.000842533               0.003292079               0.002449546               0.000000000               0.000000000               0.000000000               0.000000000               0.000539428               0.008455253               0.000601507              -0.000854619               0.003103263               0.002248643               0.000000000               0.000000000               0.000000000               0.000000000               0.000363062               0.008007103               0.000607461              -0.000864738               0.002957253               0.002092516               0.000000000               0.000000000               0.000000000               0.000000000               0.000225560               0.007642201               0.000588938              -0.000870688               0.002837604               0.001966916               0.000000000               0.000000000               0.000000000               0.000000000               0.000125979               0.007331095               0.000564530              -0.000869143               0.002733388               0.001864245               0.000000000               0.000000000               0.000000000               0.000000000               0.000059382               0.007049030               0.000537083              -0.000858858               0.002635939               0.001777081               0.000000000               0.000000000               0.000000000               0.000000000               0.000019403               0.006789667               0.000502174              -0.000841430               0.002543677               0.001702246               0.000000000               0.000000000               0.000000000               0.000000000              -0.000001136               0.006552023               0.000460072              -0.000819427               0.002457128               0.001637701               0.000000000               0.000000000               0.000000000               0.000000000              -0.000011317               0.006332451               0.000410602              -0.000795798               0.002376062               0.001580264               0.000000000               0.000000000               0.000000000               0.000000000              -0.000014756               0.006132771               0.000346006              -0.000772128               0.002301613               0.001529485               0.000000000               0.000000000               0.000000000               0.000000000              -0.000013389               0.005956449               0.000257183              -0.000749575               0.002235321               0.001485746               0.000000000               0.000000000               0.000000000               0.000000000              -0.000008884               0.005813500               0.000139941              -0.000730017               0.002181153               0.001451136               0.000000000               0.000000000               0.000000000               0.000000000              -0.000009962               0.005740981               0.000076705              -0.000721356               0.002154093               0.001432737               0.000000000               0.000000000               0.000000000               0.000000000               0.002296042               0.013881728              -0.003786608              -0.000874201               0.004918596               0.004044395               0.000000000               0.000000000               0.000000000               0.000000000               0.001275619               0.011792697              -0.002088719              -0.000995729               0.004262769               0.003267040               0.000000000               0.000000000               0.000000000               0.000000000               0.000731300               0.010444912              -0.000439950              -0.001031374               0.003825394               0.002794020               0.000000000               0.000000000               0.000000000               0.000000000               0.000348864               0.009553166               0.000186477              -0.001063319               0.003538796               0.002475477               0.000000000               0.000000000               0.000000000               0.000000000               0.000104183               0.008900339               0.000422800              -0.001073471               0.003324574               0.002251103               0.000000000               0.000000000               0.000000000               0.000000000              -0.000047824               0.008390845               0.000496777              -0.001066787               0.003152516               0.002085729               0.000000000               0.000000000               0.000000000               0.000000000              -0.000141957               0.007976427               0.000505989              -0.001050285               0.003008877               0.001958592               0.000000000               0.000000000               0.000000000               0.000000000              -0.000197128               0.007625802               0.000492821              -0.001027146               0.002884291               0.001857145               0.000000000               0.000000000               0.000000000               0.000000000              -0.000220287               0.007319619               0.000471562              -0.000997558               0.002772368               0.001774810               0.000000000               0.000000000               0.000000000               0.000000000              -0.000215498               0.007042005               0.000443541              -0.000961060               0.002667665               0.001706605               0.000000000               0.000000000               0.000000000               0.000000000              -0.000191242               0.006787628               0.000409696              -0.000920167               0.002569243               0.001649075               0.000000000               0.000000000               0.000000000               0.000000000              -0.000153261               0.006561456               0.000367972              -0.000877653               0.002479681               0.001602028               0.000000000               0.000000000               0.000000000               0.000000000              -0.000113448               0.006362864               0.000318181              -0.000837899               0.002400233               0.001562334               0.000000000               0.000000000               0.000000000               0.000000000              -0.000076668               0.006193635               0.000255704              -0.000802953               0.002332175               0.001529222               0.000000000               0.000000000               0.000000000               0.000000000              -0.000041845               0.006060037               0.000176638              -0.000773195               0.002277724               0.001504529               0.000000000               0.000000000               0.000000000               0.000000000              -0.000017297               0.005972156               0.000087192              -0.000753004               0.002241700               0.001488696               0.000000000               0.000000000               0.000000000               0.000000000              -0.000008343               0.005942694               0.000041552              -0.000745963               0.002229533               0.001483569               0.000000000               0.000000000               0.000000000               0.000000000               0.002254857               0.011737627              -0.003892964              -0.000621634               0.004119714               0.003498080               0.000000000               0.000000000               0.000000000               0.000000000               0.000943289               0.010453800              -0.002231173              -0.000952991               0.003802228               0.002849238               0.000000000               0.000000000               0.000000000               0.000000000               0.000077375               0.009817441              -0.000625887              -0.001198162               0.003671835               0.002473673               0.000000000               0.000000000               0.000000000               0.000000000              -0.000318224               0.009211097              -0.000037791              -0.001270718               0.003493908               0.002223190               0.000000000               0.000000000               0.000000000               0.000000000              -0.000487066               0.008683047               0.000187180              -0.001268027               0.003316996               0.002048968               0.000000000               0.000000000               0.000000000               0.000000000              -0.000541974               0.008237660               0.000266345              -0.001232945               0.003156841               0.001923896               0.000000000               0.000000000               0.000000000               0.000000000              -0.000540960               0.007854455               0.000287365              -0.001184664               0.003013013               0.001828349               0.000000000               0.000000000               0.000000000               0.000000000              -0.000507874               0.007516403               0.000289412              -0.001130000               0.002882109               0.001752109               0.000000000               0.000000000               0.000000000               0.000000000              -0.000454873               0.007215096               0.000283173              -0.001072462               0.002762495               0.001690033               0.000000000               0.000000000               0.000000000               0.000000000              -0.000388935               0.006944015               0.000266380              -0.001013850               0.002652598               0.001638748               0.000000000               0.000000000               0.000000000               0.000000000              -0.000314331               0.006703351               0.000242991              -0.000955791               0.002553025               0.001597234               0.000000000               0.000000000               0.000000000               0.000000000              -0.000241487               0.006494773               0.000212752              -0.000902402               0.002465703               0.001563301               0.000000000               0.000000000               0.000000000               0.000000000              -0.000175549               0.006316371               0.000173805              -0.000855375               0.002390561               0.001535186               0.000000000               0.000000000               0.000000000               0.000000000              -0.000112604               0.006166746               0.000128121              -0.000813068               0.002326584               0.001513516               0.000000000               0.000000000               0.000000000               0.000000000              -0.000058091               0.006053123               0.000076846              -0.000778423               0.002277162               0.001498739               0.000000000               0.000000000               0.000000000               0.000000000              -0.000021137               0.005981621               0.000030309              -0.000755627               0.002245729               0.001490102               0.000000000               0.000000000               0.000000000               0.000000000              -0.000009625               0.005953016               0.000012283              -0.000747735               0.002233564               0.001485829               0.000000000               0.000000000               0.000000000               0.000000000               0.001991598               0.009600730              -0.003685420              -0.000453245               0.003351292               0.002898047               0.000000000               0.000000000               0.000000000               0.000000000               0.000528118               0.009133893              -0.002254816              -0.000943692               0.003359164               0.002415472               0.000000000               0.000000000               0.000000000               0.000000000              -0.000537665               0.009165333              -0.000860811              -0.001347288               0.003504176               0.002156888               0.000000000               0.000000000               0.000000000               0.000000000              -0.000873793               0.008806089              -0.000347344              -0.001428430               0.003411477               0.001983047               0.000000000               0.000000000               0.000000000               0.000000000              -0.000932051               0.008389074              -0.000128383              -0.001398150               0.003262380               0.001864230               0.000000000               0.000000000               0.000000000               0.000000000              -0.000880821               0.007999002              -0.000029011              -0.001330180               0.003109701               0.001779521               0.000000000               0.000000000               0.000000000               0.000000000              -0.000789097               0.007643498               0.000016420              -0.001251345               0.002964922               0.001713577               0.000000000               0.000000000               0.000000000               0.000000000              -0.000679232               0.007321114               0.000043849              -0.001169848               0.002830297               0.001660448               0.000000000               0.000000000               0.000000000               0.000000000              -0.000560755               0.007030039               0.000061651              -0.001089035               0.002706334               0.001617299               0.000000000               0.000000000               0.000000000               0.000000000              -0.000448648               0.006767767               0.000067045              -0.001014211               0.002593970               0.001579759               0.000000000               0.000000000               0.000000000               0.000000000              -0.000346924               0.006539865               0.000064618              -0.000947577               0.002495792               0.001548215               0.000000000               0.000000000               0.000000000               0.000000000              -0.000254375               0.006345962               0.000056593              -0.000888634               0.002411511               0.001522877               0.000000000               0.000000000               0.000000000               0.000000000              -0.000174569               0.006179987               0.000040170              -0.000837960               0.002339295               0.001501335               0.000000000               0.000000000               0.000000000               0.000000000              -0.000109383               0.006043071               0.000019657              -0.000796401               0.002279804               0.001483403               0.000000000               0.000000000               0.000000000               0.000000000              -0.000059156               0.005940566               0.000003184              -0.000764752               0.002235086               0.001470334               0.000000000               0.000000000               0.000000000               0.000000000              -0.000024610               0.005865228              -0.000005014              -0.000742380               0.002202517               0.001460136               0.000000000               0.000000000               0.000000000               0.000000000              -0.000020531               0.005817816              -0.000001049              -0.000734924               0.002184227               0.001449303               0.000000000               0.000000000               0.000000000               0.000000000               0.001525103               0.007604822              -0.003240287              -0.000378692               0.002661145               0.002282453               0.000000000               0.000000000               0.000000000               0.000000000               0.000061708               0.007908139              -0.002198394              -0.000965376               0.002957812               0.001992435               0.000000000               0.000000000               0.000000000               0.000000000              -0.001048382               0.008500896              -0.001135901              -0.001455752               0.003318854               0.001863102               0.000000000               0.000000000               0.000000000               0.000000000              -0.001264556               0.008347123              -0.000692671              -0.001517595               0.003288212               0.001770616               0.000000000               0.000000000               0.000000000               0.000000000              -0.001205492               0.008033573              -0.000463055              -0.001456253               0.003163248               0.001706996               0.000000000               0.000000000               0.000000000               0.000000000              -0.001059108               0.007697788              -0.000331072              -0.001359386               0.003019032               0.001659646               0.000000000               0.000000000               0.000000000               0.000000000              -0.000889784               0.007373020              -0.000248911              -0.001255293               0.002876080               0.001620786               0.000000000               0.000000000               0.000000000               0.000000000              -0.000721649               0.007070769              -0.000189791              -0.001154462               0.002741720               0.001587258               0.000000000               0.000000000               0.000000000               0.000000000              -0.000564461               0.006792625              -0.000143482              -0.001060748               0.002617768               0.001557020               0.000000000               0.000000000               0.000000000               0.000000000              -0.000425048               0.006544970              -0.000109193              -0.000977512               0.002507472               0.001529960               0.000000000               0.000000000               0.000000000               0.000000000              -0.000307776               0.006330421              -0.000081171              -0.000906717               0.002412358               0.001505642               0.000000000               0.000000000               0.000000000               0.000000000              -0.000212623               0.006143825              -0.000060161              -0.000847710               0.002330491               0.001482781               0.000000000               0.000000000               0.000000000               0.000000000              -0.000142801               0.005982931              -0.000049350              -0.000801415               0.002261429               0.001460014               0.000000000               0.000000000               0.000000000               0.000000000              -0.000091318               0.005845549              -0.000039911              -0.000764936               0.002203476               0.001438540               0.000000000               0.000000000               0.000000000               0.000000000              -0.000054217               0.005722201              -0.000024474              -0.000735605               0.002152583               0.001416978               0.000000000               0.000000000               0.000000000               0.000000000              -0.000028791               0.005606832              -0.000009226              -0.000711649               0.002106142               0.001394493               0.000000000               0.000000000               0.000000000               0.000000000              -0.000030305               0.005527042               0.000005866              -0.000702243               0.002076410               0.001374167               0.000000000               0.000000000               0.000000000               0.000000000               0.000946405               0.005895808              -0.002654617              -0.000382076               0.002092607               0.001710531               0.000000000               0.000000000               0.000000000               0.000000000              -0.000372244               0.006809169              -0.002106951              -0.000990737               0.002599945               0.001609209               0.000000000               0.000000000               0.000000000               0.000000000              -0.001408744               0.007858502              -0.001448802              -0.001510588               0.003123004               0.001612415               0.000000000               0.000000000               0.000000000               0.000000000              -0.001499389               0.007917430              -0.001052956              -0.001551946               0.003156432               0.001604486               0.000000000               0.000000000               0.000000000               0.000000000              -0.001353567               0.007720398              -0.000798553              -0.001472634               0.003064318               0.001591684               0.000000000               0.000000000               0.000000000               0.000000000              -0.001140809               0.007452500              -0.000626791              -0.001359362               0.002937262               0.001577900               0.000000000               0.000000000               0.000000000               0.000000000              -0.000918621               0.007167965              -0.000504562              -0.001240475               0.002802790               0.001562314               0.000000000               0.000000000               0.000000000               0.000000000              -0.000710998               0.006890823              -0.000412269              -0.001127974               0.002672909               0.001544935               0.000000000               0.000000000               0.000000000               0.000000000              -0.000527020               0.006632200              -0.000334027              -0.001026655               0.002552929               0.001526275               0.000000000               0.000000000               0.000000000               0.000000000              -0.000370566               0.006403714              -0.000266813              -0.000939424               0.002447691               0.001508267               0.000000000               0.000000000               0.000000000               0.000000000              -0.000246443               0.006199020              -0.000208943              -0.000867291               0.002355416               0.001488125               0.000000000               0.000000000               0.000000000               0.000000000              -0.000155328               0.006015644              -0.000158051              -0.000810201               0.002275262               0.001465060               0.000000000               0.000000000               0.000000000               0.000000000              -0.000098727               0.005846194              -0.000117646              -0.000767795               0.002204644               0.001436849               0.000000000               0.000000000               0.000000000               0.000000000              -0.000078918               0.005671125              -0.000084274              -0.000738483               0.002136517               0.001398034               0.000000000               0.000000000               0.000000000               0.000000000              -0.000088230               0.005494547              -0.000050928              -0.000719903               0.002071465               0.001351562               0.000000000               0.000000000               0.000000000               0.000000000              -0.000106215               0.005323808              -0.000022780              -0.000705305               0.002009686               0.001304382               0.000000000               0.000000000               0.000000000               0.000000000              -0.000117511               0.005222116              -0.000006037              -0.000696830               0.001972964               0.001276135               0.000000000               0.000000000               0.000000000               0.000000000               0.000240355               0.004295030              -0.002016137              -0.000446746               0.001580577               0.001133831               0.000000000               0.000000000               0.000000000               0.000000000              -0.000707150               0.005544566              -0.001992272              -0.000958251               0.002167587               0.001209336               0.000000000               0.000000000               0.000000000               0.000000000              -0.001566193               0.006920935              -0.001781091              -0.001452436               0.002791100               0.001338664               0.000000000               0.000000000               0.000000000               0.000000000              -0.001598866               0.007269582              -0.001446694              -0.001508269               0.002925926               0.001417657               0.000000000               0.000000000               0.000000000               0.000000000              -0.001426414               0.007266439              -0.001170991              -0.001443207               0.002903191               0.001459984               0.000000000               0.000000000               0.000000000               0.000000000              -0.001201395               0.007132515              -0.000960015              -0.001342084               0.002824843               0.001482758               0.000000000               0.000000000               0.000000000               0.000000000              -0.000967345               0.006945283              -0.000796367              -0.001230912               0.002725375               0.001494463               0.000000000               0.000000000               0.000000000               0.000000000              -0.000749421               0.006736123              -0.000666501              -0.001123045               0.002619700               0.001496655               0.000000000               0.000000000               0.000000000               0.000000000              -0.000556450               0.006529662              -0.000555165              -0.001024874               0.002518157               0.001493283               0.000000000               0.000000000               0.000000000               0.000000000              -0.000391320               0.006339517              -0.000457210              -0.000939182               0.002426212               0.001487030               0.000000000               0.000000000               0.000000000               0.000000000              -0.000258001               0.006158172              -0.000368626              -0.000866520               0.002341544               0.001475024               0.000000000               0.000000000               0.000000000               0.000000000              -0.000159465               0.005988470              -0.000286427              -0.000808356               0.002265589               0.001457233               0.000000000               0.000000000               0.000000000               0.000000000              -0.000107323               0.005808722              -0.000212992              -0.000766334               0.002191666               0.001425332               0.000000000               0.000000000               0.000000000               0.000000000              -0.000101876               0.005603887              -0.000143680              -0.000738687               0.002114173               0.001375485               0.000000000               0.000000000               0.000000000               0.000000000              -0.000135195               0.005396906              -0.000080995              -0.000725309               0.002040721               0.001315411               0.000000000               0.000000000               0.000000000               0.000000000              -0.000200007               0.005192630              -0.000034347              -0.000724080               0.001972219               0.001248140               0.000000000               0.000000000               0.000000000               0.000000000              -0.000241904               0.005082478              -0.000012667              -0.000726022               0.001936150               0.001210128               0.000000000               0.000000000               0.000000000               0.000000000              -0.000708248               0.002838823              -0.001362069              -0.000620445               0.001153079               0.000532634               0.000000000               0.000000000               0.000000000               0.000000000              -0.001088072               0.004280686              -0.001809856              -0.000943112               0.001741251               0.000798139               0.000000000               0.000000000               0.000000000               0.000000000              -0.001634878               0.005844522              -0.002032903              -0.001343642               0.002396035               0.001052393               0.000000000               0.000000000               0.000000000               0.000000000              -0.001613441               0.006463233              -0.001814686              -0.001412942               0.002625370               0.001212428               0.000000000               0.000000000               0.000000000               0.000000000              -0.001430823               0.006678843              -0.001549254              -0.001371411               0.002683395               0.001311984               0.000000000               0.000000000               0.000000000               0.000000000              -0.001210969               0.006708095              -0.001315864              -0.001292623               0.002666883               0.001374261               0.000000000               0.000000000               0.000000000               0.000000000              -0.000985873               0.006647700              -0.001119266              -0.001200662               0.002616099               0.001415436               0.000000000               0.000000000               0.000000000               0.000000000              -0.000772718               0.006539513              -0.000955416              -0.001107206               0.002548884               0.001441678               0.000000000               0.000000000               0.000000000               0.000000000              -0.000573020               0.006411265              -0.000817320              -0.001016288               0.002475829               0.001459541               0.000000000               0.000000000               0.000000000               0.000000000              -0.000394524               0.006271967              -0.000695596              -0.000931940               0.002401281               0.001469341               0.000000000               0.000000000               0.000000000               0.000000000              -0.000248481               0.006126112              -0.000582651              -0.000858942               0.002328331               0.001469389               0.000000000               0.000000000               0.000000000               0.000000000              -0.000133279               0.005982429              -0.000471140              -0.000797781               0.002260050               0.001462269               0.000000000               0.000000000               0.000000000               0.000000000              -0.000065964               0.005817508              -0.000363110              -0.000751923               0.002189791               0.001437868               0.000000000               0.000000000               0.000000000               0.000000000              -0.000057043               0.005619340              -0.000257896              -0.000723807               0.002114363               0.001390557               0.000000000               0.000000000               0.000000000               0.000000000              -0.000094462               0.005413044              -0.000154257              -0.000712052               0.002041681               0.001329629               0.000000000               0.000000000               0.000000000               0.000000000              -0.000180317               0.005202805              -0.000066050              -0.000717968               0.001973573               0.001255606               0.000000000               0.000000000               0.000000000               0.000000000              -0.000250708               0.005086184              -0.000022952              -0.000729787               0.001938640               0.001208853               0.000000000               0.000000000               0.000000000               0.000000000              -0.001838620               0.001628512              -0.000740190              -0.000893045               0.000840513              -0.000052532               0.000000000               0.000000000               0.000000000               0.000000000              -0.001569419               0.003093013              -0.001539499              -0.000975157               0.001356046               0.000380889               0.000000000               0.000000000               0.000000000               0.000000000              -0.001662014               0.004647179              -0.002114679              -0.001204151               0.001950427               0.000746276               0.000000000               0.000000000               0.000000000               0.000000000              -0.001522803               0.005453632              -0.002045842              -0.001252753               0.002235443               0.000982690               0.000000000               0.000000000               0.000000000               0.000000000              -0.001316915               0.005870874              -0.001830192              -0.001227700               0.002366171               0.001138471               0.000000000               0.000000000               0.000000000               0.000000000              -0.001104939               0.006075223              -0.001602412              -0.001173753               0.002416304               0.001242552               0.000000000               0.000000000               0.000000000               0.000000000              -0.000896930               0.006163061              -0.001392782              -0.001106729               0.002423243               0.001316514               0.000000000               0.000000000               0.000000000               0.000000000              -0.000698765               0.006181782              -0.001211760              -0.001034758               0.002405493               0.001370735               0.000000000               0.000000000               0.000000000               0.000000000              -0.000508365               0.006150669              -0.001060985              -0.000959468               0.002370025               0.001410557               0.000000000               0.000000000               0.000000000               0.000000000              -0.000327476               0.006084702              -0.000925095              -0.000883389               0.002322677               0.001439287               0.000000000               0.000000000               0.000000000               0.000000000              -0.000170306               0.005998934              -0.000795660              -0.000813730               0.002270868               0.001457138               0.000000000               0.000000000               0.000000000               0.000000000              -0.000042171               0.005898970              -0.000668280              -0.000753184               0.002217365               0.001464181               0.000000000               0.000000000               0.000000000               0.000000000               0.000047582               0.005766805              -0.000535592              -0.000703006               0.002156584               0.001453579               0.000000000               0.000000000               0.000000000               0.000000000               0.000081278               0.005599392              -0.000396035              -0.000669443               0.002089593               0.001420150               0.000000000               0.000000000               0.000000000               0.000000000               0.000058328               0.005408158              -0.000254161              -0.000654145               0.002020750               0.001366605               0.000000000               0.000000000               0.000000000               0.000000000              -0.000019248               0.005200262              -0.000119647              -0.000657249               0.001952486               0.001295237               0.000000000               0.000000000               0.000000000               0.000000000              -0.000092403               0.005084072              -0.000049429              -0.000670159               0.001918060               0.001247901               0.000000000               0.000000000               0.000000000               0.000000000              -0.003065731               0.000723244              -0.000225052              -0.001240053               0.000654428              -0.000585625               0.000000000               0.000000000               0.000000000               0.000000000              -0.002119527               0.002039573              -0.001212144              -0.001049768               0.001029772              -0.000019995               0.000000000               0.000000000               0.000000000               0.000000000              -0.001671778               0.003423147              -0.002009669              -0.001054809               0.001492640               0.000437831               0.000000000               0.000000000               0.000000000               0.000000000              -0.001357749               0.004325326              -0.002079811              -0.001049820               0.001791700               0.000741880               0.000000000               0.000000000               0.000000000               0.000000000              -0.001104862               0.004904300              -0.001934746              -0.001027359               0.001977203               0.000949844               0.000000000               0.000000000               0.000000000               0.000000000              -0.000892129               0.005273968              -0.001738994              -0.000993793               0.002089235               0.001095443               0.000000000               0.000000000               0.000000000               0.000000000              -0.000702450               0.005511029              -0.001542714              -0.000952296               0.002154423               0.001202127               0.000000000               0.000000000               0.000000000               0.000000000              -0.000520500               0.005662234              -0.001367005              -0.000902965               0.002188381               0.001285415               0.000000000               0.000000000               0.000000000               0.000000000              -0.000347660               0.005746388              -0.001217761              -0.000848669               0.002198333               0.001349664               0.000000000               0.000000000               0.000000000               0.000000000              -0.000180559               0.005777092              -0.001082534              -0.000789844               0.002188959               0.001399115               0.000000000               0.000000000               0.000000000               0.000000000              -0.000019903               0.005769929              -0.000952042              -0.000728703               0.002166191               0.001437488               0.000000000               0.000000000               0.000000000               0.000000000               0.000123247               0.005735278              -0.000823007              -0.000670691               0.002135304               0.001464613               0.000000000               0.000000000               0.000000000               0.000000000               0.000233352               0.005654195              -0.000683831              -0.000619266               0.002091135               0.001471869               0.000000000               0.000000000               0.000000000               0.000000000               0.000303842               0.005526876              -0.000528863              -0.000576917               0.002034579               0.001457662               0.000000000               0.000000000               0.000000000               0.000000000               0.000326197               0.005366782              -0.000362395              -0.000548522               0.001971750               0.001423228               0.000000000               0.000000000               0.000000000               0.000000000               0.000288939               0.005185109              -0.000185695              -0.000539785               0.001908281               0.001368496               0.000000000               0.000000000               0.000000000               0.000000000               0.000236340               0.005082758              -0.000088864              -0.000546716               0.001876474               0.001329758               0.000000000               0.000000000               0.000000000               0.000000000              -0.004262556               0.000109645               0.000112101              -0.001612163               0.000573932              -0.001038231               0.000000000               0.000000000               0.000000000               0.000000000              -0.002681445               0.001174588              -0.000867604              -0.001152364               0.000775645              -0.000376719               0.000000000               0.000000000               0.000000000               0.000000000              -0.001680851               0.002290852              -0.001711209              -0.000916674               0.001069167               0.000152492               0.000000000               0.000000000               0.000000000               0.000000000              -0.001163256               0.003202978              -0.001872934              -0.000836592               0.001346512               0.000509920               0.000000000               0.000000000               0.000000000               0.000000000              -0.000842959               0.003889065              -0.001801115              -0.000802242               0.001563755               0.000761513               0.000000000               0.000000000               0.000000000               0.000000000              -0.000613149               0.004394505              -0.001655838              -0.000779243               0.001724568               0.000945325               0.000000000               0.000000000               0.000000000               0.000000000              -0.000427801               0.004765563              -0.001496565              -0.000756120               0.001840545               0.001084425               0.000000000               0.000000000               0.000000000               0.000000000              -0.000262246               0.005040623              -0.001348022              -0.000728419               0.001922997               0.001194578               0.000000000               0.000000000               0.000000000               0.000000000              -0.000107430               0.005241552              -0.001216608              -0.000695479               0.001978993               0.001283513               0.000000000               0.000000000               0.000000000               0.000000000               0.000042434               0.005377508              -0.001097796              -0.000656275               0.002011243               0.001354968               0.000000000               0.000000000               0.000000000               0.000000000               0.000195882               0.005462309              -0.000983210              -0.000609332               0.002023862               0.001414530               0.000000000               0.000000000               0.000000000               0.000000000               0.000348265               0.005509248              -0.000865797              -0.000558056               0.002022416               0.001464360               0.000000000               0.000000000               0.000000000               0.000000000               0.000483695               0.005495001              -0.000738780              -0.000505488               0.002000145               0.001494656               0.000000000               0.000000000               0.000000000               0.000000000               0.000599013               0.005417825              -0.000595673              -0.000452597               0.001956789               0.001504192               0.000000000               0.000000000               0.000000000               0.000000000               0.000691070               0.005302854              -0.000429555              -0.000403705               0.001902169               0.001498464               0.000000000               0.000000000               0.000000000               0.000000000               0.000744954               0.005160631              -0.000231198              -0.000365720               0.001842100               0.001476380               0.000000000               0.000000000               0.000000000               0.000000000               0.000763928               0.005083930              -0.000122150              -0.000349017               0.001810966               0.001461948               0.000000000               0.000000000               0.000000000               0.000000000              -0.005277009              -0.000256281               0.000238674              -0.001946842               0.000563516              -0.001383326               0.000000000               0.000000000               0.000000000               0.000000000              -0.003182148               0.000541872              -0.000543381              -0.001261038               0.000600966              -0.000660072               0.000000000               0.000000000               0.000000000               0.000000000              -0.001701619               0.001376686              -0.001244120              -0.000810192               0.000728953              -0.000081238               0.000000000               0.000000000               0.000000000               0.000000000              -0.000981252               0.002244857              -0.001421834              -0.000648576               0.000964469               0.000315893               0.000000000               0.000000000               0.000000000               0.000000000              -0.000582502               0.002983597              -0.001403380              -0.000591387               0.001191651               0.000600264               0.000000000               0.000000000               0.000000000               0.000000000              -0.000329220               0.003579586              -0.001314758              -0.000570905               0.001383485               0.000812580               0.000000000               0.000000000               0.000000000               0.000000000              -0.000139682               0.004053452              -0.001206467              -0.000559062               0.001537491               0.000978429               0.000000000               0.000000000               0.000000000               0.000000000               0.000016325               0.004427910              -0.001099576              -0.000547366               0.001658410               0.001111044               0.000000000               0.000000000               0.000000000               0.000000000               0.000156417               0.004724675              -0.001002939              -0.000531927               0.001752185               0.001220257               0.000000000               0.000000000               0.000000000               0.000000000               0.000292485               0.004954650              -0.000915675              -0.000509648               0.001821416               0.001311768               0.000000000               0.000000000               0.000000000               0.000000000               0.000436167               0.005129756              -0.000830010              -0.000477656               0.001869120               0.001391464               0.000000000               0.000000000               0.000000000               0.000000000               0.000592264               0.005256877              -0.000740211              -0.000435010               0.001897278               0.001462268               0.000000000               0.000000000               0.000000000               0.000000000               0.000752911               0.005308589              -0.000643375              -0.000381231               0.001896589               0.001515358               0.000000000               0.000000000               0.000000000               0.000000000               0.000916446               0.005289300              -0.000531041              -0.000317495               0.001868914               0.001551419               0.000000000               0.000000000               0.000000000               0.000000000               0.001091219               0.005226596              -0.000394294              -0.000244117               0.001823554               0.001579437               0.000000000               0.000000000               0.000000000               0.000000000               0.001273772               0.005125360              -0.000219473              -0.000163005               0.001762771               0.001599766               0.000000000               0.000000000               0.000000000               0.000000000               0.001410277               0.005082113              -0.000125012              -0.000106410               0.001729491               0.001623081               0.000000000               0.000000000               0.000000000               0.000000000              -0.005959323              -0.000434377               0.000176478              -0.002180448               0.000582020              -0.001598428               0.000000000               0.000000000               0.000000000               0.000000000              -0.003532335               0.000164540              -0.000255961              -0.001345192               0.000503240              -0.000841951               0.000000000               0.000000000               0.000000000               0.000000000              -0.001724227               0.000786810              -0.000653034              -0.000744935               0.000510578              -0.000234357               0.000000000               0.000000000               0.000000000               0.000000000              -0.000852193               0.001597585              -0.000768693              -0.000519270               0.000705612               0.000186343               0.000000000               0.000000000               0.000000000               0.000000000              -0.000387147               0.002349419              -0.000771834              -0.000438857               0.000929417               0.000490560               0.000000000               0.000000000               0.000000000               0.000000000              -0.000109832               0.002993777              -0.000732340              -0.000415408               0.001136385               0.000720977               0.000000000               0.000000000               0.000000000               0.000000000               0.000080317               0.003531108              -0.000678546              -0.000411269               0.001314114               0.000902845               0.000000000               0.000000000               0.000000000               0.000000000               0.000231536               0.003971564              -0.000622318              -0.000409619               0.001460381               0.001050762               0.000000000               0.000000000               0.000000000               0.000000000               0.000365734               0.004330171              -0.000571342              -0.000404120               0.001578083               0.001173962               0.000000000               0.000000000               0.000000000               0.000000000               0.000494994               0.004620982              -0.000525513              -0.000391999               0.001670978               0.001278979               0.000000000               0.000000000               0.000000000               0.000000000               0.000632720               0.004858704              -0.000479928              -0.000370067               0.001742908               0.001372840               0.000000000               0.000000000               0.000000000               0.000000000               0.000790230               0.005045364              -0.000432057              -0.000334333               0.001793216               0.001458882               0.000000000               0.000000000               0.000000000               0.000000000               0.000964624               0.005149144              -0.000378953              -0.000281908               0.001810333               0.001528425               0.000000000               0.000000000               0.000000000               0.000000000               0.001163602               0.005175080              -0.000317107              -0.000210534               0.001795187               0.001584654               0.000000000               0.000000000               0.000000000               0.000000000               0.001406394               0.005152903              -0.000239375              -0.000116715               0.001756522               0.001639807               0.000000000               0.000000000               0.000000000               0.000000000               0.001704664               0.005088643              -0.000134969               0.000003168               0.001695141               0.001698310               0.000000000               0.000000000               0.000000000               0.000000000               0.001951727               0.005076650              -0.000080254               0.000097316               0.001659761               0.001757077               0.000000000               0.000000000               0.000000000               0.000000000              -0.006201158              -0.000486788               0.000000000              -0.002264584               0.000592595              -0.001671989               0.000000000               0.000000000               0.000000000               0.000000000              -0.003659170               0.000038016              -0.000000000              -0.001376940               0.000471649              -0.000905291               0.000000000               0.000000000               0.000000000               0.000000000              -0.001733152               0.000583164              -0.000000000              -0.000722826               0.000435327              -0.000287499               0.000000000               0.000000000               0.000000000               0.000000000              -0.000804414               0.001370440               0.000000000              -0.000472959               0.000614462               0.000141502               0.000000000               0.000000000               0.000000000               0.000000000              -0.000314061               0.002122543              -0.000000000              -0.000383090               0.000835204               0.000452114               0.000000000               0.000000000               0.000000000               0.000000000              -0.000025807               0.002780959              -0.000000000              -0.000357297               0.001046076               0.000688779               0.000000000               0.000000000               0.000000000               0.000000000               0.000163814               0.003336407               0.000000000              -0.000355620               0.001230664               0.000875045               0.000000000               0.000000000               0.000000000               0.000000000               0.000312300               0.003799843               0.000000000              -0.000357867               0.001385890               0.001028024               0.000000000               0.000000000               0.000000000               0.000000000               0.000445455               0.004180719              -0.000000000              -0.000355543               0.001512073               0.001156530               0.000000000               0.000000000               0.000000000               0.000000000               0.000574013               0.004491590              -0.000000000              -0.000346193               0.001612580               0.001266386               0.000000000               0.000000000               0.000000000               0.000000000               0.000710851               0.004752412               0.000000000              -0.000327482               0.001693282               0.001365800               0.000000000               0.000000000               0.000000000               0.000000000               0.000868556               0.004962342               0.000000000              -0.000294584               0.001752292               0.001457708               0.000000000               0.000000000               0.000000000               0.000000000               0.001046439               0.005088165              -0.000000000              -0.000243605               0.001777240               0.001533634               0.000000000               0.000000000               0.000000000               0.000000000               0.001258759               0.005131336              -0.000000000              -0.000169382               0.001766889               0.001597507               0.000000000               0.000000000               0.000000000               0.000000000               0.001525117               0.005121880               0.000000000              -0.000068316               0.001730048               0.001661732               0.000000000               0.000000000               0.000000000               0.000000000               0.001869793               0.005072043               0.000000000               0.000067166               0.001668275               0.001735441               0.000000000               0.000000000               0.000000000               0.000000000               0.002162281               0.005072499              -0.000000000               0.000176791               0.001631886               0.001808677               0.000000000               0.000000000               0.000000000               0.000000000               0.000000000               0.000000000               0.000000000               0.000000000               0.000000000               0.000000000               0.000000000               0.000000000               0.000000000               0.000000000               0.000000000               0.000000000               0.000000000               0.000000000               0.000000000               0.000000000               0.000000000               0.000000000               0.000000000               0.000000000               0.000000000               0.000000000               0.000000000               0.000000000               0.000000000               0.000000000               0.000000000               0.000000000               0.000000000               0.000000000               0.000000000               0.000000000               0.000000000               0.000000000               0.000000000               0.000000000               0.000000000               0.000000000               0.000000000               0.000000000               0.000000000               0.000000000               0.000000000               0.000000000               0.000000000               0.000000000               0.000000000               0.000000000               0.000000000               0.000000000               0.000000000               0.000000000               0.000000000               0.000000000               0.000000000               0.000000000               0.000000000               0.000000000               0.000000000               0.000000000               0.000000000               0.000000000               0.000000000               0.000000000               0.000000000               0.000000000               0.000000000               0.000000000               0.000000000               0.000000000               0.000000000               0.000000000               0.000000000               0.000000000               0.000000000               0.000000000               0.000000000               0.000000000               0.000000000               0.000000000               0.000000000               0.000000000               0.000000000               0.000000000               0.000000000               0.000000000               0.000000000               0.000000000               0.000000000               0.000000000               0.000000000               0.000000000               0.000000000               0.000000000               0.000000000               0.000000000               0.000000000               0.000000000               0.000000000               0.000000000               0.000000000               0.000000000               0.000000000               0.000000000               0.000000000               0.000000000               0.000000000               0.000000000               0.000000000               0.000000000               0.000000000               0.000000000               0.000000000               0.000000000               0.000000000               0.000000000               0.000000000               0.000000000               0.000000000               0.000000000               0.000000000               0.000000000               0.000000000               0.000000000               0.000000000               0.000000000               0.000000000               0.000000000               0.000000000               0.000000000               0.000000000               0.000000000               0.000000000               0.000000000               0.000000000               0.000000000               0.000000000               0.000000000               0.000000000               0.000000000               0.000000000               0.000000000               0.000000000               0.000000000               0.000000000               0.000000000               0.000000000               0.000000000               0.000000000               0.000000000               0.000000000               0.000000000               0.000000000               0.000000000               0.000000000               0.000000000               0.000000000               0.000000000               0.000000000               0.000000000               0.000000000               0.000000000               0.000000000               0.000000000               0.000000000               0.000000000               0.000000000               0.000000000               0.000000000               0.000000000               0.001770006               0.018557721               0.001316337              -0.001655959               0.006737831               0.005081872               0.000000000               0.000000000               0.000000000               0.000000000               0.001703840               0.014797663               0.000702726              -0.001210765               0.005336093               0.004125328               0.000000000               0.000000000               0.000000000               0.000000000               0.002174579               0.011802442               0.000086591              -0.000659836               0.004154054               0.003494217               0.000000000               0.000000000               0.000000000               0.000000000               0.002078550               0.010139892              -0.000177180              -0.000488029               0.003542607               0.003054577               0.000000000               0.000000000               0.000000000               0.000000000               0.001818459               0.009117741              -0.000287033              -0.000457794               0.003191815               0.002734020               0.000000000               0.000000000               0.000000000               0.000000000               0.001530329               0.008427892              -0.000325298              -0.000479612               0.002969140               0.002489528               0.000000000               0.000000000               0.000000000               0.000000000               0.001260324               0.007919149              -0.000327548              -0.000517271               0.002812114               0.002294843               0.000000000               0.000000000               0.000000000               0.000000000               0.001023446               0.007518677              -0.000318825              -0.000556041               0.002691547               0.002135507               0.000000000               0.000000000               0.000000000               0.000000000               0.000820147               0.007189886              -0.000308145              -0.000591179               0.002593665               0.002002485               0.000000000               0.000000000               0.000000000               0.000000000               0.000640766               0.006908591              -0.000293942              -0.000623285               0.002510602               0.001887317               0.000000000               0.000000000               0.000000000               0.000000000               0.000481197               0.006650300              -0.000274505              -0.000650837               0.002433690               0.001782853               0.000000000               0.000000000               0.000000000               0.000000000               0.000341650               0.006397083              -0.000251683              -0.000671515               0.002356178               0.001684663               0.000000000               0.000000000               0.000000000               0.000000000               0.000226147               0.006142355              -0.000227817              -0.000682987               0.002275094               0.001592106               0.000000000               0.000000000               0.000000000               0.000000000               0.000139261               0.005879637              -0.000197551              -0.000682730               0.002187436               0.001504706               0.000000000               0.000000000               0.000000000               0.000000000               0.000074620               0.005595824              -0.000154532              -0.000671494               0.002089087               0.001417593               0.000000000               0.000000000               0.000000000               0.000000000               0.000029590               0.005277077              -0.000089630              -0.000648537               0.001975187               0.001326650               0.000000000               0.000000000               0.000000000               0.000000000              -0.000012234               0.005036311              -0.000054992              -0.000634125               0.001890128               0.001256003               0.000000000               0.000000000               0.000000000               0.000000000               0.001950277               0.017485362               0.002463452              -0.001454314               0.006313167               0.004858853               0.000000000               0.000000000               0.000000000               0.000000000               0.001637474               0.014096056               0.001319704              -0.001147952               0.005081289               0.003933337               0.000000000               0.000000000               0.000000000               0.000000000               0.001846822               0.011489721               0.000182716              -0.000743655               0.004077753               0.003334099               0.000000000               0.000000000               0.000000000               0.000000000               0.001655043               0.010021111              -0.000290673              -0.000631996               0.003551002               0.002919006               0.000000000               0.000000000               0.000000000               0.000000000               0.001379011               0.009098322              -0.000480963              -0.000620160               0.003239463               0.002619304               0.000000000               0.000000000               0.000000000               0.000000000               0.001109054               0.008454357              -0.000543119              -0.000640898               0.003031723               0.002390825               0.000000000               0.000000000               0.000000000               0.000000000               0.000872981               0.007971621              -0.000547591              -0.000669083               0.002880208               0.002211125               0.000000000               0.000000000               0.000000000               0.000000000               0.000674607               0.007589233              -0.000531722              -0.000695675               0.002761611               0.002065936               0.000000000               0.000000000               0.000000000               0.000000000               0.000510155               0.007268790              -0.000512959              -0.000717289               0.002662002               0.001944713               0.000000000               0.000000000               0.000000000               0.000000000               0.000375271               0.006987140              -0.000491134              -0.000732664               0.002573245               0.001840581               0.000000000               0.000000000               0.000000000               0.000000000               0.000265333               0.006727880              -0.000459787              -0.000741483               0.002489765               0.001748282               0.000000000               0.000000000               0.000000000               0.000000000               0.000178956               0.006482538              -0.000423582              -0.000743207               0.002408560               0.001665353               0.000000000               0.000000000               0.000000000               0.000000000               0.000112898               0.006244708              -0.000384356              -0.000738250               0.002327632               0.001589382               0.000000000               0.000000000               0.000000000               0.000000000               0.000064105               0.006009184              -0.000332591              -0.000727107               0.002245410               0.001518303               0.000000000               0.000000000               0.000000000               0.000000000               0.000029724               0.005773561              -0.000257030              -0.000710547               0.002161350               0.001450803               0.000000000               0.000000000               0.000000000               0.000000000               0.000007054               0.005536338              -0.000146718              -0.000689395               0.002075226               0.001385831               0.000000000               0.000000000               0.000000000               0.000000000              -0.000016025               0.005376266              -0.000087154              -0.000678041               0.002018084               0.001340043               0.000000000               0.000000000               0.000000000               0.000000000               0.002162062               0.015860842               0.003310993              -0.001171831               0.005677504               0.004505673               0.000000000               0.000000000               0.000000000               0.000000000               0.001503172               0.013048496               0.001790204              -0.001067371               0.004705245               0.003637875               0.000000000               0.000000000               0.000000000               0.000000000               0.001345465               0.011018344               0.000297136              -0.000872741               0.003963659               0.003090917               0.000000000               0.000000000               0.000000000               0.000000000               0.001042577               0.009824759              -0.000297864              -0.000837126               0.003553929               0.002716803               0.000000000               0.000000000               0.000000000               0.000000000               0.000764505               0.009033794              -0.000528662              -0.000842533               0.003292079               0.002449546               0.000000000               0.000000000               0.000000000               0.000000000               0.000539428               0.008455253              -0.000601507              -0.000854619               0.003103263               0.002248643               0.000000000               0.000000000               0.000000000               0.000000000               0.000363062               0.008007103              -0.000607461              -0.000864738               0.002957253               0.002092516               0.000000000               0.000000000               0.000000000               0.000000000               0.000225560               0.007642201              -0.000588938              -0.000870688               0.002837604               0.001966916               0.000000000               0.000000000               0.000000000               0.000000000               0.000125979               0.007331095              -0.000564530              -0.000869143               0.002733388               0.001864245               0.000000000               0.000000000               0.000000000               0.000000000               0.000059382               0.007049030              -0.000537083              -0.000858858               0.002635939               0.001777081               0.000000000               0.000000000               0.000000000               0.000000000               0.000019403               0.006789667              -0.000502174              -0.000841430               0.002543677               0.001702246               0.000000000               0.000000000               0.000000000               0.000000000              -0.000001136               0.006552023              -0.000460072              -0.000819427               0.002457128               0.001637701               0.000000000               0.000000000               0.000000000               0.000000000              -0.000011317               0.006332451              -0.000410602              -0.000795798               0.002376062               0.001580264               0.000000000               0.000000000               0.000000000               0.000000000              -0.000014756               0.006132771              -0.000346006              -0.000772128               0.002301613               0.001529485               0.000000000               0.000000000               0.000000000               0.000000000              -0.000013389               0.005956449              -0.000257183              -0.000749575               0.002235321               0.001485746               0.000000000               0.000000000               0.000000000               0.000000000              -0.000008884               0.005813500              -0.000139941              -0.000730017               0.002181153               0.001451136               0.000000000               0.000000000               0.000000000               0.000000000              -0.000009962               0.005740981              -0.000076705              -0.000721356               0.002154093               0.001432737               0.000000000               0.000000000               0.000000000               0.000000000               0.002296042               0.013881728               0.003786608              -0.000874201               0.004918596               0.004044395               0.000000000               0.000000000               0.000000000               0.000000000               0.001275619               0.011792697               0.002088719              -0.000995729               0.004262769               0.003267040               0.000000000               0.000000000               0.000000000               0.000000000               0.000731300               0.010444912               0.000439950              -0.001031374               0.003825394               0.002794020               0.000000000               0.000000000               0.000000000               0.000000000               0.000348864               0.009553166              -0.000186477              -0.001063319               0.003538796               0.002475477               0.000000000               0.000000000               0.000000000               0.000000000               0.000104183               0.008900339              -0.000422800              -0.001073471               0.003324574               0.002251103               0.000000000               0.000000000               0.000000000               0.000000000              -0.000047824               0.008390845              -0.000496777              -0.001066787               0.003152516               0.002085729               0.000000000               0.000000000               0.000000000               0.000000000              -0.000141957               0.007976427              -0.000505989              -0.001050285               0.003008877               0.001958592               0.000000000               0.000000000               0.000000000               0.000000000              -0.000197128               0.007625802              -0.000492821              -0.001027146               0.002884291               0.001857145               0.000000000               0.000000000               0.000000000               0.000000000              -0.000220287               0.007319619              -0.000471562              -0.000997558               0.002772368               0.001774810               0.000000000               0.000000000               0.000000000               0.000000000              -0.000215498               0.007042005              -0.000443541              -0.000961060               0.002667665               0.001706605               0.000000000               0.000000000               0.000000000               0.000000000              -0.000191242               0.006787628              -0.000409696              -0.000920167               0.002569243               0.001649075               0.000000000               0.000000000               0.000000000               0.000000000              -0.000153261               0.006561456              -0.000367972              -0.000877653               0.002479681               0.001602028               0.000000000               0.000000000               0.000000000               0.000000000              -0.000113448               0.006362864              -0.000318181              -0.000837899               0.002400233               0.001562334               0.000000000               0.000000000               0.000000000               0.000000000              -0.000076668               0.006193635              -0.000255704              -0.000802953               0.002332175               0.001529222               0.000000000               0.000000000               0.000000000               0.000000000              -0.000041845               0.006060037              -0.000176638              -0.000773195               0.002277724               0.001504529               0.000000000               0.000000000               0.000000000               0.000000000              -0.000017297               0.005972156              -0.000087192              -0.000753004               0.002241700               0.001488696               0.000000000               0.000000000               0.000000000               0.000000000              -0.000008343               0.005942694              -0.000041552              -0.000745963               0.002229533               0.001483569               0.000000000               0.000000000               0.000000000               0.000000000               0.002254857               0.011737627               0.003892964              -0.000621634               0.004119714               0.003498080               0.000000000               0.000000000               0.000000000               0.000000000               0.000943289               0.010453800               0.002231173              -0.000952991               0.003802228               0.002849238               0.000000000               0.000000000               0.000000000               0.000000000               0.000077375               0.009817441               0.000625887              -0.001198162               0.003671835               0.002473673               0.000000000               0.000000000               0.000000000               0.000000000              -0.000318224               0.009211097               0.000037791              -0.001270718               0.003493908               0.002223190               0.000000000               0.000000000               0.000000000               0.000000000              -0.000487066               0.008683047              -0.000187180              -0.001268027               0.003316996               0.002048968               0.000000000               0.000000000               0.000000000               0.000000000              -0.000541974               0.008237660              -0.000266345              -0.001232945               0.003156841               0.001923896               0.000000000               0.000000000               0.000000000               0.000000000              -0.000540960               0.007854455              -0.000287365              -0.001184664               0.003013013               0.001828349               0.000000000               0.000000000               0.000000000               0.000000000              -0.000507874               0.007516403              -0.000289412              -0.001130000               0.002882109               0.001752109               0.000000000               0.000000000               0.000000000               0.000000000              -0.000454873               0.007215096              -0.000283173              -0.001072462               0.002762495               0.001690033               0.000000000               0.000000000               0.000000000               0.000000000              -0.000388935               0.006944015              -0.000266380              -0.001013850               0.002652598               0.001638748               0.000000000               0.000000000               0.000000000               0.000000000              -0.000314331               0.006703351              -0.000242991              -0.000955791               0.002553025               0.001597234               0.000000000               0.000000000               0.000000000               0.000000000              -0.000241487               0.006494773              -0.000212752              -0.000902402               0.002465703               0.001563301               0.000000000               0.000000000               0.000000000               0.000000000              -0.000175549               0.006316371              -0.000173805              -0.000855375               0.002390561               0.001535186               0.000000000               0.000000000               0.000000000               0.000000000              -0.000112604               0.006166746              -0.000128121              -0.000813068               0.002326584               0.001513516               0.000000000               0.000000000               0.000000000               0.000000000              -0.000058091               0.006053123              -0.000076846              -0.000778423               0.002277162               0.001498739               0.000000000               0.000000000               0.000000000               0.000000000              -0.000021137               0.005981621              -0.000030309              -0.000755627               0.002245729               0.001490102               0.000000000               0.000000000               0.000000000               0.000000000              -0.000009625               0.005953016              -0.000012283              -0.000747735               0.002233564               0.001485829               0.000000000               0.000000000               0.000000000               0.000000000               0.001991598               0.009600730               0.003685420              -0.000453245               0.003351292               0.002898047               0.000000000               0.000000000               0.000000000               0.000000000               0.000528118               0.009133893               0.002254816              -0.000943692               0.003359164               0.002415472               0.000000000               0.000000000               0.000000000               0.000000000              -0.000537665               0.009165333               0.000860811              -0.001347288               0.003504176               0.002156888               0.000000000               0.000000000               0.000000000               0.000000000              -0.000873793               0.008806089               0.000347344              -0.001428430               0.003411477               0.001983047               0.000000000               0.000000000               0.000000000               0.000000000              -0.000932051               0.008389074               0.000128383              -0.001398150               0.003262380               0.001864230               0.000000000               0.000000000               0.000000000               0.000000000              -0.000880821               0.007999002               0.000029011              -0.001330180               0.003109701               0.001779521               0.000000000               0.000000000               0.000000000               0.000000000              -0.000789097               0.007643498              -0.000016420              -0.001251345               0.002964922               0.001713577               0.000000000               0.000000000               0.000000000               0.000000000              -0.000679232               0.007321114              -0.000043849              -0.001169848               0.002830297               0.001660448               0.000000000               0.000000000               0.000000000               0.000000000              -0.000560755               0.007030039              -0.000061651              -0.001089035               0.002706334               0.001617299               0.000000000               0.000000000               0.000000000               0.000000000              -0.000448648               0.006767767              -0.000067045              -0.001014211               0.002593970               0.001579759               0.000000000               0.000000000               0.000000000               0.000000000              -0.000346924               0.006539865              -0.000064618              -0.000947577               0.002495792               0.001548215               0.000000000               0.000000000               0.000000000               0.000000000              -0.000254375               0.006345962              -0.000056593              -0.000888634               0.002411511               0.001522877               0.000000000               0.000000000               0.000000000               0.000000000              -0.000174569               0.006179987              -0.000040170              -0.000837960               0.002339295               0.001501335               0.000000000               0.000000000               0.000000000               0.000000000              -0.000109383               0.006043071              -0.000019657              -0.000796401               0.002279804               0.001483403               0.000000000               0.000000000               0.000000000               0.000000000              -0.000059156               0.005940566              -0.000003184              -0.000764752               0.002235086               0.001470334               0.000000000               0.000000000               0.000000000               0.000000000              -0.000024610               0.005865228               0.000005014              -0.000742380               0.002202517               0.001460136               0.000000000               0.000000000               0.000000000               0.000000000              -0.000020531               0.005817816               0.000001049              -0.000734924               0.002184227               0.001449303               0.000000000               0.000000000               0.000000000               0.000000000               0.001525103               0.007604822               0.003240287              -0.000378692               0.002661145               0.002282453               0.000000000               0.000000000               0.000000000               0.000000000               0.000061708               0.007908139               0.002198394              -0.000965376               0.002957812               0.001992435               0.000000000               0.000000000               0.000000000               0.000000000              -0.001048382               0.008500896               0.001135901              -0.001455752               0.003318854               0.001863102               0.000000000               0.000000000               0.000000000               0.000000000              -0.001264556               0.008347123               0.000692671              -0.001517595               0.003288212               0.001770616               0.000000000               0.000000000               0.000000000               0.000000000              -0.001205492               0.008033573               0.000463055              -0.001456253               0.003163248               0.001706996               0.000000000               0.000000000               0.000000000               0.000000000              -0.001059108               0.007697788               0.000331072              -0.001359386               0.003019032               0.001659646               0.000000000               0.000000000               0.000000000               0.000000000              -0.000889784               0.007373020               0.000248911              -0.001255293               0.002876080               0.001620786               0.000000000               0.000000000               0.000000000               0.000000000              -0.000721649               0.007070769               0.000189791              -0.001154462               0.002741720               0.001587258               0.000000000               0.000000000               0.000000000               0.000000000              -0.000564461               0.006792625               0.000143482              -0.001060748               0.002617768               0.001557020               0.000000000               0.000000000               0.000000000               0.000000000              -0.000425048               0.006544970               0.000109193              -0.000977512               0.002507472               0.001529960               0.000000000               0.000000000               0.000000000               0.000000000              -0.000307776               0.006330421               0.000081171              -0.000906717               0.002412358               0.001505642               0.000000000               0.000000000               0.000000000               0.000000000              -0.000212623               0.006143825               0.000060161              -0.000847710               0.002330491               0.001482781               0.000000000               0.000000000               0.000000000               0.000000000              -0.000142801               0.005982931               0.000049350              -0.000801415               0.002261429               0.001460014               0.000000000               0.000000000               0.000000000               0.000000000              -0.000091318               0.005845549               0.000039911              -0.000764936               0.002203476               0.001438540               0.000000000               0.000000000               0.000000000               0.000000000              -0.000054217               0.005722201               0.000024474              -0.000735605               0.002152583               0.001416978               0.000000000               0.000000000               0.000000000               0.000000000              -0.000028791               0.005606832               0.000009226              -0.000711649               0.002106142               0.001394493               0.000000000               0.000000000               0.000000000               0.000000000              -0.000030305               0.005527042              -0.000005866              -0.000702243               0.002076410               0.001374167               0.000000000               0.000000000               0.000000000               0.000000000               0.000946405               0.005895808               0.002654617              -0.000382076               0.002092607               0.001710531               0.000000000               0.000000000               0.000000000               0.000000000              -0.000372244               0.006809169               0.002106951              -0.000990737               0.002599945               0.001609209               0.000000000               0.000000000               0.000000000               0.000000000              -0.001408744               0.007858502               0.001448802              -0.001510588               0.003123004               0.001612415               0.000000000               0.000000000               0.000000000               0.000000000              -0.001499389               0.007917430               0.001052956              -0.001551946               0.003156432               0.001604486               0.000000000               0.000000000               0.000000000               0.000000000              -0.001353567               0.007720398               0.000798553              -0.001472634               0.003064318               0.001591684               0.000000000               0.000000000               0.000000000               0.000000000              -0.001140809               0.007452500               0.000626791              -0.001359362               0.002937262               0.001577900               0.000000000               0.000000000               0.000000000               0.000000000              -0.000918621               0.007167965               0.000504562              -0.001240475               0.002802790               0.001562314               0.000000000               0.000000000               0.000000000               0.000000000              -0.000710998               0.006890823               0.000412269              -0.001127974               0.002672909               0.001544935               0.000000000               0.000000000               0.000000000               0.000000000              -0.000527020               0.006632200               0.000334027              -0.001026655               0.002552929               0.001526275               0.000000000               0.000000000               0.000000000               0.000000000              -0.000370566               0.006403714               0.000266813              -0.000939424               0.002447691               0.001508267               0.000000000               0.000000000               0.000000000               0.000000000              -0.000246443               0.006199020               0.000208943              -0.000867291               0.002355416               0.001488125               0.000000000               0.000000000               0.000000000               0.000000000              -0.000155328               0.006015644               0.000158051              -0.000810201               0.002275262               0.001465060               0.000000000               0.000000000               0.000000000               0.000000000              -0.000098727               0.005846194               0.000117646              -0.000767795               0.002204644               0.001436849               0.000000000               0.000000000               0.000000000               0.000000000              -0.000078918               0.005671125               0.000084274              -0.000738483               0.002136517               0.001398034               0.000000000               0.000000000               0.000000000               0.000000000              -0.000088230               0.005494547               0.000050928              -0.000719903               0.002071465               0.001351562               0.000000000               0.000000000               0.000000000               0.000000000              -0.000106215               0.005323808               0.000022780              -0.000705305               0.002009686               0.001304382               0.000000000               0.000000000               0.000000000               0.000000000              -0.000117511               0.005222116               0.000006037              -0.000696830               0.001972964               0.001276135               0.000000000               0.000000000               0.000000000               0.000000000               0.000240355               0.004295030               0.002016137              -0.000446746               0.001580577               0.001133831               0.000000000               0.000000000               0.000000000               0.000000000              -0.000707150               0.005544566               0.001992272              -0.000958251               0.002167587               0.001209336               0.000000000               0.000000000               0.000000000               0.000000000              -0.001566193               0.006920935               0.001781091              -0.001452436               0.002791100               0.001338664               0.000000000               0.000000000               0.000000000               0.000000000              -0.001598866               0.007269582               0.001446694              -0.001508269               0.002925926               0.001417657               0.000000000               0.000000000               0.000000000               0.000000000              -0.001426414               0.007266439               0.001170991              -0.001443207               0.002903191               0.001459984               0.000000000               0.000000000               0.000000000               0.000000000              -0.001201395               0.007132515               0.000960015              -0.001342084               0.002824843               0.001482758               0.000000000               0.000000000               0.000000000               0.000000000              -0.000967345               0.006945283               0.000796367              -0.001230912               0.002725375               0.001494463               0.000000000               0.000000000               0.000000000               0.000000000              -0.000749421               0.006736123               0.000666501              -0.001123045               0.002619700               0.001496655               0.000000000               0.000000000               0.000000000               0.000000000              -0.000556450               0.006529662               0.000555165              -0.001024874               0.002518157               0.001493283               0.000000000               0.000000000               0.000000000               0.000000000              -0.000391320               0.006339517               0.000457210              -0.000939182               0.002426212               0.001487030               0.000000000               0.000000000               0.000000000               0.000000000              -0.000258001               0.006158172               0.000368626              -0.000866520               0.002341544               0.001475024               0.000000000               0.000000000               0.000000000               0.000000000              -0.000159465               0.005988470               0.000286427              -0.000808356               0.002265589               0.001457233               0.000000000               0.000000000               0.000000000               0.000000000              -0.000107323               0.005808722               0.000212992              -0.000766334               0.002191666               0.001425332               0.000000000               0.000000000               0.000000000               0.000000000              -0.000101876               0.005603887               0.000143680              -0.000738687               0.002114173               0.001375485               0.000000000               0.000000000               0.000000000               0.000000000              -0.000135195               0.005396906               0.000080995              -0.000725309               0.002040721               0.001315411               0.000000000               0.000000000               0.000000000               0.000000000              -0.000200007               0.005192630               0.000034347              -0.000724080               0.001972219               0.001248140               0.000000000               0.000000000               0.000000000               0.000000000              -0.000241904               0.005082478               0.000012667              -0.000726022               0.001936150               0.001210128               0.000000000               0.000000000               0.000000000               0.000000000              -0.000708248               0.002838823               0.001362069              -0.000620445               0.001153079               0.000532634               0.000000000               0.000000000               0.000000000               0.000000000              -0.001088072               0.004280686               0.001809856              -0.000943112               0.001741251               0.000798139               0.000000000               0.000000000               0.000000000               0.000000000              -0.001634878               0.005844522               0.002032903              -0.001343642               0.002396035               0.001052393               0.000000000               0.000000000               0.000000000               0.000000000              -0.001613441               0.006463233               0.001814686              -0.001412942               0.002625370               0.001212428               0.000000000               0.000000000               0.000000000               0.000000000              -0.001430823               0.006678843               0.001549254              -0.001371411               0.002683395               0.001311984               0.000000000               0.000000000               0.000000000               0.000000000              -0.001210969               0.006708095               0.001315864              -0.001292623               0.002666883               0.001374261               0.000000000               0.000000000               0.000000000               0.000000000              -0.000985873               0.006647700               0.001119266              -0.001200662               0.002616099               0.001415436               0.000000000               0.000000000               0.000000000               0.000000000              -0.000772718               0.006539513               0.000955416              -0.001107206               0.002548884               0.001441678               0.000000000               0.000000000               0.000000000               0.000000000              -0.000573020               0.006411265               0.000817320              -0.001016288               0.002475829               0.001459541               0.000000000               0.000000000               0.000000000               0.000000000              -0.000394524               0.006271967               0.000695596              -0.000931940               0.002401281               0.001469341               0.000000000               0.000000000               0.000000000               0.000000000              -0.000248481               0.006126112               0.000582651              -0.000858942               0.002328331               0.001469389               0.000000000               0.000000000               0.000000000               0.000000000              -0.000133279               0.005982429               0.000471140              -0.000797781               0.002260050               0.001462269               0.000000000               0.000000000               0.000000000               0.000000000              -0.000065964               0.005817508               0.000363110              -0.000751923               0.002189791               0.001437868               0.000000000               0.000000000               0.000000000               0.000000000              -0.000057043               0.005619340               0.000257896              -0.000723807               0.002114363               0.001390557               0.000000000               0.000000000               0.000000000               0.000000000              -0.000094462               0.005413044               0.000154257              -0.000712052               0.002041681               0.001329629               0.000000000               0.000000000               0.000000000               0.000000000              -0.000180317               0.005202805               0.000066050              -0.000717968               0.001973573               0.001255606               0.000000000               0.000000000               0.000000000               0.000000000              -0.000250708               0.005086184               0.000022952              -0.000729787               0.001938640               0.001208853               0.000000000               0.000000000               0.000000000               0.000000000              -0.001838620               0.001628512               0.000740190              -0.000893045               0.000840513              -0.000052532               0.000000000               0.000000000               0.000000000               0.000000000              -0.001569419               0.003093013               0.001539499              -0.000975157               0.001356046               0.000380889               0.000000000               0.000000000               0.000000000               0.000000000              -0.001662014               0.004647179               0.002114679              -0.001204151               0.001950427               0.000746276               0.000000000               0.000000000               0.000000000               0.000000000              -0.001522803               0.005453632               0.002045842              -0.001252753               0.002235443               0.000982690               0.000000000               0.000000000               0.000000000               0.000000000              -0.001316915               0.005870874               0.001830192              -0.001227700               0.002366171               0.001138471               0.000000000               0.000000000               0.000000000               0.000000000              -0.001104939               0.006075223               0.001602412              -0.001173753               0.002416304               0.001242552               0.000000000               0.000000000               0.000000000               0.000000000              -0.000896930               0.006163061               0.001392782              -0.001106729               0.002423243               0.001316514               0.000000000               0.000000000               0.000000000               0.000000000              -0.000698765               0.006181782               0.001211760              -0.001034758               0.002405493               0.001370735               0.000000000               0.000000000               0.000000000               0.000000000              -0.000508365               0.006150669               0.001060985              -0.000959468               0.002370025               0.001410557               0.000000000               0.000000000               0.000000000               0.000000000              -0.000327476               0.006084702               0.000925095              -0.000883389               0.002322677               0.001439287               0.000000000               0.000000000               0.000000000               0.000000000              -0.000170306               0.005998934               0.000795660              -0.000813730               0.002270868               0.001457138               0.000000000               0.000000000               0.000000000               0.000000000              -0.000042171               0.005898970               0.000668280              -0.000753184               0.002217365               0.001464181               0.000000000               0.000000000               0.000000000               0.000000000               0.000047582               0.005766805               0.000535592              -0.000703006               0.002156584               0.001453579               0.000000000               0.000000000               0.000000000               0.000000000               0.000081278               0.005599392               0.000396035              -0.000669443               0.002089593               0.001420150               0.000000000               0.000000000               0.000000000               0.000000000               0.000058328               0.005408158               0.000254161              -0.000654145               0.002020750               0.001366605               0.000000000               0.000000000               0.000000000               0.000000000              -0.000019248               0.005200262               0.000119647              -0.000657249               0.001952486               0.001295237               0.000000000               0.000000000               0.000000000               0.000000000              -0.000092403               0.005084072               0.000049429              -0.000670159               0.001918060               0.001247901               0.000000000               0.000000000               0.000000000               0.000000000              -0.003065731               0.000723244               0.000225052              -0.001240053               0.000654428              -0.000585625               0.000000000               0.000000000               0.000000000               0.000000000              -0.002119527               0.002039573               0.001212144              -0.001049768               0.001029772              -0.000019995               0.000000000               0.000000000               0.000000000               0.000000000              -0.001671778               0.003423147               0.002009669              -0.001054809               0.001492640               0.000437831               0.000000000               0.000000000               0.000000000               0.000000000              -0.001357749               0.004325326               0.002079811              -0.001049820               0.001791700               0.000741880               0.000000000               0.000000000               0.000000000               0.000000000              -0.001104862               0.004904300               0.001934746              -0.001027359               0.001977203               0.000949844               0.000000000               0.000000000               0.000000000               0.000000000              -0.000892129               0.005273968               0.001738994              -0.000993793               0.002089235               0.001095443               0.000000000               0.000000000               0.000000000               0.000000000              -0.000702450               0.005511029               0.001542714              -0.000952296               0.002154423               0.001202127               0.000000000               0.000000000               0.000000000               0.000000000              -0.000520500               0.005662234               0.001367005              -0.000902965               0.002188381               0.001285415               0.000000000               0.000000000               0.000000000               0.000000000              -0.000347660               0.005746388               0.001217761              -0.000848669               0.002198333               0.001349664               0.000000000               0.000000000               0.000000000               0.000000000              -0.000180559               0.005777092               0.001082534              -0.000789844               0.002188959               0.001399115               0.000000000               0.000000000               0.000000000               0.000000000              -0.000019903               0.005769929               0.000952042              -0.000728703               0.002166191               0.001437488               0.000000000               0.000000000               0.000000000               0.000000000               0.000123247               0.005735278               0.000823007              -0.000670691               0.002135304               0.001464613               0.000000000               0.000000000               0.000000000               0.000000000               0.000233352               0.005654195               0.000683831              -0.000619266               0.002091135               0.001471869               0.000000000               0.000000000               0.000000000               0.000000000               0.000303842               0.005526876               0.000528863              -0.000576917               0.002034579               0.001457662               0.000000000               0.000000000               0.000000000               0.000000000               0.000326197               0.005366782               0.000362395              -0.000548522               0.001971750               0.001423228               0.000000000               0.000000000               0.000000000               0.000000000               0.000288939               0.005185109               0.000185695              -0.000539785               0.001908281               0.001368496               0.000000000               0.000000000               0.000000000               0.000000000               0.000236340               0.005082758               0.000088864              -0.000546716               0.001876474               0.001329758               0.000000000               0.000000000               0.000000000               0.000000000              -0.004262556               0.000109645              -0.000112101              -0.001612163               0.000573932              -0.001038231               0.000000000               0.000000000               0.000000000               0.000000000              -0.002681445               0.001174588               0.000867604              -0.001152364               0.000775645              -0.000376719               0.000000000               0.000000000               0.000000000               0.000000000              -0.001680851               0.002290852               0.001711209              -0.000916674               0.001069167               0.000152492               0.000000000               0.000000000               0.000000000               0.000000000              -0.001163256               0.003202978               0.001872934              -0.000836592               0.001346512               0.000509920               0.000000000               0.000000000               0.000000000               0.000000000              -0.000842959               0.003889065               0.001801115              -0.000802242               0.001563755               0.000761513               0.000000000               0.000000000               0.000000000               0.000000000              -0.000613149               0.004394505               0.001655838              -0.000779243               0.001724568               0.000945325               0.000000000               0.000000000               0.000000000               0.000000000              -0.000427801               0.004765563               0.001496565              -0.000756120               0.001840545               0.001084425               0.000000000               0.000000000               0.000000000               0.000000000              -0.000262246               0.005040623               0.001348022              -0.000728419               0.001922997               0.001194578               0.000000000               0.000000000               0.000000000               0.000000000              -0.000107430               0.005241552               0.001216608              -0.000695479               0.001978993               0.001283513               0.000000000               0.000000000               0.000000000               0.000000000               0.000042434               0.005377508               0.001097796              -0.000656275               0.002011243               0.001354968               0.000000000               0.000000000               0.000000000               0.000000000               0.000195882               0.005462309               0.000983210              -0.000609332               0.002023862               0.001414530               0.000000000               0.000000000               0.000000000               0.000000000               0.000348265               0.005509248               0.000865797              -0.000558056               0.002022416               0.001464360               0.000000000               0.000000000               0.000000000               0.000000000               0.000483695               0.005495001               0.000738780              -0.000505488               0.002000145               0.001494656               0.000000000               0.000000000               0.000000000               0.000000000               0.000599013               0.005417825               0.000595673              -0.000452597               0.001956789               0.001504192               0.000000000               0.000000000               0.000000000               0.000000000               0.000691070               0.005302854               0.000429555              -0.000403705               0.001902169               0.001498464               0.000000000               0.000000000               0.000000000               0.000000000               0.000744954               0.005160631               0.000231198              -0.000365720               0.001842100               0.001476380               0.000000000               0.000000000               0.000000000               0.000000000               0.000763928               0.005083930               0.000122150              -0.000349017               0.001810966               0.001461948               0.000000000               0.000000000               0.000000000               0.000000000              -0.005277009              -0.000256281              -0.000238674              -0.001946842               0.000563516              -0.001383326               0.000000000               0.000000000               0.000000000               0.000000000              -0.003182148               0.000541872               0.000543381              -0.001261038               0.000600966              -0.000660072               0.000000000               0.000000000               0.000000000               0.000000000              -0.001701619               0.001376686               0.001244120              -0.000810192               0.000728953              -0.000081238               0.000000000               0.000000000               0.000000000               0.000000000              -0.000981252               0.002244857               0.001421834              -0.000648576               0.000964469               0.000315893               0.000000000               0.000000000               0.000000000               0.000000000              -0.000582502               0.002983597               0.001403380              -0.000591387               0.001191651               0.000600264               0.000000000               0.000000000               0.000000000               0.000000000              -0.000329220               0.003579586               0.001314758              -0.000570905               0.001383485               0.000812580               0.000000000               0.000000000               0.000000000               0.000000000              -0.000139682               0.004053452               0.001206467              -0.000559062               0.001537491               0.000978429               0.000000000               0.000000000               0.000000000               0.000000000               0.000016325               0.004427910               0.001099576              -0.000547366               0.001658410               0.001111044               0.000000000               0.000000000               0.000000000               0.000000000               0.000156417               0.004724675               0.001002939              -0.000531927               0.001752185               0.001220257               0.000000000               0.000000000               0.000000000               0.000000000               0.000292485               0.004954650               0.000915675              -0.000509648               0.001821416               0.001311768               0.000000000               0.000000000               0.000000000               0.000000000               0.000436167               0.005129756               0.000830010              -0.000477656               0.001869120               0.001391464               0.000000000               0.000000000               0.000000000               0.000000000               0.000592264               0.005256877               0.000740211              -0.000435010               0.001897278               0.001462268               0.000000000               0.000000000               0.000000000               0.000000000               0.000752911               0.005308589               0.000643375              -0.000381231               0.001896589               0.001515358               0.000000000               0.000000000               0.000000000               0.000000000               0.000916446               0.005289300               0.000531041              -0.000317495               0.001868914               0.001551419               0.000000000               0.000000000               0.000000000               0.000000000               0.001091219               0.005226596               0.000394294              -0.000244117               0.001823554               0.001579437               0.000000000               0.000000000               0.000000000               0.000000000               0.001273772               0.005125360               0.000219473              -0.000163005               0.001762771               0.001599766               0.000000000               0.000000000               0.000000000               0.000000000               0.001410277               0.005082113               0.000125012              -0.000106410               0.001729491               0.001623081               0.000000000               0.000000000               0.000000000               0.000000000              -0.005959323              -0.000434377              -0.000176478              -0.002180448               0.000582020              -0.001598428               0.000000000               0.000000000               0.000000000               0.000000000              -0.003532335               0.000164540               0.000255961              -0.001345192               0.000503240              -0.000841951               0.000000000               0.000000000               0.000000000               0.000000000              -0.001724227               0.000786810               0.000653034              -0.000744935               0.000510578              -0.000234357               0.000000000               0.000000000               0.000000000               0.000000000              -0.000852193               0.001597585               0.000768693              -0.000519270               0.000705612               0.000186343               0.000000000               0.000000000               0.000000000               0.000000000              -0.000387147               0.002349419               0.000771834              -0.000438857               0.000929417               0.000490560               0.000000000               0.000000000               0.000000000               0.000000000              -0.000109832               0.002993777               0.000732340              -0.000415408               0.001136385               0.000720977               0.000000000               0.000000000               0.000000000               0.000000000               0.000080317               0.003531108               0.000678546              -0.000411269               0.001314114               0.000902845               0.000000000               0.000000000               0.000000000               0.000000000               0.000231536               0.003971564               0.000622318              -0.000409619               0.001460381               0.001050762               0.000000000               0.000000000               0.000000000               0.000000000               0.000365734               0.004330171               0.000571342              -0.000404120               0.001578083               0.001173962               0.000000000               0.000000000               0.000000000               0.000000000               0.000494994               0.004620982               0.000525513              -0.000391999               0.001670978               0.001278979               0.000000000               0.000000000               0.000000000               0.000000000               0.000632720               0.004858704               0.000479928              -0.000370067               0.001742908               0.001372840               0.000000000               0.000000000               0.000000000               0.000000000               0.000790230               0.005045364               0.000432057              -0.000334333               0.001793216               0.001458882               0.000000000               0.000000000               0.000000000               0.000000000               0.000964624               0.005149144               0.000378953              -0.000281908               0.001810333               0.001528425               0.000000000               0.000000000               0.000000000               0.000000000               0.001163602               0.005175080               0.000317107              -0.000210534               0.001795187               0.001584654               0.000000000               0.000000000               0.000000000               0.000000000               0.001406394               0.005152903               0.000239375              -0.000116715               0.001756522               0.001639807               0.000000000               0.000000000               0.000000000               0.000000000               0.001704664               0.005088643               0.000134969               0.000003168               0.001695141               0.001698310               0.000000000               0.000000000               0.000000000               0.000000000               0.001951727               0.005076650               0.000080254               0.000097316               0.001659761               0.001757077               0.000000000               0.000000000               0.000000000               0.000000000              -0.006201158              -0.000486788              -0.000000000              -0.002264584               0.000592595              -0.001671989               0.000000000               0.000000000               0.000000000               0.000000000              -0.003659170               0.000038016              -0.000000000              -0.001376940               0.000471649              -0.000905291               0.000000000               0.000000000               0.000000000               0.000000000              -0.001733152               0.000583164              -0.000000000              -0.000722826               0.000435327              -0.000287499               0.000000000               0.000000000               0.000000000               0.000000000              -0.000804414               0.001370440               0.000000000              -0.000472959               0.000614462               0.000141502               0.000000000               0.000000000               0.000000000               0.000000000              -0.000314061               0.002122543               0.000000000              -0.000383090               0.000835204               0.000452114               0.000000000               0.000000000               0.000000000               0.000000000              -0.000025807               0.002780959               0.000000000              -0.000357297               0.001046076               0.000688779               0.000000000               0.000000000               0.000000000               0.000000000               0.000163814               0.003336407               0.000000000              -0.000355620               0.001230664               0.000875045               0.000000000               0.000000000               0.000000000               0.000000000               0.000312300               0.003799843               0.000000000              -0.000357867               0.001385890               0.001028024               0.000000000               0.000000000               0.000000000               0.000000000               0.000445455               0.004180719              -0.000000000              -0.000355543               0.001512073               0.001156530               0.000000000               0.000000000               0.000000000               0.000000000               0.000574013               0.004491590              -0.000000000              -0.000346193               0.001612580               0.001266386               0.000000000               0.000000000               0.000000000               0.000000000               0.000710851               0.004752412               0.000000000              -0.000327482               0.001693282               0.001365800               0.000000000               0.000000000               0.000000000               0.000000000               0.000868556               0.004962342               0.000000000              -0.000294584               0.001752292               0.001457708               0.000000000               0.000000000               0.000000000               0.000000000               0.001046439               0.005088165              -0.000000000              -0.000243605               0.001777240               0.001533634               0.000000000               0.000000000               0.000000000               0.000000000               0.001258759               0.005131336              -0.000000000              -0.000169382               0.001766889               0.001597507               0.000000000               0.000000000               0.000000000               0.000000000               0.001525117               0.005121880               0.000000000              -0.000068316               0.001730048               0.001661732               0.000000000               0.000000000               0.000000000               0.000000000               0.001869793               0.005072043               0.000000000               0.000067166               0.001668275               0.001735441               0.000000000               0.000000000               0.000000000               0.000000000               0.002162281               0.005072499              -0.000000000               0.000176791               0.001631886               0.001808677               0.000000000               0.000000000               0.000000000               0.000000000               0.001699182               0.018932267               0.000000000              -0.001729336               0.006887138               0.005157802               0.000000000               0.000000000               0.000000000               0.000000000               0.001722591               0.015045331              -0.000000000              -0.001234692               0.005426624               0.004191932               0.000000000               0.000000000               0.000000000               0.000000000               0.002289137               0.011912152              -0.000000000              -0.000630591               0.004180875               0.003550284               0.000000000               0.000000000               0.000000000               0.000000000               0.002231205               0.010179184               0.000000000              -0.000435695               0.003538259               0.003102564               0.000000000               0.000000000               0.000000000               0.000000000               0.001976262               0.009118059               0.000000000              -0.000398658               0.003172209               0.002773550               0.000000000               0.000000000               0.000000000               0.000000000               0.001683096               0.008412207               0.000000000              -0.000420364               0.002944162               0.002523798               0.000000000               0.000000000               0.000000000               0.000000000               0.001405644               0.007895405               0.000000000              -0.000459808               0.002785045               0.002325237               0.000000000               0.000000000               0.000000000               0.000000000               0.001157531               0.007487384               0.000000000              -0.000501848               0.002663052               0.002161205               0.000000000               0.000000000               0.000000000               0.000000000               0.000943263               0.007156441              -0.000000000              -0.000540830               0.002565733               0.002024903               0.000000000               0.000000000               0.000000000               0.000000000               0.000748182               0.006872748              -0.000000000              -0.000578524               0.002483734               0.001905211               0.000000000               0.000000000               0.000000000               0.000000000               0.000569257               0.006613510              -0.000000000              -0.000613216               0.002408886               0.001795671               0.000000000               0.000000000               0.000000000               0.000000000               0.000411903               0.006359629              -0.000000000              -0.000640488               0.002333351               0.001692863               0.000000000               0.000000000               0.000000000               0.000000000               0.000277990               0.006099863               0.000000000              -0.000658235               0.002252679               0.001594444               0.000000000               0.000000000               0.000000000               0.000000000               0.000171136               0.005825529               0.000000000              -0.000664013               0.002163161               0.001499148               0.000000000               0.000000000               0.000000000               0.000000000               0.000087846               0.005521516              -0.000000000              -0.000657246               0.002059569               0.001402323               0.000000000               0.000000000               0.000000000               0.000000000               0.000032691               0.005172406              -0.000000000              -0.000634290               0.001935548               0.001301258               0.000000000               0.000000000               0.000000000               0.000000000              -0.000014483               0.004902363               0.000000000              -0.000618225               0.001840180               0.001221955               0.000000000               0.000000000               0.000000000               0.000000000               0.001770006               0.018557721              -0.001316337              -0.001655959               0.006737831               0.005081872               0.000000000               0.000000000               0.000000000               0.000000000               0.001703840               0.014797663              -0.000702726              -0.001210765               0.005336093               0.004125328               0.000000000               0.000000000               0.000000000               0.000000000               0.002174579               0.011802442              -0.000086591              -0.000659836               0.004154054               0.003494217               0.000000000               0.000000000               0.000000000               0.000000000               0.002078550               0.010139892               0.000177180              -0.000488029               0.003542607               0.003054577               0.000000000               0.000000000               0.000000000               0.000000000               0.001818459               0.009117741               0.000287033              -0.000457794               0.003191815               0.002734020               0.000000000               0.000000000               0.000000000               0.000000000               0.001530329               0.008427892               0.000325298              -0.000479612               0.002969140               0.002489528               0.000000000               0.000000000               0.000000000               0.000000000               0.001260324               0.007919149               0.000327548              -0.000517271               0.002812114               0.002294843               0.000000000               0.000000000               0.000000000               0.000000000               0.001023446               0.007518677               0.000318825              -0.000556041               0.002691547               0.002135507               0.000000000               0.000000000               0.000000000               0.000000000               0.000820147               0.007189886               0.000308145              -0.000591179               0.002593665               0.002002485               0.000000000               0.000000000               0.000000000               0.000000000               0.000640766               0.006908591               0.000293942              -0.000623285               0.002510602               0.001887317               0.000000000               0.000000000               0.000000000               0.000000000               0.000481197               0.006650300               0.000274505              -0.000650837               0.002433690               0.001782853               0.000000000               0.000000000               0.000000000               0.000000000               0.000341650               0.006397083               0.000251683              -0.000671515               0.002356178               0.001684663               0.000000000               0.000000000               0.000000000               0.000000000               0.000226147               0.006142355               0.000227817              -0.000682987               0.002275094               0.001592106               0.000000000               0.000000000               0.000000000               0.000000000               0.000139261               0.005879637               0.000197551              -0.000682730               0.002187436               0.001504706               0.000000000               0.000000000               0.000000000               0.000000000               0.000074620               0.005595824               0.000154532              -0.000671494               0.002089087               0.001417593               0.000000000               0.000000000               0.000000000               0.000000000               0.000029590               0.005277077               0.000089630              -0.000648537               0.001975187               0.001326650               0.000000000               0.000000000               0.000000000               0.000000000              -0.000012234               0.005036311               0.000054992              -0.000634125               0.001890128               0.001256003               0.000000000               0.000000000               0.000000000               0.000000000               0.001950277               0.017485362              -0.002463452              -0.001454314               0.006313167               0.004858853               0.000000000               0.000000000               0.000000000               0.000000000               0.001637474               0.014096056              -0.001319704              -0.001147952               0.005081289               0.003933337               0.000000000               0.000000000               0.000000000               0.000000000               0.001846822               0.011489721              -0.000182716              -0.000743655               0.004077753               0.003334099               0.000000000               0.000000000               0.000000000               0.000000000               0.001655043               0.010021111               0.000290673              -0.000631996               0.003551002               0.002919006               0.000000000               0.000000000               0.000000000               0.000000000               0.001379011               0.009098322               0.000480963              -0.000620160               0.003239463               0.002619304               0.000000000               0.000000000               0.000000000               0.000000000               0.001109054               0.008454357               0.000543119              -0.000640898               0.003031723               0.002390825               0.000000000               0.000000000               0.000000000               0.000000000               0.000872981               0.007971621               0.000547591              -0.000669083               0.002880208               0.002211125               0.000000000               0.000000000               0.000000000               0.000000000               0.000674607               0.007589233               0.000531722              -0.000695675               0.002761611               0.002065936               0.000000000               0.000000000               0.000000000               0.000000000               0.000510155               0.007268790               0.000512959              -0.000717289               0.002662002               0.001944713               0.000000000               0.000000000               0.000000000               0.000000000               0.000375271               0.006987140               0.000491134              -0.000732664               0.002573245               0.001840581               0.000000000               0.000000000               0.000000000               0.000000000               0.000265333               0.006727880               0.000459787              -0.000741483               0.002489765               0.001748282               0.000000000               0.000000000               0.000000000               0.000000000               0.000178956               0.006482538               0.000423582              -0.000743207               0.002408560               0.001665353               0.000000000               0.000000000               0.000000000               0.000000000               0.000112898               0.006244708               0.000384356              -0.000738250               0.002327632               0.001589382               0.000000000               0.000000000               0.000000000               0.000000000               0.000064105               0.006009184               0.000332591              -0.000727107               0.002245410               0.001518303               0.000000000               0.000000000               0.000000000               0.000000000               0.000029724               0.005773561               0.000257030              -0.000710547               0.002161350               0.001450803               0.000000000               0.000000000               0.000000000               0.000000000               0.000007054               0.005536338               0.000146718              -0.000689395               0.002075226               0.001385831               0.000000000               0.000000000               0.000000000               0.000000000              -0.000016025               0.005376266               0.000087154              -0.000678041               0.002018084               0.001340043               0.000000000               0.000000000               0.000000000               0.000000000               0.002162062               0.015860842              -0.003310993              -0.001171831               0.005677504               0.004505673               0.000000000               0.000000000               0.000000000               0.000000000               0.001503172               0.013048496              -0.001790204              -0.001067371               0.004705245               0.003637875               0.000000000               0.000000000               0.000000000               0.000000000               0.001345465               0.011018344              -0.000297136              -0.000872741               0.003963659               0.003090917               0.000000000               0.000000000               0.000000000               0.000000000               0.001042577               0.009824759               0.000297864              -0.000837126               0.003553929               0.002716803               0.000000000               0.000000000               0.000000000               0.000000000               0.000764505               0.009033794               0.000528662              -0.000842533               0.003292079               0.002449546               0.000000000               0.000000000               0.000000000               0.000000000               0.000539428               0.008455253               0.000601507              -0.000854619               0.003103263               0.002248643               0.000000000               0.000000000               0.000000000               0.000000000               0.000363062               0.008007103               0.000607461              -0.000864738               0.002957253               0.002092516               0.000000000               0.000000000               0.000000000               0.000000000               0.000225560               0.007642201               0.000588938              -0.000870688               0.002837604               0.001966916               0.000000000               0.000000000               0.000000000               0.000000000               0.000125979               0.007331095               0.000564530              -0.000869143               0.002733388               0.001864245               0.000000000               0.000000000               0.000000000               0.000000000               0.000059382               0.007049030               0.000537083              -0.000858858               0.002635939               0.001777081               0.000000000               0.000000000               0.000000000               0.000000000               0.000019403               0.006789667               0.000502174              -0.000841430               0.002543677               0.001702246               0.000000000               0.000000000               0.000000000               0.000000000              -0.000001136               0.006552023               0.000460072              -0.000819427               0.002457128               0.001637701               0.000000000               0.000000000               0.000000000               0.000000000              -0.000011317               0.006332451               0.000410602              -0.000795798               0.002376062               0.001580264               0.000000000               0.000000000               0.000000000               0.000000000              -0.000014756               0.006132771               0.000346006              -0.000772128               0.002301613               0.001529485               0.000000000               0.000000000               0.000000000               0.000000000              -0.000013389               0.005956449               0.000257183              -0.000749575               0.002235321               0.001485746               0.000000000               0.000000000               0.000000000               0.000000000              -0.000008884               0.005813500               0.000139941              -0.000730017               0.002181153               0.001451136               0.000000000               0.000000000               0.000000000               0.000000000              -0.000009962               0.005740981               0.000076705              -0.000721356               0.002154093               0.001432737               0.000000000               0.000000000               0.000000000               0.000000000               0.002296042               0.013881728              -0.003786608              -0.000874201               0.004918596               0.004044395               0.000000000               0.000000000               0.000000000               0.000000000               0.001275619               0.011792697              -0.002088719              -0.000995729               0.004262769               0.003267040               0.000000000               0.000000000               0.000000000               0.000000000               0.000731300               0.010444912              -0.000439950              -0.001031374               0.003825394               0.002794020               0.000000000               0.000000000               0.000000000               0.000000000               0.000348864               0.009553166               0.000186477              -0.001063319               0.003538796               0.002475477               0.000000000               0.000000000               0.000000000               0.000000000               0.000104183               0.008900339               0.000422800              -0.001073471               0.003324574               0.002251103               0.000000000               0.000000000               0.000000000               0.000000000              -0.000047824               0.008390845               0.000496777              -0.001066787               0.003152516               0.002085729               0.000000000               0.000000000               0.000000000               0.000000000              -0.000141957               0.007976427               0.000505989              -0.001050285               0.003008877               0.001958592               0.000000000               0.000000000               0.000000000               0.000000000              -0.000197128               0.007625802               0.000492821              -0.001027146               0.002884291               0.001857145               0.000000000               0.000000000               0.000000000               0.000000000              -0.000220287               0.007319619               0.000471562              -0.000997558               0.002772368               0.001774810               0.000000000               0.000000000               0.000000000               0.000000000              -0.000215498               0.007042005               0.000443541              -0.000961060               0.002667665               0.001706605               0.000000000               0.000000000               0.000000000               0.000000000              -0.000191242               0.006787628               0.000409696              -0.000920167               0.002569243               0.001649075               0.000000000               0.000000000               0.000000000               0.000000000              -0.000153261               0.006561456               0.000367972              -0.000877653               0.002479681               0.001602028               0.000000000               0.000000000               0.000000000               0.000000000              -0.000113448               0.006362864               0.000318181              -0.000837899               0.002400233               0.001562334               0.000000000               0.000000000               0.000000000               0.000000000              -0.000076668               0.006193635               0.000255704              -0.000802953               0.002332175               0.001529222               0.000000000               0.000000000               0.000000000               0.000000000              -0.000041845               0.006060037               0.000176638              -0.000773195               0.002277724               0.001504529               0.000000000               0.000000000               0.000000000               0.000000000              -0.000017297               0.005972156               0.000087192              -0.000753004               0.002241700               0.001488696               0.000000000               0.000000000               0.000000000               0.000000000              -0.000008343               0.005942694               0.000041552              -0.000745963               0.002229533               0.001483569               0.000000000               0.000000000               0.000000000               0.000000000               0.002254857               0.011737627              -0.003892964              -0.000621634               0.004119714               0.003498080               0.000000000               0.000000000               0.000000000               0.000000000               0.000943289               0.010453800              -0.002231173              -0.000952991               0.003802228               0.002849238               0.000000000               0.000000000               0.000000000               0.000000000               0.000077375               0.009817441              -0.000625887              -0.001198162               0.003671835               0.002473673               0.000000000               0.000000000               0.000000000               0.000000000              -0.000318224               0.009211097              -0.000037791              -0.001270718               0.003493908               0.002223190               0.000000000               0.000000000               0.000000000               0.000000000              -0.000487066               0.008683047               0.000187180              -0.001268027               0.003316996               0.002048968               0.000000000               0.000000000               0.000000000               0.000000000              -0.000541974               0.008237660               0.000266345              -0.001232945               0.003156841               0.001923896               0.000000000               0.000000000               0.000000000               0.000000000              -0.000540960               0.007854455               0.000287365              -0.001184664               0.003013013               0.001828349               0.000000000               0.000000000               0.000000000               0.000000000              -0.000507874               0.007516403               0.000289412              -0.001130000               0.002882109               0.001752109               0.000000000               0.000000000               0.000000000               0.000000000              -0.000454873               0.007215096               0.000283173              -0.001072462               0.002762495               0.001690033               0.000000000               0.000000000               0.000000000               0.000000000              -0.000388935               0.006944015               0.000266380              -0.001013850               0.002652598               0.001638748               0.000000000               0.000000000               0.000000000               0.000000000              -0.000314331               0.006703351               0.000242991              -0.000955791               0.002553025               0.001597234               0.000000000               0.000000000               0.000000000               0.000000000              -0.000241487               0.006494773               0.000212752              -0.000902402               0.002465703               0.001563301               0.000000000               0.000000000               0.000000000               0.000000000              -0.000175549               0.006316371               0.000173805              -0.000855375               0.002390561               0.001535186               0.000000000               0.000000000               0.000000000               0.000000000              -0.000112604               0.006166746               0.000128121              -0.000813068               0.002326584               0.001513516               0.000000000               0.000000000               0.000000000               0.000000000              -0.000058091               0.006053123               0.000076846              -0.000778423               0.002277162               0.001498739               0.000000000               0.000000000               0.000000000               0.000000000              -0.000021137               0.005981621               0.000030309              -0.000755627               0.002245729               0.001490102               0.000000000               0.000000000               0.000000000               0.000000000              -0.000009625               0.005953016               0.000012283              -0.000747735               0.002233564               0.001485829               0.000000000               0.000000000               0.000000000               0.000000000               0.001991598               0.009600730              -0.003685420              -0.000453245               0.003351292               0.002898047               0.000000000               0.000000000               0.000000000               0.000000000               0.000528118               0.009133893              -0.002254816              -0.000943692               0.003359164               0.002415472               0.000000000               0.000000000               0.000000000               0.000000000              -0.000537665               0.009165333              -0.000860811              -0.001347288               0.003504176               0.002156888               0.000000000               0.000000000               0.000000000               0.000000000              -0.000873793               0.008806089              -0.000347344              -0.001428430               0.003411477               0.001983047               0.000000000               0.000000000               0.000000000               0.000000000              -0.000932051               0.008389074              -0.000128383              -0.001398150               0.003262380               0.001864230               0.000000000               0.000000000               0.000000000               0.000000000              -0.000880821               0.007999002              -0.000029011              -0.001330180               0.003109701               0.001779521               0.000000000               0.000000000               0.000000000               0.000000000              -0.000789097               0.007643498               0.000016420              -0.001251345               0.002964922               0.001713577               0.000000000               0.000000000               0.000000000               0.000000000              -0.000679232               0.007321114               0.000043849              -0.001169848               0.002830297               0.001660448               0.000000000               0.000000000               0.000000000               0.000000000              -0.000560755               0.007030039               0.000061651              -0.001089035               0.002706334               0.001617299               0.000000000               0.000000000               0.000000000               0.000000000              -0.000448648               0.006767767               0.000067045              -0.001014211               0.002593970               0.001579759               0.000000000               0.000000000               0.000000000               0.000000000              -0.000346924               0.006539865               0.000064618              -0.000947577               0.002495792               0.001548215               0.000000000               0.000000000               0.000000000               0.000000000              -0.000254375               0.006345962               0.000056593              -0.000888634               0.002411511               0.001522877               0.000000000               0.000000000               0.000000000               0.000000000              -0.000174569               0.006179987               0.000040170              -0.000837960               0.002339295               0.001501335               0.000000000               0.000000000               0.000000000               0.000000000              -0.000109383               0.006043071               0.000019657              -0.000796401               0.002279804               0.001483403               0.000000000               0.000000000               0.000000000               0.000000000              -0.000059156               0.005940566               0.000003184              -0.000764752               0.002235086               0.001470334               0.000000000               0.000000000               0.000000000               0.000000000              -0.000024610               0.005865228              -0.000005014              -0.000742380               0.002202517               0.001460136               0.000000000               0.000000000               0.000000000               0.000000000              -0.000020531               0.005817816              -0.000001049              -0.000734924               0.002184227               0.001449303               0.000000000               0.000000000               0.000000000               0.000000000               0.001525103               0.007604822              -0.003240287              -0.000378692               0.002661145               0.002282453               0.000000000               0.000000000               0.000000000               0.000000000               0.000061708               0.007908139              -0.002198394              -0.000965376               0.002957812               0.001992435               0.000000000               0.000000000               0.000000000               0.000000000              -0.001048382               0.008500896              -0.001135901              -0.001455752               0.003318854               0.001863102               0.000000000               0.000000000               0.000000000               0.000000000              -0.001264556               0.008347123              -0.000692671              -0.001517595               0.003288212               0.001770616               0.000000000               0.000000000               0.000000000               0.000000000              -0.001205492               0.008033573              -0.000463055              -0.001456253               0.003163248               0.001706996               0.000000000               0.000000000               0.000000000               0.000000000              -0.001059108               0.007697788              -0.000331072              -0.001359386               0.003019032               0.001659646               0.000000000               0.000000000               0.000000000               0.000000000              -0.000889784               0.007373020              -0.000248911              -0.001255293               0.002876080               0.001620786               0.000000000               0.000000000               0.000000000               0.000000000              -0.000721649               0.007070769              -0.000189791              -0.001154462               0.002741720               0.001587258               0.000000000               0.000000000               0.000000000               0.000000000              -0.000564461               0.006792625              -0.000143482              -0.001060748               0.002617768               0.001557020               0.000000000               0.000000000               0.000000000               0.000000000              -0.000425048               0.006544970              -0.000109193              -0.000977512               0.002507472               0.001529960               0.000000000               0.000000000               0.000000000               0.000000000              -0.000307776               0.006330421              -0.000081171              -0.000906717               0.002412358               0.001505642               0.000000000               0.000000000               0.000000000               0.000000000              -0.000212623               0.006143825              -0.000060161              -0.000847710               0.002330491               0.001482781               0.000000000               0.000000000               0.000000000               0.000000000              -0.000142801               0.005982931              -0.000049350              -0.000801415               0.002261429               0.001460014               0.000000000               0.000000000               0.000000000               0.000000000              -0.000091318               0.005845549              -0.000039911              -0.000764936               0.002203476               0.001438540               0.000000000               0.000000000               0.000000000               0.000000000              -0.000054217               0.005722201              -0.000024474              -0.000735605               0.002152583               0.001416978               0.000000000               0.000000000               0.000000000               0.000000000              -0.000028791               0.005606832              -0.000009226              -0.000711649               0.002106142               0.001394493               0.000000000               0.000000000               0.000000000               0.000000000              -0.000030305               0.005527042               0.000005866              -0.000702243               0.002076410               0.001374167               0.000000000               0.000000000               0.000000000               0.000000000               0.000946405               0.005895808              -0.002654617              -0.000382076               0.002092607               0.001710531               0.000000000               0.000000000               0.000000000               0.000000000              -0.000372244               0.006809169              -0.002106951              -0.000990737               0.002599945               0.001609209               0.000000000               0.000000000               0.000000000               0.000000000              -0.001408744               0.007858502              -0.001448802              -0.001510588               0.003123004               0.001612415               0.000000000               0.000000000               0.000000000               0.000000000              -0.001499389               0.007917430              -0.001052956              -0.001551946               0.003156432               0.001604486               0.000000000               0.000000000               0.000000000               0.000000000              -0.001353567               0.007720398              -0.000798553              -0.001472634               0.003064318               0.001591684               0.000000000               0.000000000               0.000000000               0.000000000              -0.001140809               0.007452500              -0.000626791              -0.001359362               0.002937262               0.001577900               0.000000000               0.000000000               0.000000000               0.000000000              -0.000918621               0.007167965              -0.000504562              -0.001240475               0.002802790               0.001562314               0.000000000               0.000000000               0.000000000               0.000000000              -0.000710998               0.006890823              -0.000412269              -0.001127974               0.002672909               0.001544935               0.000000000               0.000000000               0.000000000               0.000000000              -0.000527020               0.006632200              -0.000334027              -0.001026655               0.002552929               0.001526275               0.000000000               0.000000000               0.000000000               0.000000000              -0.000370566               0.006403714              -0.000266813              -0.000939424               0.002447691               0.001508267               0.000000000               0.000000000               0.000000000               0.000000000              -0.000246443               0.006199020              -0.000208943              -0.000867291               0.002355416               0.001488125               0.000000000               0.000000000               0.000000000               0.000000000              -0.000155328               0.006015644              -0.000158051              -0.000810201               0.002275262               0.001465060               0.000000000               0.000000000               0.000000000               0.000000000              -0.000098727               0.005846194              -0.000117646              -0.000767795               0.002204644               0.001436849               0.000000000               0.000000000               0.000000000               0.000000000              -0.000078918               0.005671125              -0.000084274              -0.000738483               0.002136517               0.001398034               0.000000000               0.000000000               0.000000000               0.000000000              -0.000088230               0.005494547              -0.000050928              -0.000719903               0.002071465               0.001351562               0.000000000               0.000000000               0.000000000               0.000000000              -0.000106215               0.005323808              -0.000022780              -0.000705305               0.002009686               0.001304382               0.000000000               0.000000000               0.000000000               0.000000000              -0.000117511               0.005222116              -0.000006037              -0.000696830               0.001972964               0.001276135               0.000000000               0.000000000               0.000000000               0.000000000               0.000240355               0.004295030              -0.002016137              -0.000446746               0.001580577               0.001133831               0.000000000               0.000000000               0.000000000               0.000000000              -0.000707150               0.005544566              -0.001992272              -0.000958251               0.002167587               0.001209336               0.000000000               0.000000000               0.000000000               0.000000000              -0.001566193               0.006920935              -0.001781091              -0.001452436               0.002791100               0.001338664               0.000000000               0.000000000               0.000000000               0.000000000              -0.001598866               0.007269582              -0.001446694              -0.001508269               0.002925926               0.001417657               0.000000000               0.000000000               0.000000000               0.000000000              -0.001426414               0.007266439              -0.001170991              -0.001443207               0.002903191               0.001459984               0.000000000               0.000000000               0.000000000               0.000000000              -0.001201395               0.007132515              -0.000960015              -0.001342084               0.002824843               0.001482758               0.000000000               0.000000000               0.000000000               0.000000000              -0.000967345               0.006945283              -0.000796367              -0.001230912               0.002725375               0.001494463               0.000000000               0.000000000               0.000000000               0.000000000              -0.000749421               0.006736123              -0.000666501              -0.001123045               0.002619700               0.001496655               0.000000000               0.000000000               0.000000000               0.000000000              -0.000556450               0.006529662              -0.000555165              -0.001024874               0.002518157               0.001493283               0.000000000               0.000000000               0.000000000               0.000000000              -0.000391320               0.006339517              -0.000457210              -0.000939182               0.002426212               0.001487030               0.000000000               0.000000000               0.000000000               0.000000000              -0.000258001               0.006158172              -0.000368626              -0.000866520               0.002341544               0.001475024               0.000000000               0.000000000               0.000000000               0.000000000              -0.000159465               0.005988470              -0.000286427              -0.000808356               0.002265589               0.001457233               0.000000000               0.000000000               0.000000000               0.000000000              -0.000107323               0.005808722              -0.000212992              -0.000766334               0.002191666               0.001425332               0.000000000               0.000000000               0.000000000               0.000000000              -0.000101876               0.005603887              -0.000143680              -0.000738687               0.002114173               0.001375485               0.000000000               0.000000000               0.000000000               0.000000000              -0.000135195               0.005396906              -0.000080995              -0.000725309               0.002040721               0.001315411               0.000000000               0.000000000               0.000000000               0.000000000              -0.000200007               0.005192630              -0.000034347              -0.000724080               0.001972219               0.001248140               0.000000000               0.000000000               0.000000000               0.000000000              -0.000241904               0.005082478              -0.000012667              -0.000726022               0.001936150               0.001210128               0.000000000               0.000000000               0.000000000               0.000000000              -0.000708248               0.002838823              -0.001362069              -0.000620445               0.001153079               0.000532634               0.000000000               0.000000000               0.000000000               0.000000000              -0.001088072               0.004280686              -0.001809856              -0.000943112               0.001741251               0.000798139               0.000000000               0.000000000               0.000000000               0.000000000              -0.001634878               0.005844522              -0.002032903              -0.001343642               0.002396035               0.001052393               0.000000000               0.000000000               0.000000000               0.000000000              -0.001613441               0.006463233              -0.001814686              -0.001412942               0.002625370               0.001212428               0.000000000               0.000000000               0.000000000               0.000000000              -0.001430823               0.006678843              -0.001549254              -0.001371411               0.002683395               0.001311984               0.000000000               0.000000000               0.000000000               0.000000000              -0.001210969               0.006708095              -0.001315864              -0.001292623               0.002666883               0.001374261               0.000000000               0.000000000               0.000000000               0.000000000              -0.000985873               0.006647700              -0.001119266              -0.001200662               0.002616099               0.001415436               0.000000000               0.000000000               0.000000000               0.000000000              -0.000772718               0.006539513              -0.000955416              -0.001107206               0.002548884               0.001441678               0.000000000               0.000000000               0.000000000               0.000000000              -0.000573020               0.006411265              -0.000817320              -0.001016288               0.002475829               0.001459541               0.000000000               0.000000000               0.000000000               0.000000000              -0.000394524               0.006271967              -0.000695596              -0.000931940               0.002401281               0.001469341               0.000000000               0.000000000               0.000000000               0.000000000              -0.000248481               0.006126112              -0.000582651              -0.000858942               0.002328331               0.001469389               0.000000000               0.000000000               0.000000000               0.000000000              -0.000133279               0.005982429              -0.000471140              -0.000797781               0.002260050               0.001462269               0.000000000               0.000000000               0.000000000               0.000000000              -0.000065964               0.005817508              -0.000363110              -0.000751923               0.002189791               0.001437868               0.000000000               0.000000000               0.000000000               0.000000000              -0.000057043               0.005619340              -0.000257896              -0.000723807               0.002114363               0.001390557               0.000000000               0.000000000               0.000000000               0.000000000              -0.000094462               0.005413044              -0.000154257              -0.000712052               0.002041681               0.001329629               0.000000000               0.000000000               0.000000000               0.000000000              -0.000180317               0.005202805              -0.000066050              -0.000717968               0.001973573               0.001255606               0.000000000               0.000000000               0.000000000               0.000000000              -0.000250708               0.005086184              -0.000022952              -0.000729787               0.001938640               0.001208853               0.000000000               0.000000000               0.000000000               0.000000000              -0.001838620               0.001628512              -0.000740190              -0.000893045               0.000840513              -0.000052532               0.000000000               0.000000000               0.000000000               0.000000000              -0.001569419               0.003093013              -0.001539499              -0.000975157               0.001356046               0.000380889               0.000000000               0.000000000               0.000000000               0.000000000              -0.001662014               0.004647179              -0.002114679              -0.001204151               0.001950427               0.000746276               0.000000000               0.000000000               0.000000000               0.000000000              -0.001522803               0.005453632              -0.002045842              -0.001252753               0.002235443               0.000982690               0.000000000               0.000000000               0.000000000               0.000000000              -0.001316915               0.005870874              -0.001830192              -0.001227700               0.002366171               0.001138471               0.000000000               0.000000000               0.000000000               0.000000000              -0.001104939               0.006075223              -0.001602412              -0.001173753               0.002416304               0.001242552               0.000000000               0.000000000               0.000000000               0.000000000              -0.000896930               0.006163061              -0.001392782              -0.001106729               0.002423243               0.001316514               0.000000000               0.000000000               0.000000000               0.000000000              -0.000698765               0.006181782              -0.001211760              -0.001034758               0.002405493               0.001370735               0.000000000               0.000000000               0.000000000               0.000000000              -0.000508365               0.006150669              -0.001060985              -0.000959468               0.002370025               0.001410557               0.000000000               0.000000000               0.000000000               0.000000000              -0.000327476               0.006084702              -0.000925095              -0.000883389               0.002322677               0.001439287               0.000000000               0.000000000               0.000000000               0.000000000              -0.000170306               0.005998934              -0.000795660              -0.000813730               0.002270868               0.001457138               0.000000000               0.000000000               0.000000000               0.000000000              -0.000042171               0.005898970              -0.000668280              -0.000753184               0.002217365               0.001464181               0.000000000               0.000000000               0.000000000               0.000000000               0.000047582               0.005766805              -0.000535592              -0.000703006               0.002156584               0.001453579               0.000000000               0.000000000               0.000000000               0.000000000               0.000081278               0.005599392              -0.000396035              -0.000669443               0.002089593               0.001420150               0.000000000               0.000000000               0.000000000               0.000000000               0.000058328               0.005408158              -0.000254161              -0.000654145               0.002020750               0.001366605               0.000000000               0.000000000               0.000000000               0.000000000              -0.000019248               0.005200262              -0.000119647              -0.000657249               0.001952486               0.001295237               0.000000000               0.000000000               0.000000000               0.000000000              -0.000092403               0.005084072              -0.000049429              -0.000670159               0.001918060               0.001247901               0.000000000               0.000000000               0.000000000               0.000000000              -0.003065731               0.000723244              -0.000225052              -0.001240053               0.000654428              -0.000585625               0.000000000               0.000000000               0.000000000               0.000000000              -0.002119527               0.002039573              -0.001212144              -0.001049768               0.001029772              -0.000019995               0.000000000               0.000000000               0.000000000               0.000000000              -0.001671778               0.003423147              -0.002009669              -0.001054809               0.001492640               0.000437831               0.000000000               0.000000000               0.000000000               0.000000000              -0.001357749               0.004325326              -0.002079811              -0.001049820               0.001791700               0.000741880               0.000000000               0.000000000               0.000000000               0.000000000              -0.001104862               0.004904300              -0.001934746              -0.001027359               0.001977203               0.000949844               0.000000000               0.000000000               0.000000000               0.000000000              -0.000892129               0.005273968              -0.001738994              -0.000993793               0.002089235               0.001095443               0.000000000               0.000000000               0.000000000               0.000000000              -0.000702450               0.005511029              -0.001542714              -0.000952296               0.002154423               0.001202127               0.000000000               0.000000000               0.000000000               0.000000000              -0.000520500               0.005662234              -0.001367005              -0.000902965               0.002188381               0.001285415               0.000000000               0.000000000               0.000000000               0.000000000              -0.000347660               0.005746388              -0.001217761              -0.000848669               0.002198333               0.001349664               0.000000000               0.000000000               0.000000000               0.000000000              -0.000180559               0.005777092              -0.001082534              -0.000789844               0.002188959               0.001399115               0.000000000               0.000000000               0.000000000               0.000000000              -0.000019903               0.005769929              -0.000952042              -0.000728703               0.002166191               0.001437488               0.000000000               0.000000000               0.000000000               0.000000000               0.000123247               0.005735278              -0.000823007              -0.000670691               0.002135304               0.001464613               0.000000000               0.000000000               0.000000000               0.000000000               0.000233352               0.005654195              -0.000683831              -0.000619266               0.002091135               0.001471869               0.000000000               0.000000000               0.000000000               0.000000000               0.000303842               0.005526876              -0.000528863              -0.000576917               0.002034579               0.001457662               0.000000000               0.000000000               0.000000000               0.000000000               0.000326197               0.005366782              -0.000362395              -0.000548522               0.001971750               0.001423228               0.000000000               0.000000000               0.000000000               0.000000000               0.000288939               0.005185109              -0.000185695              -0.000539785               0.001908281               0.001368496               0.000000000               0.000000000               0.000000000               0.000000000               0.000236340               0.005082758              -0.000088864              -0.000546716               0.001876474               0.001329758               0.000000000               0.000000000               0.000000000               0.000000000              -0.004262556               0.000109645               0.000112101              -0.001612163               0.000573932              -0.001038231               0.000000000               0.000000000               0.000000000               0.000000000              -0.002681445               0.001174588              -0.000867604              -0.001152364               0.000775645              -0.000376719               0.000000000               0.000000000               0.000000000               0.000000000              -0.001680851               0.002290852              -0.001711209              -0.000916674               0.001069167               0.000152492               0.000000000               0.000000000               0.000000000               0.000000000              -0.001163256               0.003202978              -0.001872934              -0.000836592               0.001346512               0.000509920               0.000000000               0.000000000               0.000000000               0.000000000              -0.000842959               0.003889065              -0.001801115              -0.000802242               0.001563755               0.000761513               0.000000000               0.000000000               0.000000000               0.000000000              -0.000613149               0.004394505              -0.001655838              -0.000779243               0.001724568               0.000945325               0.000000000               0.000000000               0.000000000               0.000000000              -0.000427801               0.004765563              -0.001496565              -0.000756120               0.001840545               0.001084425               0.000000000               0.000000000               0.000000000               0.000000000              -0.000262246               0.005040623              -0.001348022              -0.000728419               0.001922997               0.001194578               0.000000000               0.000000000               0.000000000               0.000000000              -0.000107430               0.005241552              -0.001216608              -0.000695479               0.001978993               0.001283513               0.000000000               0.000000000               0.000000000               0.000000000               0.000042434               0.005377508              -0.001097796              -0.000656275               0.002011243               0.001354968               0.000000000               0.000000000               0.000000000               0.000000000               0.000195882               0.005462309              -0.000983210              -0.000609332               0.002023862               0.001414530               0.000000000               0.000000000               0.000000000               0.000000000               0.000348265               0.005509248              -0.000865797              -0.000558056               0.002022416               0.001464360               0.000000000               0.000000000               0.000000000               0.000000000               0.000483695               0.005495001              -0.000738780              -0.000505488               0.002000145               0.001494656               0.000000000               0.000000000               0.000000000               0.000000000               0.000599013               0.005417825              -0.000595673              -0.000452597               0.001956789               0.001504192               0.000000000               0.000000000               0.000000000               0.000000000               0.000691070               0.005302854              -0.000429555              -0.000403705               0.001902169               0.001498464               0.000000000               0.000000000               0.000000000               0.000000000               0.000744954               0.005160631              -0.000231198              -0.000365720               0.001842100               0.001476380               0.000000000               0.000000000               0.000000000               0.000000000               0.000763928               0.005083930              -0.000122150              -0.000349017               0.001810966               0.001461948               0.000000000               0.000000000               0.000000000               0.000000000              -0.005277009              -0.000256281               0.000238674              -0.001946842               0.000563516              -0.001383326               0.000000000               0.000000000               0.000000000               0.000000000              -0.003182148               0.000541872              -0.000543381              -0.001261038               0.000600966              -0.000660072               0.000000000               0.000000000               0.000000000               0.000000000              -0.001701619               0.001376686              -0.001244120              -0.000810192               0.000728953              -0.000081238               0.000000000               0.000000000               0.000000000               0.000000000              -0.000981252               0.002244857              -0.001421834              -0.000648576               0.000964469               0.000315893               0.000000000               0.000000000               0.000000000               0.000000000              -0.000582502               0.002983597              -0.001403380              -0.000591387               0.001191651               0.000600264               0.000000000               0.000000000               0.000000000               0.000000000              -0.000329220               0.003579586              -0.001314758              -0.000570905               0.001383485               0.000812580               0.000000000               0.000000000               0.000000000               0.000000000              -0.000139682               0.004053452              -0.001206467              -0.000559062               0.001537491               0.000978429               0.000000000               0.000000000               0.000000000               0.000000000               0.000016325               0.004427910              -0.001099576              -0.000547366               0.001658410               0.001111044               0.000000000               0.000000000               0.000000000               0.000000000               0.000156417               0.004724675              -0.001002939              -0.000531927               0.001752185               0.001220257               0.000000000               0.000000000               0.000000000               0.000000000               0.000292485               0.004954650              -0.000915675              -0.000509648               0.001821416               0.001311768               0.000000000               0.000000000               0.000000000               0.000000000               0.000436167               0.005129756              -0.000830010              -0.000477656               0.001869120               0.001391464               0.000000000               0.000000000               0.000000000               0.000000000               0.000592264               0.005256877              -0.000740211              -0.000435010               0.001897278               0.001462268               0.000000000               0.000000000               0.000000000               0.000000000               0.000752911               0.005308589              -0.000643375              -0.000381231               0.001896589               0.001515358               0.000000000               0.000000000               0.000000000               0.000000000               0.000916446               0.005289300              -0.000531041              -0.000317495               0.001868914               0.001551419               0.000000000               0.000000000               0.000000000               0.000000000               0.001091219               0.005226596              -0.000394294              -0.000244117               0.001823554               0.001579437               0.000000000               0.000000000               0.000000000               0.000000000               0.001273772               0.005125360              -0.000219473              -0.000163005               0.001762771               0.001599766               0.000000000               0.000000000               0.000000000               0.000000000               0.001410277               0.005082113              -0.000125012              -0.000106410               0.001729491               0.001623081               0.000000000               0.000000000               0.000000000               0.000000000              -0.005959323              -0.000434377               0.000176478              -0.002180448               0.000582020              -0.001598428               0.000000000               0.000000000               0.000000000               0.000000000              -0.003532335               0.000164540              -0.000255961              -0.001345192               0.000503240              -0.000841951               0.000000000               0.000000000               0.000000000               0.000000000              -0.001724227               0.000786810              -0.000653034              -0.000744935               0.000510578              -0.000234357               0.000000000               0.000000000               0.000000000               0.000000000              -0.000852193               0.001597585              -0.000768693              -0.000519270               0.000705612               0.000186343               0.000000000               0.000000000               0.000000000               0.000000000              -0.000387147               0.002349419              -0.000771834              -0.000438857               0.000929417               0.000490560               0.000000000               0.000000000               0.000000000               0.000000000              -0.000109832               0.002993777              -0.000732340              -0.000415408               0.001136385               0.000720977               0.000000000               0.000000000               0.000000000               0.000000000               0.000080317               0.003531108              -0.000678546              -0.000411269               0.001314114               0.000902845               0.000000000               0.000000000               0.000000000               0.000000000               0.000231536               0.003971564              -0.000622318              -0.000409619               0.001460381               0.001050762               0.000000000               0.000000000               0.000000000               0.000000000               0.000365734               0.004330171              -0.000571342              -0.000404120               0.001578083               0.001173962               0.000000000               0.000000000               0.000000000               0.000000000               0.000494994               0.004620982              -0.000525513              -0.000391999               0.001670978               0.001278979               0.000000000               0.000000000               0.000000000               0.000000000               0.000632720               0.004858704              -0.000479928              -0.000370067               0.001742908               0.001372840               0.000000000               0.000000000               0.000000000               0.000000000               0.000790230               0.005045364              -0.000432057              -0.000334333               0.001793216               0.001458882               0.000000000               0.000000000               0.000000000               0.000000000               0.000964624               0.005149144              -0.000378953              -0.000281908               0.001810333               0.001528425               0.000000000               0.000000000               0.000000000               0.000000000               0.001163602               0.005175080              -0.000317107              -0.000210534               0.001795187               0.001584654               0.000000000               0.000000000               0.000000000               0.000000000               0.001406394               0.005152903              -0.000239375              -0.000116715               0.001756522               0.001639807               0.000000000               0.000000000               0.000000000               0.000000000               0.001704664               0.005088643              -0.000134969               0.000003168               0.001695141               0.001698310               0.000000000               0.000000000               0.000000000               0.000000000               0.001951727               0.005076650              -0.000080254               0.000097316               0.001659761               0.001757077               0.000000000               0.000000000               0.000000000               0.000000000               0.000000000               0.000000000               0.000000000               0.000000000               0.000000000               0.000000000               0.000000000               0.000000000               0.000000000               0.000000000               0.000000000               0.000000000               0.000000000               0.000000000               0.000000000               0.000000000               0.000000000               0.000000000               0.000000000               0.000000000               0.000000000               0.000000000               0.000000000               0.000000000               0.000000000               0.000000000               0.000000000               0.000000000               0.000000000               0.000000000               0.000000000               0.000000000               0.000000000               0.000000000               0.000000000               0.000000000               0.000000000               0.000000000               0.000000000               0.000000000               0.000000000               0.000000000               0.000000000               0.000000000               0.000000000               0.000000000               0.000000000               0.000000000               0.000000000               0.000000000               0.000000000               0.000000000               0.000000000               0.000000000               0.000000000               0.000000000               0.000000000               0.000000000               0.000000000               0.000000000               0.000000000               0.000000000               0.000000000               0.000000000               0.000000000               0.000000000               0.000000000               0.000000000               0.000000000               0.000000000               0.000000000               0.000000000               0.000000000               0.000000000               0.000000000               0.000000000               0.000000000               0.000000000               0.000000000               0.000000000               0.000000000               0.000000000               0.000000000               0.000000000               0.000000000               0.000000000               0.000000000               0.000000000               0.000000000               0.000000000               0.000000000               0.000000000               0.000000000               0.000000000               0.000000000               0.000000000               0.000000000               0.000000000               0.000000000               0.000000000               0.000000000               0.000000000               0.000000000               0.000000000               0.000000000               0.000000000               0.000000000               0.000000000               0.000000000               0.000000000               0.000000000               0.000000000               0.000000000               0.000000000               0.000000000               0.000000000               0.000000000               0.000000000               0.000000000               0.000000000               0.000000000               0.000000000               0.000000000               0.000000000               0.000000000               0.000000000               0.000000000               0.000000000               0.000000000               0.000000000               0.000000000               0.000000000               0.000000000               0.000000000               0.000000000               0.000000000               0.000000000               0.000000000               0.000000000               0.000000000               0.000000000               0.000000000               0.000000000               0.000000000               0.000000000               0.000000000               0.000000000               0.000000000               0.000000000               0.000000000               0.000000000               0.000000000               0.000000000               0.000000000               0.000000000               0.000000000               0.000000000               0.000000000               0.000000000               0.000000000               0.000000000               0.000000000               0.000000000               0.000000000               0.000000000               0.000000000               0.000000000               0.000000000               0.000000000               0.000000000               0.000000000               0.000000000               0.000000000               0.000000000               0.000000000               0.000000000               0.000000000               0.000000000               0.000000000               0.000000000               0.000000000               0.000000000               0.000000000               0.000000000               0.000000000               0.000000000               0.000000000               0.000000000               0.000000000               0.000000000               0.000000000               0.000000000               0.000000000               0.000000000               0.000000000               0.000000000               0.000000000               0.000000000               0.000000000               0.000000000               0.000000000               0.000000000               0.000000000               0.000000000               0.000000000               0.000000000               0.000000000               0.000000000               0.000000000               0.000000000               0.000000000               0.000000000               0.000000000               0.000000000               0.000000000               0.000000000               0.000000000               0.000000000               0.000000000               0.000000000               0.000000000               0.000000000               0.000000000               0.000000000               0.000000000               0.000000000               0.000000000               0.000000000               0.000000000               0.000000000               0.000000000               0.000000000               0.000000000               0.000000000               0.000000000               0.000000000               0.000000000               0.000000000               0.000000000               0.000000000               0.000000000               0.000000000               0.000000000               0.000000000               0.000000000               0.000000000               0.000000000               0.000000000               0.000000000               0.000000000               0.000000000               0.000000000               0.000000000               0.000000000               0.000000000               0.000000000               0.000000000               0.000000000               0.000000000               0.000000000               0.000000000               0.000000000               0.000000000               0.000000000               0.000000000               0.000000000               0.000000000               0.000000000               0.000000000               0.000000000               0.000000000               0.000000000               0.000000000               0.000000000               0.000000000               0.000000000               0.000000000               0.000000000               0.000000000               0.000000000               0.000000000               0.000000000               0.000000000               0.000000000               0.000000000               0.000000000               0.000000000               0.000000000               0.000000000               0.000000000               0.000000000               0.000000000               0.000000000               0.000000000               0.000000000               0.000000000               0.000000000               0.000000000               0.000000000               0.000000000               0.000000000               0.000000000               0.000000000               0.000000000               0.000000000               0.000000000               0.000000000               0.000000000               0.000000000               0.000000000               0.000000000               0.000000000               0.000000000               0.000000000               0.000000000               0.000000000               0.000000000               0.000000000               0.000000000               0.000000000               0.000000000               0.000000000               0.000000000               0.000000000               0.000000000               0.000000000               0.000000000               0.000000000               0.000000000               0.000000000               0.000000000               0.000000000               0.000000000               0.000000000               0.000000000               0.000000000               0.000000000               0.000000000               0.000000000               0.000000000               0.001770006               0.018557721               0.001316337              -0.001655959               0.006737831               0.005081872               0.000000000               0.000000000               0.000000000               0.000000000               0.001703840               0.014797663               0.000702726              -0.001210765               0.005336093               0.004125328               0.000000000               0.000000000               0.000000000               0.000000000               0.002174579               0.011802442               0.000086591              -0.000659836               0.004154054               0.003494217               0.000000000               0.000000000               0.000000000               0.000000000               0.002078550               0.010139892              -0.000177180              -0.000488029               0.003542607               0.003054577               0.000000000               0.000000000               0.000000000               0.000000000               0.001818459               0.009117741              -0.000287033              -0.000457794               0.003191815               0.002734020               0.000000000               0.000000000               0.000000000               0.000000000               0.001530329               0.008427892              -0.000325298              -0.000479612               0.002969140               0.002489528               0.000000000               0.000000000               0.000000000               0.000000000               0.001260324               0.007919149              -0.000327548              -0.000517271               0.002812114               0.002294843               0.000000000               0.000000000               0.000000000               0.000000000               0.001023446               0.007518677              -0.000318825              -0.000556041               0.002691547               0.002135507               0.000000000               0.000000000               0.000000000               0.000000000               0.000820147               0.007189886              -0.000308145              -0.000591179               0.002593665               0.002002485               0.000000000               0.000000000               0.000000000               0.000000000               0.000640766               0.006908591              -0.000293942              -0.000623285               0.002510602               0.001887317               0.000000000               0.000000000               0.000000000               0.000000000               0.000481197               0.006650300              -0.000274505              -0.000650837               0.002433690               0.001782853               0.000000000               0.000000000               0.000000000               0.000000000               0.000341650               0.006397083              -0.000251683              -0.000671515               0.002356178               0.001684663               0.000000000               0.000000000               0.000000000               0.000000000               0.000226147               0.006142355              -0.000227817              -0.000682987               0.002275094               0.001592106               0.000000000               0.000000000               0.000000000               0.000000000               0.000139261               0.005879637              -0.000197551              -0.000682730               0.002187436               0.001504706               0.000000000               0.000000000               0.000000000               0.000000000               0.000074620               0.005595824              -0.000154532              -0.000671494               0.002089087               0.001417593               0.000000000               0.000000000               0.000000000               0.000000000               0.000029590               0.005277077              -0.000089630              -0.000648537               0.001975187               0.001326650               0.000000000               0.000000000               0.000000000               0.000000000              -0.000012234               0.005036311              -0.000054992              -0.000634125               0.001890128               0.001256003               0.000000000               0.000000000               0.000000000               0.000000000               0.001950277               0.017485362               0.002463452              -0.001454314               0.006313167               0.004858853               0.000000000               0.000000000               0.000000000               0.000000000               0.001637474               0.014096056               0.001319704              -0.001147952               0.005081289               0.003933337               0.000000000               0.000000000               0.000000000               0.000000000               0.001846822               0.011489721               0.000182716              -0.000743655               0.004077753               0.003334099               0.000000000               0.000000000               0.000000000               0.000000000               0.001655043               0.010021111              -0.000290673              -0.000631996               0.003551002               0.002919006               0.000000000               0.000000000               0.000000000               0.000000000               0.001379011               0.009098322              -0.000480963              -0.000620160               0.003239463               0.002619304               0.000000000               0.000000000               0.000000000               0.000000000               0.001109054               0.008454357              -0.000543119              -0.000640898               0.003031723               0.002390825               0.000000000               0.000000000               0.000000000               0.000000000               0.000872981               0.007971621              -0.000547591              -0.000669083               0.002880208               0.002211125               0.000000000               0.000000000               0.000000000               0.000000000               0.000674607               0.007589233              -0.000531722              -0.000695675               0.002761611               0.002065936               0.000000000               0.000000000               0.000000000               0.000000000               0.000510155               0.007268790              -0.000512959              -0.000717289               0.002662002               0.001944713               0.000000000               0.000000000               0.000000000               0.000000000               0.000375271               0.006987140              -0.000491134              -0.000732664               0.002573245               0.001840581               0.000000000               0.000000000               0.000000000               0.000000000               0.000265333               0.006727880              -0.000459787              -0.000741483               0.002489765               0.001748282               0.000000000               0.000000000               0.000000000               0.000000000               0.000178956               0.006482538              -0.000423582              -0.000743207               0.002408560               0.001665353               0.000000000               0.000000000               0.000000000               0.000000000               0.000112898               0.006244708              -0.000384356              -0.000738250               0.002327632               0.001589382               0.000000000               0.000000000               0.000000000               0.000000000               0.000064105               0.006009184              -0.000332591              -0.000727107               0.002245410               0.001518303               0.000000000               0.000000000               0.000000000               0.000000000               0.000029724               0.005773561              -0.000257030              -0.000710547               0.002161350               0.001450803               0.000000000               0.000000000               0.000000000               0.000000000               0.000007054               0.005536338              -0.000146718              -0.000689395               0.002075226               0.001385831               0.000000000               0.000000000               0.000000000               0.000000000              -0.000016025               0.005376266              -0.000087154              -0.000678041               0.002018084               0.001340043               0.000000000               0.000000000               0.000000000               0.000000000               0.002162062               0.015860842               0.003310993              -0.001171831               0.005677504               0.004505673               0.000000000               0.000000000               0.000000000               0.000000000               0.001503172               0.013048496               0.001790204              -0.001067371               0.004705245               0.003637875               0.000000000               0.000000000               0.000000000               0.000000000               0.001345465               0.011018344               0.000297136              -0.000872741               0.003963659               0.003090917               0.000000000               0.000000000               0.000000000               0.000000000               0.001042577               0.009824759              -0.000297864              -0.000837126               0.003553929               0.002716803               0.000000000               0.000000000               0.000000000               0.000000000               0.000764505               0.009033794              -0.000528662              -0.000842533               0.003292079               0.002449546               0.000000000               0.000000000               0.000000000               0.000000000               0.000539428               0.008455253              -0.000601507              -0.000854619               0.003103263               0.002248643               0.000000000               0.000000000               0.000000000               0.000000000               0.000363062               0.008007103              -0.000607461              -0.000864738               0.002957253               0.002092516               0.000000000               0.000000000               0.000000000               0.000000000               0.000225560               0.007642201              -0.000588938              -0.000870688               0.002837604               0.001966916               0.000000000               0.000000000               0.000000000               0.000000000               0.000125979               0.007331095              -0.000564530              -0.000869143               0.002733388               0.001864245               0.000000000               0.000000000               0.000000000               0.000000000               0.000059382               0.007049030              -0.000537083              -0.000858858               0.002635939               0.001777081               0.000000000               0.000000000               0.000000000               0.000000000               0.000019403               0.006789667              -0.000502174              -0.000841430               0.002543677               0.001702246               0.000000000               0.000000000               0.000000000               0.000000000              -0.000001136               0.006552023              -0.000460072              -0.000819427               0.002457128               0.001637701               0.000000000               0.000000000               0.000000000               0.000000000              -0.000011317               0.006332451              -0.000410602              -0.000795798               0.002376062               0.001580264               0.000000000               0.000000000               0.000000000               0.000000000              -0.000014756               0.006132771              -0.000346006              -0.000772128               0.002301613               0.001529485               0.000000000               0.000000000               0.000000000               0.000000000              -0.000013389               0.005956449              -0.000257183              -0.000749575               0.002235321               0.001485746               0.000000000               0.000000000               0.000000000               0.000000000              -0.000008884               0.005813500              -0.000139941              -0.000730017               0.002181153               0.001451136               0.000000000               0.000000000               0.000000000               0.000000000              -0.000009962               0.005740981              -0.000076705              -0.000721356               0.002154093               0.001432737               0.000000000               0.000000000               0.000000000               0.000000000               0.002296042               0.013881728               0.003786608              -0.000874201               0.004918596               0.004044395               0.000000000               0.000000000               0.000000000               0.000000000               0.001275619               0.011792697               0.002088719              -0.000995729               0.004262769               0.003267040               0.000000000               0.000000000               0.000000000               0.000000000               0.000731300               0.010444912               0.000439950              -0.001031374               0.003825394               0.002794020               0.000000000               0.000000000               0.000000000               0.000000000               0.000348864               0.009553166              -0.000186477              -0.001063319               0.003538796               0.002475477               0.000000000               0.000000000               0.000000000               0.000000000               0.000104183               0.008900339              -0.000422800              -0.001073471               0.003324574               0.002251103               0.000000000               0.000000000               0.000000000               0.000000000              -0.000047824               0.008390845              -0.000496777              -0.001066787               0.003152516               0.002085729               0.000000000               0.000000000               0.000000000               0.000000000              -0.000141957               0.007976427              -0.000505989              -0.001050285               0.003008877               0.001958592               0.000000000               0.000000000               0.000000000               0.000000000              -0.000197128               0.007625802              -0.000492821              -0.001027146               0.002884291               0.001857145               0.000000000               0.000000000               0.000000000               0.000000000              -0.000220287               0.007319619              -0.000471562              -0.000997558               0.002772368               0.001774810               0.000000000               0.000000000               0.000000000               0.000000000              -0.000215498               0.007042005              -0.000443541              -0.000961060               0.002667665               0.001706605               0.000000000               0.000000000               0.000000000               0.000000000              -0.000191242               0.006787628              -0.000409696              -0.000920167               0.002569243               0.001649075               0.000000000               0.000000000               0.000000000               0.000000000              -0.000153261               0.006561456              -0.000367972              -0.000877653               0.002479681               0.001602028               0.000000000               0.000000000               0.000000000               0.000000000              -0.000113448               0.006362864              -0.000318181              -0.000837899               0.002400233               0.001562334               0.000000000               0.000000000               0.000000000               0.000000000              -0.000076668               0.006193635              -0.000255704              -0.000802953               0.002332175               0.001529222               0.000000000               0.000000000               0.000000000               0.000000000              -0.000041845               0.006060037              -0.000176638              -0.000773195               0.002277724               0.001504529               0.000000000               0.000000000               0.000000000               0.000000000              -0.000017297               0.005972156              -0.000087192              -0.000753004               0.002241700               0.001488696               0.000000000               0.000000000               0.000000000               0.000000000              -0.000008343               0.005942694              -0.000041552              -0.000745963               0.002229533               0.001483569               0.000000000               0.000000000               0.000000000               0.000000000               0.002254857               0.011737627               0.003892964              -0.000621634               0.004119714               0.003498080               0.000000000               0.000000000               0.000000000               0.000000000               0.000943289               0.010453800               0.002231173              -0.000952991               0.003802228               0.002849238               0.000000000               0.000000000               0.000000000               0.000000000               0.000077375               0.009817441               0.000625887              -0.001198162               0.003671835               0.002473673               0.000000000               0.000000000               0.000000000               0.000000000              -0.000318224               0.009211097               0.000037791              -0.001270718               0.003493908               0.002223190               0.000000000               0.000000000               0.000000000               0.000000000              -0.000487066               0.008683047              -0.000187180              -0.001268027               0.003316996               0.002048968               0.000000000               0.000000000               0.000000000               0.000000000              -0.000541974               0.008237660              -0.000266345              -0.001232945               0.003156841               0.001923896               0.000000000               0.000000000               0.000000000               0.000000000              -0.000540960               0.007854455              -0.000287365              -0.001184664               0.003013013               0.001828349               0.000000000               0.000000000               0.000000000               0.000000000              -0.000507874               0.007516403              -0.000289412              -0.001130000               0.002882109               0.001752109               0.000000000               0.000000000               0.000000000               0.000000000              -0.000454873               0.007215096              -0.000283173              -0.001072462               0.002762495               0.001690033               0.000000000               0.000000000               0.000000000               0.000000000              -0.000388935               0.006944015              -0.000266380              -0.001013850               0.002652598               0.001638748               0.000000000               0.000000000               0.000000000               0.000000000              -0.000314331               0.006703351              -0.000242991              -0.000955791               0.002553025               0.001597234               0.000000000               0.000000000               0.000000000               0.000000000              -0.000241487               0.006494773              -0.000212752              -0.000902402               0.002465703               0.001563301               0.000000000               0.000000000               0.000000000               0.000000000              -0.000175549               0.006316371              -0.000173805              -0.000855375               0.002390561               0.001535186               0.000000000               0.000000000               0.000000000               0.000000000              -0.000112604               0.006166746              -0.000128121              -0.000813068               0.002326584               0.001513516               0.000000000               0.000000000               0.000000000               0.000000000              -0.000058091               0.006053123              -0.000076846              -0.000778423               0.002277162               0.001498739               0.000000000               0.000000000               0.000000000               0.000000000              -0.000021137               0.005981621              -0.000030309              -0.000755627               0.002245729               0.001490102               0.000000000               0.000000000               0.000000000               0.000000000              -0.000009625               0.005953016              -0.000012283              -0.000747735               0.002233564               0.001485829               0.000000000               0.000000000               0.000000000               0.000000000               0.001991598               0.009600730               0.003685420              -0.000453245               0.003351292               0.002898047               0.000000000               0.000000000               0.000000000               0.000000000               0.000528118               0.009133893               0.002254816              -0.000943692               0.003359164               0.002415472               0.000000000               0.000000000               0.000000000               0.000000000              -0.000537665               0.009165333               0.000860811              -0.001347288               0.003504176               0.002156888               0.000000000               0.000000000               0.000000000               0.000000000              -0.000873793               0.008806089               0.000347344              -0.001428430               0.003411477               0.001983047               0.000000000               0.000000000               0.000000000               0.000000000              -0.000932051               0.008389074               0.000128383              -0.001398150               0.003262380               0.001864230               0.000000000               0.000000000               0.000000000               0.000000000              -0.000880821               0.007999002               0.000029011              -0.001330180               0.003109701               0.001779521               0.000000000               0.000000000               0.000000000               0.000000000              -0.000789097               0.007643498              -0.000016420              -0.001251345               0.002964922               0.001713577               0.000000000               0.000000000               0.000000000               0.000000000              -0.000679232               0.007321114              -0.000043849              -0.001169848               0.002830297               0.001660448               0.000000000               0.000000000               0.000000000               0.000000000              -0.000560755               0.007030039              -0.000061651              -0.001089035               0.002706334               0.001617299               0.000000000               0.000000000               0.000000000               0.000000000              -0.000448648               0.006767767              -0.000067045              -0.001014211               0.002593970               0.001579759               0.000000000               0.000000000               0.000000000               0.000000000              -0.000346924               0.006539865              -0.000064618              -0.000947577               0.002495792               0.001548215               0.000000000               0.000000000               0.000000000               0.000000000              -0.000254375               0.006345962              -0.000056593              -0.000888634               0.002411511               0.001522877               0.000000000               0.000000000               0.000000000               0.000000000              -0.000174569               0.006179987              -0.000040170              -0.000837960               0.002339295               0.001501335               0.000000000               0.000000000               0.000000000               0.000000000              -0.000109383               0.006043071              -0.000019657              -0.000796401               0.002279804               0.001483403               0.000000000               0.000000000               0.000000000               0.000000000              -0.000059156               0.005940566              -0.000003184              -0.000764752               0.002235086               0.001470334               0.000000000               0.000000000               0.000000000               0.000000000              -0.000024610               0.005865228               0.000005014              -0.000742380               0.002202517               0.001460136               0.000000000               0.000000000               0.000000000               0.000000000              -0.000020531               0.005817816               0.000001049              -0.000734924               0.002184227               0.001449303               0.000000000               0.000000000               0.000000000               0.000000000               0.001525103               0.007604822               0.003240287              -0.000378692               0.002661145               0.002282453               0.000000000               0.000000000               0.000000000               0.000000000               0.000061708               0.007908139               0.002198394              -0.000965376               0.002957812               0.001992435               0.000000000               0.000000000               0.000000000               0.000000000              -0.001048382               0.008500896               0.001135901              -0.001455752               0.003318854               0.001863102               0.000000000               0.000000000               0.000000000               0.000000000              -0.001264556               0.008347123               0.000692671              -0.001517595               0.003288212               0.001770616               0.000000000               0.000000000               0.000000000               0.000000000              -0.001205492               0.008033573               0.000463055              -0.001456253               0.003163248               0.001706996               0.000000000               0.000000000               0.000000000               0.000000000              -0.001059108               0.007697788               0.000331072              -0.001359386               0.003019032               0.001659646               0.000000000               0.000000000               0.000000000               0.000000000              -0.000889784               0.007373020               0.000248911              -0.001255293               0.002876080               0.001620786               0.000000000               0.000000000               0.000000000               0.000000000              -0.000721649               0.007070769               0.000189791              -0.001154462               0.002741720               0.001587258               0.000000000               0.000000000               0.000000000               0.000000000              -0.000564461               0.006792625               0.000143482              -0.001060748               0.002617768               0.001557020               0.000000000               0.000000000               0.000000000               0.000000000              -0.000425048               0.006544970               0.000109193              -0.000977512               0.002507472               0.001529960               0.000000000               0.000000000               0.000000000               0.000000000              -0.000307776               0.006330421               0.000081171              -0.000906717               0.002412358               0.001505642               0.000000000               0.000000000               0.000000000               0.000000000              -0.000212623               0.006143825               0.000060161              -0.000847710               0.002330491               0.001482781               0.000000000               0.000000000               0.000000000               0.000000000              -0.000142801               0.005982931               0.000049350              -0.000801415               0.002261429               0.001460014               0.000000000               0.000000000               0.000000000               0.000000000              -0.000091318               0.005845549               0.000039911              -0.000764936               0.002203476               0.001438540               0.000000000               0.000000000               0.000000000               0.000000000              -0.000054217               0.005722201               0.000024474              -0.000735605               0.002152583               0.001416978               0.000000000               0.000000000               0.000000000               0.000000000              -0.000028791               0.005606832               0.000009226              -0.000711649               0.002106142               0.001394493               0.000000000               0.000000000               0.000000000               0.000000000              -0.000030305               0.005527042              -0.000005866              -0.000702243               0.002076410               0.001374167               0.000000000               0.000000000               0.000000000               0.000000000               0.000946405               0.005895808               0.002654617              -0.000382076               0.002092607               0.001710531               0.000000000               0.000000000               0.000000000               0.000000000              -0.000372244               0.006809169               0.002106951              -0.000990737               0.002599945               0.001609209               0.000000000               0.000000000               0.000000000               0.000000000              -0.001408744               0.007858502               0.001448802              -0.001510588               0.003123004               0.001612415               0.000000000               0.000000000               0.000000000               0.000000000              -0.001499389               0.007917430               0.001052956              -0.001551946               0.003156432               0.001604486               0.000000000               0.000000000               0.000000000               0.000000000              -0.001353567               0.007720398               0.000798553              -0.001472634               0.003064318               0.001591684               0.000000000               0.000000000               0.000000000               0.000000000              -0.001140809               0.007452500               0.000626791              -0.001359362               0.002937262               0.001577900               0.000000000               0.000000000               0.000000000               0.000000000              -0.000918621               0.007167965               0.000504562              -0.001240475               0.002802790               0.001562314               0.000000000               0.000000000               0.000000000               0.000000000              -0.000710998               0.006890823               0.000412269              -0.001127974               0.002672909               0.001544935               0.000000000               0.000000000               0.000000000               0.000000000              -0.000527020               0.006632200               0.000334027              -0.001026655               0.002552929               0.001526275               0.000000000               0.000000000               0.000000000               0.000000000              -0.000370566               0.006403714               0.000266813              -0.000939424               0.002447691               0.001508267               0.000000000               0.000000000               0.000000000               0.000000000              -0.000246443               0.006199020               0.000208943              -0.000867291               0.002355416               0.001488125               0.000000000               0.000000000               0.000000000               0.000000000              -0.000155328               0.006015644               0.000158051              -0.000810201               0.002275262               0.001465060               0.000000000               0.000000000               0.000000000               0.000000000              -0.000098727               0.005846194               0.000117646              -0.000767795               0.002204644               0.001436849               0.000000000               0.000000000               0.000000000               0.000000000              -0.000078918               0.005671125               0.000084274              -0.000738483               0.002136517               0.001398034               0.000000000               0.000000000               0.000000000               0.000000000              -0.000088230               0.005494547               0.000050928              -0.000719903               0.002071465               0.001351562               0.000000000               0.000000000               0.000000000               0.000000000              -0.000106215               0.005323808               0.000022780              -0.000705305               0.002009686               0.001304382               0.000000000               0.000000000               0.000000000               0.000000000              -0.000117511               0.005222116               0.000006037              -0.000696830               0.001972964               0.001276135               0.000000000               0.000000000               0.000000000               0.000000000               0.000240355               0.004295030               0.002016137              -0.000446746               0.001580577               0.001133831               0.000000000               0.000000000               0.000000000               0.000000000              -0.000707150               0.005544566               0.001992272              -0.000958251               0.002167587               0.001209336               0.000000000               0.000000000               0.000000000               0.000000000              -0.001566193               0.006920935               0.001781091              -0.001452436               0.002791100               0.001338664               0.000000000               0.000000000               0.000000000               0.000000000              -0.001598866               0.007269582               0.001446694              -0.001508269               0.002925926               0.001417657               0.000000000               0.000000000               0.000000000               0.000000000              -0.001426414               0.007266439               0.001170991              -0.001443207               0.002903191               0.001459984               0.000000000               0.000000000               0.000000000               0.000000000              -0.001201395               0.007132515               0.000960015              -0.001342084               0.002824843               0.001482758               0.000000000               0.000000000               0.000000000               0.000000000              -0.000967345               0.006945283               0.000796367              -0.001230912               0.002725375               0.001494463               0.000000000               0.000000000               0.000000000               0.000000000              -0.000749421               0.006736123               0.000666501              -0.001123045               0.002619700               0.001496655               0.000000000               0.000000000               0.000000000               0.000000000              -0.000556450               0.006529662               0.000555165              -0.001024874               0.002518157               0.001493283               0.000000000               0.000000000               0.000000000               0.000000000              -0.000391320               0.006339517               0.000457210              -0.000939182               0.002426212               0.001487030               0.000000000               0.000000000               0.000000000               0.000000000              -0.000258001               0.006158172               0.000368626              -0.000866520               0.002341544               0.001475024               0.000000000               0.000000000               0.000000000               0.000000000              -0.000159465               0.005988470               0.000286427              -0.000808356               0.002265589               0.001457233               0.000000000               0.000000000               0.000000000               0.000000000              -0.000107323               0.005808722               0.000212992              -0.000766334               0.002191666               0.001425332               0.000000000               0.000000000               0.000000000               0.000000000              -0.000101876               0.005603887               0.000143680              -0.000738687               0.002114173               0.001375485               0.000000000               0.000000000               0.000000000               0.000000000              -0.000135195               0.005396906               0.000080995              -0.000725309               0.002040721               0.001315411               0.000000000               0.000000000               0.000000000               0.000000000              -0.000200007               0.005192630               0.000034347              -0.000724080               0.001972219               0.001248140               0.000000000               0.000000000               0.000000000               0.000000000              -0.000241904               0.005082478               0.000012667              -0.000726022               0.001936150               0.001210128               0.000000000               0.000000000               0.000000000               0.000000000              -0.000708248               0.002838823               0.001362069              -0.000620445               0.001153079               0.000532634               0.000000000               0.000000000               0.000000000               0.000000000              -0.001088072               0.004280686               0.001809856              -0.000943112               0.001741251               0.000798139               0.000000000               0.000000000               0.000000000               0.000000000              -0.001634878               0.005844522               0.002032903              -0.001343642               0.002396035               0.001052393               0.000000000               0.000000000               0.000000000               0.000000000              -0.001613441               0.006463233               0.001814686              -0.001412942               0.002625370               0.001212428               0.000000000               0.000000000               0.000000000               0.000000000              -0.001430823               0.006678843               0.001549254              -0.001371411               0.002683395               0.001311984               0.000000000               0.000000000               0.000000000               0.000000000              -0.001210969               0.006708095               0.001315864              -0.001292623               0.002666883               0.001374261               0.000000000               0.000000000               0.000000000               0.000000000              -0.000985873               0.006647700               0.001119266              -0.001200662               0.002616099               0.001415436               0.000000000               0.000000000               0.000000000               0.000000000              -0.000772718               0.006539513               0.000955416              -0.001107206               0.002548884               0.001441678               0.000000000               0.000000000               0.000000000               0.000000000              -0.000573020               0.006411265               0.000817320              -0.001016288               0.002475829               0.001459541               0.000000000               0.000000000               0.000000000               0.000000000              -0.000394524               0.006271967               0.000695596              -0.000931940               0.002401281               0.001469341               0.000000000               0.000000000               0.000000000               0.000000000              -0.000248481               0.006126112               0.000582651              -0.000858942               0.002328331               0.001469389               0.000000000               0.000000000               0.000000000               0.000000000              -0.000133279               0.005982429               0.000471140              -0.000797781               0.002260050               0.001462269               0.000000000               0.000000000               0.000000000               0.000000000              -0.000065964               0.005817508               0.000363110              -0.000751923               0.002189791               0.001437868               0.000000000               0.000000000               0.000000000               0.000000000              -0.000057043               0.005619340               0.000257896              -0.000723807               0.002114363               0.001390557               0.000000000               0.000000000               0.000000000               0.000000000              -0.000094462               0.005413044               0.000154257              -0.000712052               0.002041681               0.001329629               0.000000000               0.000000000               0.000000000               0.000000000              -0.000180317               0.005202805               0.000066050              -0.000717968               0.001973573               0.001255606               0.000000000               0.000000000               0.000000000               0.000000000              -0.000250708               0.005086184               0.000022952              -0.000729787               0.001938640               0.001208853               0.000000000               0.000000000               0.000000000               0.000000000              -0.001838620               0.001628512               0.000740190              -0.000893045               0.000840513              -0.000052532               0.000000000               0.000000000               0.000000000               0.000000000              -0.001569419               0.003093013               0.001539499              -0.000975157               0.001356046               0.000380889               0.000000000               0.000000000               0.000000000               0.000000000              -0.001662014               0.004647179               0.002114679              -0.001204151               0.001950427               0.000746276               0.000000000               0.000000000               0.000000000               0.000000000              -0.001522803               0.005453632               0.002045842              -0.001252753               0.002235443               0.000982690               0.000000000               0.000000000               0.000000000               0.000000000              -0.001316915               0.005870874               0.001830192              -0.001227700               0.002366171               0.001138471               0.000000000               0.000000000               0.000000000               0.000000000              -0.001104939               0.006075223               0.001602412              -0.001173753               0.002416304               0.001242552               0.000000000               0.000000000               0.000000000               0.000000000              -0.000896930               0.006163061               0.001392782              -0.001106729               0.002423243               0.001316514               0.000000000               0.000000000               0.000000000               0.000000000              -0.000698765               0.006181782               0.001211760              -0.001034758               0.002405493               0.001370735               0.000000000               0.000000000               0.000000000               0.000000000              -0.000508365               0.006150669               0.001060985              -0.000959468               0.002370025               0.001410557               0.000000000               0.000000000               0.000000000               0.000000000              -0.000327476               0.006084702               0.000925095              -0.000883389               0.002322677               0.001439287               0.000000000               0.000000000               0.000000000               0.000000000              -0.000170306               0.005998934               0.000795660              -0.000813730               0.002270868               0.001457138               0.000000000               0.000000000               0.000000000               0.000000000              -0.000042171               0.005898970               0.000668280              -0.000753184               0.002217365               0.001464181               0.000000000               0.000000000               0.000000000               0.000000000               0.000047582               0.005766805               0.000535592              -0.000703006               0.002156584               0.001453579               0.000000000               0.000000000               0.000000000               0.000000000               0.000081278               0.005599392               0.000396035              -0.000669443               0.002089593               0.001420150               0.000000000               0.000000000               0.000000000               0.000000000               0.000058328               0.005408158               0.000254161              -0.000654145               0.002020750               0.001366605               0.000000000               0.000000000               0.000000000               0.000000000              -0.000019248               0.005200262               0.000119647              -0.000657249               0.001952486               0.001295237               0.000000000               0.000000000               0.000000000               0.000000000              -0.000092403               0.005084072               0.000049429              -0.000670159               0.001918060               0.001247901               0.000000000               0.000000000               0.000000000               0.000000000              -0.003065731               0.000723244               0.000225052              -0.001240053               0.000654428              -0.000585625               0.000000000               0.000000000               0.000000000               0.000000000              -0.002119527               0.002039573               0.001212144              -0.001049768               0.001029772              -0.000019995               0.000000000               0.000000000               0.000000000               0.000000000              -0.001671778               0.003423147               0.002009669              -0.001054809               0.001492640               0.000437831               0.000000000               0.000000000               0.000000000               0.000000000              -0.001357749               0.004325326               0.002079811              -0.001049820               0.001791700               0.000741880               0.000000000               0.000000000               0.000000000               0.000000000              -0.001104862               0.004904300               0.001934746              -0.001027359               0.001977203               0.000949844               0.000000000               0.000000000               0.000000000               0.000000000              -0.000892129               0.005273968               0.001738994              -0.000993793               0.002089235               0.001095443               0.000000000               0.000000000               0.000000000               0.000000000              -0.000702450               0.005511029               0.001542714              -0.000952296               0.002154423               0.001202127               0.000000000               0.000000000               0.000000000               0.000000000              -0.000520500               0.005662234               0.001367005              -0.000902965               0.002188381               0.001285415               0.000000000               0.000000000               0.000000000               0.000000000              -0.000347660               0.005746388               0.001217761              -0.000848669               0.002198333               0.001349664               0.000000000               0.000000000               0.000000000               0.000000000              -0.000180559               0.005777092               0.001082534              -0.000789844               0.002188959               0.001399115               0.000000000               0.000000000               0.000000000               0.000000000              -0.000019903               0.005769929               0.000952042              -0.000728703               0.002166191               0.001437488               0.000000000               0.000000000               0.000000000               0.000000000               0.000123247               0.005735278               0.000823007              -0.000670691               0.002135304               0.001464613               0.000000000               0.000000000               0.000000000               0.000000000               0.000233352               0.005654195               0.000683831              -0.000619266               0.002091135               0.001471869               0.000000000               0.000000000               0.000000000               0.000000000               0.000303842               0.005526876               0.000528863              -0.000576917               0.002034579               0.001457662               0.000000000               0.000000000               0.000000000               0.000000000               0.000326197               0.005366782               0.000362395              -0.000548522               0.001971750               0.001423228               0.000000000               0.000000000               0.000000000               0.000000000               0.000288939               0.005185109               0.000185695              -0.000539785               0.001908281               0.001368496               0.000000000               0.000000000               0.000000000               0.000000000               0.000236340               0.005082758               0.000088864              -0.000546716               0.001876474               0.001329758               0.000000000               0.000000000               0.000000000               0.000000000              -0.004262556               0.000109645              -0.000112101              -0.001612163               0.000573932              -0.001038231               0.000000000               0.000000000               0.000000000               0.000000000              -0.002681445               0.001174588               0.000867604              -0.001152364               0.000775645              -0.000376719               0.000000000               0.000000000               0.000000000               0.000000000              -0.001680851               0.002290852               0.001711209              -0.000916674               0.001069167               0.000152492               0.000000000               0.000000000               0.000000000               0.000000000              -0.001163256               0.003202978               0.001872934              -0.000836592               0.001346512               0.000509920               0.000000000               0.000000000               0.000000000               0.000000000              -0.000842959               0.003889065               0.001801115              -0.000802242               0.001563755               0.000761513               0.000000000               0.000000000               0.000000000               0.000000000              -0.000613149               0.004394505               0.001655838              -0.000779243               0.001724568               0.000945325               0.000000000               0.000000000               0.000000000               0.000000000              -0.000427801               0.004765563               0.001496565              -0.000756120               0.001840545               0.001084425               0.000000000               0.000000000               0.000000000               0.000000000              -0.000262246               0.005040623               0.001348022              -0.000728419               0.001922997               0.001194578               0.000000000               0.000000000               0.000000000               0.000000000              -0.000107430               0.005241552               0.001216608              -0.000695479               0.001978993               0.001283513               0.000000000               0.000000000               0.000000000               0.000000000               0.000042434               0.005377508               0.001097796              -0.000656275               0.002011243               0.001354968               0.000000000               0.000000000               0.000000000               0.000000000               0.000195882               0.005462309               0.000983210              -0.000609332               0.002023862               0.001414530               0.000000000               0.000000000               0.000000000               0.000000000               0.000348265               0.005509248               0.000865797              -0.000558056               0.002022416               0.001464360               0.000000000               0.000000000               0.000000000               0.000000000               0.000483695               0.005495001               0.000738780              -0.000505488               0.002000145               0.001494656               0.000000000               0.000000000               0.000000000               0.000000000               0.000599013               0.005417825               0.000595673              -0.000452597               0.001956789               0.001504192               0.000000000               0.000000000               0.000000000               0.000000000               0.000691070               0.005302854               0.000429555              -0.000403705               0.001902169               0.001498464               0.000000000               0.000000000               0.000000000               0.000000000               0.000744954               0.005160631               0.000231198              -0.000365720               0.001842100               0.001476380               0.000000000               0.000000000               0.000000000               0.000000000               0.000763928               0.005083930               0.000122150              -0.000349017               0.001810966               0.001461948               0.000000000               0.000000000               0.000000000               0.000000000              -0.005277009              -0.000256281              -0.000238674              -0.001946842               0.000563516              -0.001383326               0.000000000               0.000000000               0.000000000               0.000000000              -0.003182148               0.000541872               0.000543381              -0.001261038               0.000600966              -0.000660072               0.000000000               0.000000000               0.000000000               0.000000000              -0.001701619               0.001376686               0.001244120              -0.000810192               0.000728953              -0.000081238               0.000000000               0.000000000               0.000000000               0.000000000              -0.000981252               0.002244857               0.001421834              -0.000648576               0.000964469               0.000315893               0.000000000               0.000000000               0.000000000               0.000000000              -0.000582502               0.002983597               0.001403380              -0.000591387               0.001191651               0.000600264               0.000000000               0.000000000               0.000000000               0.000000000              -0.000329220               0.003579586               0.001314758              -0.000570905               0.001383485               0.000812580               0.000000000               0.000000000               0.000000000               0.000000000              -0.000139682               0.004053452               0.001206467              -0.000559062               0.001537491               0.000978429               0.000000000               0.000000000               0.000000000               0.000000000               0.000016325               0.004427910               0.001099576              -0.000547366               0.001658410               0.001111044               0.000000000               0.000000000               0.000000000               0.000000000               0.000156417               0.004724675               0.001002939              -0.000531927               0.001752185               0.001220257               0.000000000               0.000000000               0.000000000               0.000000000               0.000292485               0.004954650               0.000915675              -0.000509648               0.001821416               0.001311768               0.000000000               0.000000000               0.000000000               0.000000000               0.000436167               0.005129756               0.000830010              -0.000477656               0.001869120               0.001391464               0.000000000               0.000000000               0.000000000               0.000000000               0.000592264               0.005256877               0.000740211              -0.000435010               0.001897278               0.001462268               0.000000000               0.000000000               0.000000000               0.000000000               0.000752911               0.005308589               0.000643375              -0.000381231               0.001896589               0.001515358               0.000000000               0.000000000               0.000000000               0.000000000               0.000916446               0.005289300               0.000531041              -0.000317495               0.001868914               0.001551419               0.000000000               0.000000000               0.000000000               0.000000000               0.001091219               0.005226596               0.000394294              -0.000244117               0.001823554               0.001579437               0.000000000               0.000000000               0.000000000               0.000000000               0.001273772               0.005125360               0.000219473              -0.000163005               0.001762771               0.001599766               0.000000000               0.000000000               0.000000000               0.000000000               0.001410277               0.005082113               0.000125012              -0.000106410               0.001729491               0.001623081               0.000000000               0.000000000               0.000000000               0.000000000              -0.005959323              -0.000434377              -0.000176478              -0.002180448               0.000582020              -0.001598428               0.000000000               0.000000000               0.000000000               0.000000000              -0.003532335               0.000164540               0.000255961              -0.001345192               0.000503240              -0.000841951               0.000000000               0.000000000               0.000000000               0.000000000              -0.001724227               0.000786810               0.000653034              -0.000744935               0.000510578              -0.000234357               0.000000000               0.000000000               0.000000000               0.000000000              -0.000852193               0.001597585               0.000768693              -0.000519270               0.000705612               0.000186343               0.000000000               0.000000000               0.000000000               0.000000000              -0.000387147               0.002349419               0.000771834              -0.000438857               0.000929417               0.000490560               0.000000000               0.000000000               0.000000000               0.000000000              -0.000109832               0.002993777               0.000732340              -0.000415408               0.001136385               0.000720977               0.000000000               0.000000000               0.000000000               0.000000000               0.000080317               0.003531108               0.000678546              -0.000411269               0.001314114               0.000902845               0.000000000               0.000000000               0.000000000               0.000000000               0.000231536               0.003971564               0.000622318              -0.000409619               0.001460381               0.001050762               0.000000000               0.000000000               0.000000000               0.000000000               0.000365734               0.004330171               0.000571342              -0.000404120               0.001578083               0.001173962               0.000000000               0.000000000               0.000000000               0.000000000               0.000494994               0.004620982               0.000525513              -0.000391999               0.001670978               0.001278979               0.000000000               0.000000000               0.000000000               0.000000000               0.000632720               0.004858704               0.000479928              -0.000370067               0.001742908               0.001372840               0.000000000               0.000000000               0.000000000               0.000000000               0.000790230               0.005045364               0.000432057              -0.000334333               0.001793216               0.001458882               0.000000000               0.000000000               0.000000000               0.000000000               0.000964624               0.005149144               0.000378953              -0.000281908               0.001810333               0.001528425               0.000000000               0.000000000               0.000000000               0.000000000               0.001163602               0.005175080               0.000317107              -0.000210534               0.001795187               0.001584654               0.000000000               0.000000000               0.000000000               0.000000000               0.001406394               0.005152903               0.000239375              -0.000116715               0.001756522               0.001639807               0.000000000               0.000000000               0.000000000               0.000000000               0.001704664               0.005088643               0.000134969               0.000003168               0.001695141               0.001698310               0.000000000               0.000000000               0.000000000               0.000000000               0.001951727               0.005076650               0.000080254               0.000097316               0.001659761               0.001757077               0.000000000               0.000000000               0.000000000               0.000000000               0.000000000               0.000000000               0.000000000               0.000000000               0.000000000               0.000000000               0.000000000               0.000000000               0.000000000               0.000000000               0.000000000               0.000000000               0.000000000               0.000000000               0.000000000               0.000000000               0.000000000               0.000000000               0.000000000               0.000000000               0.000000000               0.000000000               0.000000000               0.000000000               0.000000000               0.000000000               0.000000000               0.000000000               0.000000000               0.000000000               0.000000000               0.000000000               0.000000000               0.000000000               0.000000000               0.000000000               0.000000000               0.000000000               0.000000000               0.000000000               0.000000000               0.000000000               0.000000000               0.000000000               0.000000000               0.000000000               0.000000000               0.000000000               0.000000000               0.000000000               0.000000000               0.000000000               0.000000000               0.000000000               0.000000000               0.000000000               0.000000000               0.000000000               0.000000000               0.000000000               0.000000000               0.000000000               0.000000000               0.000000000               0.000000000               0.000000000               0.000000000               0.000000000               0.000000000               0.000000000               0.000000000               0.000000000               0.000000000               0.000000000               0.000000000               0.000000000               0.000000000               0.000000000               0.000000000               0.000000000               0.000000000               0.000000000               0.000000000               0.000000000               0.000000000               0.000000000               0.000000000               0.000000000               0.000000000               0.000000000               0.000000000               0.000000000               0.000000000               0.000000000               0.000000000               0.000000000               0.000000000               0.000000000               0.000000000               0.000000000               0.000000000               0.000000000               0.000000000               0.000000000               0.000000000               0.000000000               0.000000000               0.000000000               0.000000000               0.000000000               0.000000000               0.000000000               0.000000000               0.000000000               0.000000000               0.000000000               0.000000000               0.000000000               0.000000000               0.000000000               0.000000000               0.000000000               0.000000000               0.000000000               0.000000000               0.000000000               0.000000000               0.000000000               0.000000000               0.000000000               0.000000000               0.000000000               0.000000000               0.000000000               0.000000000               0.000000000               0.000000000               0.000000000               0.000000000               0.000000000               0.000000000               0.000000000               0.000000000               0.000000000               0.000000000               0.000000000               0.000000000               0.000000000               0.000000000               0.000000000               0.000000000               0.000000000               0.000000000               0.000000000               0.000000000               0.000000000               0.000000000               0.000000000               0.000000000               0.000000000               0.000000000               0.000000000               0.000000000               0.000000000               0.000000000               0.000000000               0.000000000               0.000000000               0.000000000               0.000000000 </DataArray>
</PointData>
</Piece>
</UnstructuredGrid> </VTKFile>
