<?xml version="1.0"?>
<VTKFile type="UnstructuredGrid" version="0.1">
<UnstructuredGrid>
<Piece NumberOfPoints="      1156" NumberOfCells="      1024">
<Points>
<DataArray type="Float64"                                    Name="coordinates"                                                      NumberOfComponents=" 3" format="ascii">
              0.133000000               0.000000000               0.000000000               0.155937500               0.000000000               0.000000000               0.178875000               0.000000000               0.000000000               0.201812500               0.000000000               0.000000000               0.224750000               0.000000000               0.000000000               0.247687500               0.000000000               0.000000000               0.270625000               0.000000000               0.000000000               0.293562500               0.000000000               0.000000000               0.316500000               0.000000000               0.000000000               0.339437500               0.000000000               0.000000000               0.362375000               0.000000000               0.000000000               0.385312500               0.000000000               0.000000000               0.408250000               0.000000000               0.000000000               0.431187500               0.000000000               0.000000000               0.454125000               0.000000000               0.000000000               0.477062500               0.000000000               0.000000000               0.500000000               0.000000000               0.000000000               0.132359569               0.013036280               0.000000000               0.155337096               0.016127762               0.000000000               0.178314623               0.019219245               0.000000000               0.201292150               0.022310727               0.000000000               0.224269676               0.025402210               0.000000000               0.247247203               0.028493692               0.000000000               0.270224730               0.031585175               0.000000000               0.293202257               0.034676657               0.000000000               0.316179784               0.037768140               0.000000000               0.339157311               0.040859622               0.000000000               0.362134838               0.043951105               0.000000000               0.385112365               0.047042587               0.000000000               0.408089892               0.050134070               0.000000000               0.431067419               0.053225552               0.000000000               0.454044946               0.056317035               0.000000000               0.477022473               0.059408517               0.000000000               0.500000000               0.062500000               0.000000000               0.130444442               0.025947013               0.000000000               0.153541665               0.032137825               0.000000000               0.176638887               0.038328636               0.000000000               0.199736109               0.044519448               0.000000000               0.222833332               0.050710260               0.000000000               0.245930554               0.056901071               0.000000000               0.269027776               0.063091883               0.000000000               0.292124999               0.069282695               0.000000000               0.315222221               0.075473506               0.000000000               0.338319444               0.081664318               0.000000000               0.361416666               0.087855130               0.000000000               0.384513888               0.094045942               0.000000000               0.407611111               0.100236753               0.000000000               0.430708333               0.106427565               0.000000000               0.453805555               0.112618377               0.000000000               0.476902778               0.118809188               0.000000000               0.500000000               0.125000000               0.000000000               0.127273065               0.038607862               0.000000000               0.150568498               0.047913621               0.000000000               0.173863932               0.057219379               0.000000000               0.197159365               0.066525138               0.000000000               0.220454798               0.075830897               0.000000000               0.243750232               0.085136655               0.000000000               0.267045665               0.094442414               0.000000000               0.290341099               0.103748172               0.000000000               0.313636532               0.113053931               0.000000000               0.336931966               0.122359690               0.000000000               0.360227399               0.131665448               0.000000000               0.383522833               0.140971207               0.000000000               0.406818266               0.150276966               0.000000000               0.430113700               0.159582724               0.000000000               0.453409133               0.168888483               0.000000000               0.476704567               0.178194241               0.000000000               0.500000000               0.187500000               0.000000000               0.122875978               0.050896897               0.000000000               0.146446229               0.063340840               0.000000000               0.170016481               0.075784784               0.000000000               0.193586732               0.088228728               0.000000000               0.217156983               0.100672672               0.000000000               0.240727235               0.113116616               0.000000000               0.264297486               0.125560560               0.000000000               0.287867738               0.138004504               0.000000000               0.311437989               0.150448448               0.000000000               0.335008240               0.162892392               0.000000000               0.358578492               0.175336336               0.000000000               0.382148743               0.187780280               0.000000000               0.405718994               0.200224224               0.000000000               0.429289246               0.212668168               0.000000000               0.452859497               0.225112112               0.000000000               0.476429749               0.237556056               0.000000000               0.500000000               0.250000000               0.000000000               0.117295528               0.062695766               0.000000000               0.141214558               0.078308531               0.000000000               0.165133587               0.093921295               0.000000000               0.189052617               0.109534060               0.000000000               0.212971646               0.125146824               0.000000000               0.236890676               0.140759589               0.000000000               0.260809705               0.156372354               0.000000000               0.284728735               0.171985118               0.000000000               0.308647764               0.187597883               0.000000000               0.332566794               0.203210648               0.000000000               0.356485823               0.218823412               0.000000000               0.380404853               0.234436177               0.000000000               0.404323882               0.250048941               0.000000000               0.428242912               0.265661706               0.000000000               0.452161941               0.281274471               0.000000000               0.476080971               0.296887235               0.000000000               0.500000000               0.312500000               0.000000000               0.110585458               0.073890841               0.000000000               0.134923867               0.092710163               0.000000000               0.159262276               0.111529486               0.000000000               0.183600685               0.130348808               0.000000000               0.207939094               0.149168131               0.000000000               0.232277503               0.167987453               0.000000000               0.256615912               0.186806776               0.000000000               0.280954320               0.205626098               0.000000000               0.305292729               0.224445420               0.000000000               0.329631138               0.243264743               0.000000000               0.353969547               0.262084065               0.000000000               0.378307956               0.280903388               0.000000000               0.402646365               0.299722710               0.000000000               0.426984773               0.318542033               0.000000000               0.451323182               0.337361355               0.000000000               0.475661591               0.356180678               0.000000000               0.500000000               0.375000000               0.000000000               0.102810390               0.084374307               0.000000000               0.127634741               0.106444663               0.000000000               0.152459092               0.128515018               0.000000000               0.177283442               0.150585374               0.000000000               0.202107793               0.172655730               0.000000000               0.226932143               0.194726086               0.000000000               0.251756494               0.216796442               0.000000000               0.276580845               0.238866798               0.000000000               0.301405195               0.260937153               0.000000000               0.326229546               0.283007509               0.000000000               0.351053896               0.305077865               0.000000000               0.375878247               0.327148221               0.000000000               0.400702598               0.349218577               0.000000000               0.425526948               0.371288933               0.000000000               0.450351299               0.393359288               0.000000000               0.475175649               0.415429644               0.000000000               0.500000000               0.437500000               0.000000000               0.094045202               0.094045202               0.000000000               0.119417377               0.119417377               0.000000000               0.144789552               0.144789552               0.000000000               0.170161727               0.170161727               0.000000000               0.195533901               0.195533901               0.000000000               0.220906076               0.220906076               0.000000000               0.246278251               0.246278251               0.000000000               0.271650426               0.271650426               0.000000000               0.297022601               0.297022601               0.000000000               0.322394776               0.322394776               0.000000000               0.347766951               0.347766951               0.000000000               0.373139126               0.373139126               0.000000000               0.398511300               0.398511300               0.000000000               0.423883475               0.423883475               0.000000000               0.449255650               0.449255650               0.000000000               0.474627825               0.474627825               0.000000000               0.500000000               0.500000000               0.000000000               0.084374307               0.102810390               0.000000000               0.106444663               0.127634741               0.000000000               0.128515018               0.152459092               0.000000000               0.150585374               0.177283442               0.000000000               0.172655730               0.202107793               0.000000000               0.194726086               0.226932143               0.000000000               0.216796442               0.251756494               0.000000000               0.238866798               0.276580845               0.000000000               0.260937153               0.301405195               0.000000000               0.283007509               0.326229546               0.000000000               0.305077865               0.351053896               0.000000000               0.327148221               0.375878247               0.000000000               0.349218577               0.400702598               0.000000000               0.371288933               0.425526948               0.000000000               0.393359288               0.450351299               0.000000000               0.415429644               0.475175649               0.000000000               0.437500000               0.500000000               0.000000000               0.073890841               0.110585458               0.000000000               0.092710163               0.134923867               0.000000000               0.111529486               0.159262276               0.000000000               0.130348808               0.183600685               0.000000000               0.149168131               0.207939094               0.000000000               0.167987453               0.232277503               0.000000000               0.186806776               0.256615912               0.000000000               0.205626098               0.280954320               0.000000000               0.224445420               0.305292729               0.000000000               0.243264743               0.329631138               0.000000000               0.262084065               0.353969547               0.000000000               0.280903388               0.378307956               0.000000000               0.299722710               0.402646365               0.000000000               0.318542033               0.426984773               0.000000000               0.337361355               0.451323182               0.000000000               0.356180678               0.475661591               0.000000000               0.375000000               0.500000000               0.000000000               0.062695766               0.117295528               0.000000000               0.078308531               0.141214558               0.000000000               0.093921295               0.165133587               0.000000000               0.109534060               0.189052617               0.000000000               0.125146824               0.212971646               0.000000000               0.140759589               0.236890676               0.000000000               0.156372354               0.260809705               0.000000000               0.171985118               0.284728735               0.000000000               0.187597883               0.308647764               0.000000000               0.203210648               0.332566794               0.000000000               0.218823412               0.356485823               0.000000000               0.234436177               0.380404853               0.000000000               0.250048941               0.404323882               0.000000000               0.265661706               0.428242912               0.000000000               0.281274471               0.452161941               0.000000000               0.296887235               0.476080971               0.000000000               0.312500000               0.500000000               0.000000000               0.050896897               0.122875978               0.000000000               0.063340840               0.146446229               0.000000000               0.075784784               0.170016481               0.000000000               0.088228728               0.193586732               0.000000000               0.100672672               0.217156983               0.000000000               0.113116616               0.240727235               0.000000000               0.125560560               0.264297486               0.000000000               0.138004504               0.287867738               0.000000000               0.150448448               0.311437989               0.000000000               0.162892392               0.335008240               0.000000000               0.175336336               0.358578492               0.000000000               0.187780280               0.382148743               0.000000000               0.200224224               0.405718994               0.000000000               0.212668168               0.429289246               0.000000000               0.225112112               0.452859497               0.000000000               0.237556056               0.476429749               0.000000000               0.250000000               0.500000000               0.000000000               0.038607862               0.127273065               0.000000000               0.047913621               0.150568498               0.000000000               0.057219379               0.173863932               0.000000000               0.066525138               0.197159365               0.000000000               0.075830897               0.220454798               0.000000000               0.085136655               0.243750232               0.000000000               0.094442414               0.267045665               0.000000000               0.103748172               0.290341099               0.000000000               0.113053931               0.313636532               0.000000000               0.122359690               0.336931966               0.000000000               0.131665448               0.360227399               0.000000000               0.140971207               0.383522833               0.000000000               0.150276966               0.406818266               0.000000000               0.159582724               0.430113700               0.000000000               0.168888483               0.453409133               0.000000000               0.178194241               0.476704567               0.000000000               0.187500000               0.500000000               0.000000000               0.025947013               0.130444442               0.000000000               0.032137825               0.153541665               0.000000000               0.038328636               0.176638887               0.000000000               0.044519448               0.199736109               0.000000000               0.050710260               0.222833332               0.000000000               0.056901071               0.245930554               0.000000000               0.063091883               0.269027776               0.000000000               0.069282695               0.292124999               0.000000000               0.075473506               0.315222221               0.000000000               0.081664318               0.338319444               0.000000000               0.087855130               0.361416666               0.000000000               0.094045942               0.384513888               0.000000000               0.100236753               0.407611111               0.000000000               0.106427565               0.430708333               0.000000000               0.112618377               0.453805555               0.000000000               0.118809188               0.476902778               0.000000000               0.125000000               0.500000000               0.000000000               0.013036280               0.132359569               0.000000000               0.016127762               0.155337096               0.000000000               0.019219245               0.178314623               0.000000000               0.022310727               0.201292150               0.000000000               0.025402210               0.224269676               0.000000000               0.028493692               0.247247203               0.000000000               0.031585175               0.270224730               0.000000000               0.034676657               0.293202257               0.000000000               0.037768140               0.316179784               0.000000000               0.040859622               0.339157311               0.000000000               0.043951105               0.362134838               0.000000000               0.047042587               0.385112365               0.000000000               0.050134070               0.408089892               0.000000000               0.053225552               0.431067419               0.000000000               0.056317035               0.454044946               0.000000000               0.059408517               0.477022473               0.000000000               0.062500000               0.500000000               0.000000000               0.000000000               0.133000000               0.000000000               0.000000000               0.155937500               0.000000000               0.000000000               0.178875000               0.000000000               0.000000000               0.201812500               0.000000000               0.000000000               0.224750000               0.000000000               0.000000000               0.247687500               0.000000000               0.000000000               0.270625000               0.000000000               0.000000000               0.293562500               0.000000000               0.000000000               0.316500000               0.000000000               0.000000000               0.339437500               0.000000000               0.000000000               0.362375000               0.000000000               0.000000000               0.385312500               0.000000000               0.000000000               0.408250000               0.000000000               0.000000000               0.431187500               0.000000000               0.000000000               0.454125000               0.000000000               0.000000000               0.477062500               0.000000000               0.000000000               0.500000000               0.000000000               0.133000000               0.000000000               0.000000000               0.155937500               0.000000000               0.000000000               0.178875000               0.000000000               0.000000000               0.201812500               0.000000000               0.000000000               0.224750000               0.000000000               0.000000000               0.247687500               0.000000000               0.000000000               0.270625000               0.000000000               0.000000000               0.293562500               0.000000000               0.000000000               0.316500000               0.000000000               0.000000000               0.339437500               0.000000000               0.000000000               0.362375000               0.000000000               0.000000000               0.385312500               0.000000000               0.000000000               0.408250000               0.000000000               0.000000000               0.431187500               0.000000000               0.000000000               0.454125000               0.000000000               0.000000000               0.477062500               0.000000000               0.000000000               0.500000000               0.000000000               0.000000000               0.132359569              -0.013036280               0.000000000               0.155337096              -0.016127762               0.000000000               0.178314623              -0.019219245               0.000000000               0.201292150              -0.022310727               0.000000000               0.224269676              -0.025402210               0.000000000               0.247247203              -0.028493692               0.000000000               0.270224730              -0.031585175               0.000000000               0.293202257              -0.034676657               0.000000000               0.316179784              -0.037768140               0.000000000               0.339157311              -0.040859622               0.000000000               0.362134838              -0.043951105               0.000000000               0.385112365              -0.047042587               0.000000000               0.408089892              -0.050134070               0.000000000               0.431067419              -0.053225552               0.000000000               0.454044946              -0.056317035               0.000000000               0.477022473              -0.059408517               0.000000000               0.500000000              -0.062500000               0.000000000               0.130444442              -0.025947013               0.000000000               0.153541665              -0.032137825               0.000000000               0.176638887              -0.038328636               0.000000000               0.199736109              -0.044519448               0.000000000               0.222833332              -0.050710260               0.000000000               0.245930554              -0.056901071               0.000000000               0.269027776              -0.063091883               0.000000000               0.292124999              -0.069282695               0.000000000               0.315222221              -0.075473506               0.000000000               0.338319444              -0.081664318               0.000000000               0.361416666              -0.087855130               0.000000000               0.384513888              -0.094045942               0.000000000               0.407611111              -0.100236753               0.000000000               0.430708333              -0.106427565               0.000000000               0.453805555              -0.112618377               0.000000000               0.476902778              -0.118809188               0.000000000               0.500000000              -0.125000000               0.000000000               0.127273065              -0.038607862               0.000000000               0.150568498              -0.047913621               0.000000000               0.173863932              -0.057219379               0.000000000               0.197159365              -0.066525138               0.000000000               0.220454798              -0.075830897               0.000000000               0.243750232              -0.085136655               0.000000000               0.267045665              -0.094442414               0.000000000               0.290341099              -0.103748172               0.000000000               0.313636532              -0.113053931               0.000000000               0.336931966              -0.122359690               0.000000000               0.360227399              -0.131665448               0.000000000               0.383522833              -0.140971207               0.000000000               0.406818266              -0.150276966               0.000000000               0.430113700              -0.159582724               0.000000000               0.453409133              -0.168888483               0.000000000               0.476704567              -0.178194241               0.000000000               0.500000000              -0.187500000               0.000000000               0.122875978              -0.050896897               0.000000000               0.146446229              -0.063340840               0.000000000               0.170016481              -0.075784784               0.000000000               0.193586732              -0.088228728               0.000000000               0.217156983              -0.100672672               0.000000000               0.240727235              -0.113116616               0.000000000               0.264297486              -0.125560560               0.000000000               0.287867738              -0.138004504               0.000000000               0.311437989              -0.150448448               0.000000000               0.335008240              -0.162892392               0.000000000               0.358578492              -0.175336336               0.000000000               0.382148743              -0.187780280               0.000000000               0.405718994              -0.200224224               0.000000000               0.429289246              -0.212668168               0.000000000               0.452859497              -0.225112112               0.000000000               0.476429749              -0.237556056               0.000000000               0.500000000              -0.250000000               0.000000000               0.117295528              -0.062695766               0.000000000               0.141214558              -0.078308531               0.000000000               0.165133587              -0.093921295               0.000000000               0.189052617              -0.109534060               0.000000000               0.212971646              -0.125146824               0.000000000               0.236890676              -0.140759589               0.000000000               0.260809705              -0.156372354               0.000000000               0.284728735              -0.171985118               0.000000000               0.308647764              -0.187597883               0.000000000               0.332566794              -0.203210648               0.000000000               0.356485823              -0.218823412               0.000000000               0.380404853              -0.234436177               0.000000000               0.404323882              -0.250048941               0.000000000               0.428242912              -0.265661706               0.000000000               0.452161941              -0.281274471               0.000000000               0.476080971              -0.296887235               0.000000000               0.500000000              -0.312500000               0.000000000               0.110585458              -0.073890841               0.000000000               0.134923867              -0.092710163               0.000000000               0.159262276              -0.111529486               0.000000000               0.183600685              -0.130348808               0.000000000               0.207939094              -0.149168131               0.000000000               0.232277503              -0.167987453               0.000000000               0.256615912              -0.186806776               0.000000000               0.280954320              -0.205626098               0.000000000               0.305292729              -0.224445420               0.000000000               0.329631138              -0.243264743               0.000000000               0.353969547              -0.262084065               0.000000000               0.378307956              -0.280903388               0.000000000               0.402646365              -0.299722710               0.000000000               0.426984773              -0.318542033               0.000000000               0.451323182              -0.337361355               0.000000000               0.475661591              -0.356180678               0.000000000               0.500000000              -0.375000000               0.000000000               0.102810390              -0.084374307               0.000000000               0.127634741              -0.106444663               0.000000000               0.152459092              -0.128515018               0.000000000               0.177283442              -0.150585374               0.000000000               0.202107793              -0.172655730               0.000000000               0.226932143              -0.194726086               0.000000000               0.251756494              -0.216796442               0.000000000               0.276580845              -0.238866798               0.000000000               0.301405195              -0.260937153               0.000000000               0.326229546              -0.283007509               0.000000000               0.351053896              -0.305077865               0.000000000               0.375878247              -0.327148221               0.000000000               0.400702598              -0.349218577               0.000000000               0.425526948              -0.371288933               0.000000000               0.450351299              -0.393359288               0.000000000               0.475175649              -0.415429644               0.000000000               0.500000000              -0.437500000               0.000000000               0.094045202              -0.094045202               0.000000000               0.119417377              -0.119417377               0.000000000               0.144789552              -0.144789552               0.000000000               0.170161727              -0.170161727               0.000000000               0.195533901              -0.195533901               0.000000000               0.220906076              -0.220906076               0.000000000               0.246278251              -0.246278251               0.000000000               0.271650426              -0.271650426               0.000000000               0.297022601              -0.297022601               0.000000000               0.322394776              -0.322394776               0.000000000               0.347766951              -0.347766951               0.000000000               0.373139126              -0.373139126               0.000000000               0.398511300              -0.398511300               0.000000000               0.423883475              -0.423883475               0.000000000               0.449255650              -0.449255650               0.000000000               0.474627825              -0.474627825               0.000000000               0.500000000              -0.500000000               0.000000000               0.084374307              -0.102810390               0.000000000               0.106444663              -0.127634741               0.000000000               0.128515018              -0.152459092               0.000000000               0.150585374              -0.177283442               0.000000000               0.172655730              -0.202107793               0.000000000               0.194726086              -0.226932143               0.000000000               0.216796442              -0.251756494               0.000000000               0.238866798              -0.276580845               0.000000000               0.260937153              -0.301405195               0.000000000               0.283007509              -0.326229546               0.000000000               0.305077865              -0.351053896               0.000000000               0.327148221              -0.375878247               0.000000000               0.349218577              -0.400702598               0.000000000               0.371288933              -0.425526948               0.000000000               0.393359288              -0.450351299               0.000000000               0.415429644              -0.475175649               0.000000000               0.437500000              -0.500000000               0.000000000               0.073890841              -0.110585458               0.000000000               0.092710163              -0.134923867               0.000000000               0.111529486              -0.159262276               0.000000000               0.130348808              -0.183600685               0.000000000               0.149168131              -0.207939094               0.000000000               0.167987453              -0.232277503               0.000000000               0.186806776              -0.256615912               0.000000000               0.205626098              -0.280954320               0.000000000               0.224445420              -0.305292729               0.000000000               0.243264743              -0.329631138               0.000000000               0.262084065              -0.353969547               0.000000000               0.280903388              -0.378307956               0.000000000               0.299722710              -0.402646365               0.000000000               0.318542033              -0.426984773               0.000000000               0.337361355              -0.451323182               0.000000000               0.356180678              -0.475661591               0.000000000               0.375000000              -0.500000000               0.000000000               0.062695766              -0.117295528               0.000000000               0.078308531              -0.141214558               0.000000000               0.093921295              -0.165133587               0.000000000               0.109534060              -0.189052617               0.000000000               0.125146824              -0.212971646               0.000000000               0.140759589              -0.236890676               0.000000000               0.156372354              -0.260809705               0.000000000               0.171985118              -0.284728735               0.000000000               0.187597883              -0.308647764               0.000000000               0.203210648              -0.332566794               0.000000000               0.218823412              -0.356485823               0.000000000               0.234436177              -0.380404853               0.000000000               0.250048941              -0.404323882               0.000000000               0.265661706              -0.428242912               0.000000000               0.281274471              -0.452161941               0.000000000               0.296887235              -0.476080971               0.000000000               0.312500000              -0.500000000               0.000000000               0.050896897              -0.122875978               0.000000000               0.063340840              -0.146446229               0.000000000               0.075784784              -0.170016481               0.000000000               0.088228728              -0.193586732               0.000000000               0.100672672              -0.217156983               0.000000000               0.113116616              -0.240727235               0.000000000               0.125560560              -0.264297486               0.000000000               0.138004504              -0.287867738               0.000000000               0.150448448              -0.311437989               0.000000000               0.162892392              -0.335008240               0.000000000               0.175336336              -0.358578492               0.000000000               0.187780280              -0.382148743               0.000000000               0.200224224              -0.405718994               0.000000000               0.212668168              -0.429289246               0.000000000               0.225112112              -0.452859497               0.000000000               0.237556056              -0.476429749               0.000000000               0.250000000              -0.500000000               0.000000000               0.038607862              -0.127273065               0.000000000               0.047913621              -0.150568498               0.000000000               0.057219379              -0.173863932               0.000000000               0.066525138              -0.197159365               0.000000000               0.075830897              -0.220454798               0.000000000               0.085136655              -0.243750232               0.000000000               0.094442414              -0.267045665               0.000000000               0.103748172              -0.290341099               0.000000000               0.113053931              -0.313636532               0.000000000               0.122359690              -0.336931966               0.000000000               0.131665448              -0.360227399               0.000000000               0.140971207              -0.383522833               0.000000000               0.150276966              -0.406818266               0.000000000               0.159582724              -0.430113700               0.000000000               0.168888483              -0.453409133               0.000000000               0.178194241              -0.476704567               0.000000000               0.187500000              -0.500000000               0.000000000               0.025947013              -0.130444442               0.000000000               0.032137825              -0.153541665               0.000000000               0.038328636              -0.176638887               0.000000000               0.044519448              -0.199736109               0.000000000               0.050710260              -0.222833332               0.000000000               0.056901071              -0.245930554               0.000000000               0.063091883              -0.269027776               0.000000000               0.069282695              -0.292124999               0.000000000               0.075473506              -0.315222221               0.000000000               0.081664318              -0.338319444               0.000000000               0.087855130              -0.361416666               0.000000000               0.094045942              -0.384513888               0.000000000               0.100236753              -0.407611111               0.000000000               0.106427565              -0.430708333               0.000000000               0.112618377              -0.453805555               0.000000000               0.118809188              -0.476902778               0.000000000               0.125000000              -0.500000000               0.000000000               0.013036280              -0.132359569               0.000000000               0.016127762              -0.155337096               0.000000000               0.019219245              -0.178314623               0.000000000               0.022310727              -0.201292150               0.000000000               0.025402210              -0.224269676               0.000000000               0.028493692              -0.247247203               0.000000000               0.031585175              -0.270224730               0.000000000               0.034676657              -0.293202257               0.000000000               0.037768140              -0.316179784               0.000000000               0.040859622              -0.339157311               0.000000000               0.043951105              -0.362134838               0.000000000               0.047042587              -0.385112365               0.000000000               0.050134070              -0.408089892               0.000000000               0.053225552              -0.431067419               0.000000000               0.056317035              -0.454044946               0.000000000               0.059408517              -0.477022473               0.000000000               0.062500000              -0.500000000               0.000000000               0.000000000              -0.133000000               0.000000000               0.000000000              -0.155937500               0.000000000               0.000000000              -0.178875000               0.000000000               0.000000000              -0.201812500               0.000000000               0.000000000              -0.224750000               0.000000000               0.000000000              -0.247687500               0.000000000               0.000000000              -0.270625000               0.000000000               0.000000000              -0.293562500               0.000000000               0.000000000              -0.316500000               0.000000000               0.000000000              -0.339437500               0.000000000               0.000000000              -0.362375000               0.000000000               0.000000000              -0.385312500               0.000000000               0.000000000              -0.408250000               0.000000000               0.000000000              -0.431187500               0.000000000               0.000000000              -0.454125000               0.000000000               0.000000000              -0.477062500               0.000000000               0.000000000              -0.500000000               0.000000000              -0.133000000               0.000000000               0.000000000              -0.155937500               0.000000000               0.000000000              -0.178875000               0.000000000               0.000000000              -0.201812500               0.000000000               0.000000000              -0.224750000               0.000000000               0.000000000              -0.247687500               0.000000000               0.000000000              -0.270625000               0.000000000               0.000000000              -0.293562500               0.000000000               0.000000000              -0.316500000               0.000000000               0.000000000              -0.339437500               0.000000000               0.000000000              -0.362375000               0.000000000               0.000000000              -0.385312500               0.000000000               0.000000000              -0.408250000               0.000000000               0.000000000              -0.431187500               0.000000000               0.000000000              -0.454125000               0.000000000               0.000000000              -0.477062500               0.000000000               0.000000000              -0.500000000               0.000000000               0.000000000              -0.132359569              -0.013036280               0.000000000              -0.155337096              -0.016127762               0.000000000              -0.178314623              -0.019219245               0.000000000              -0.201292150              -0.022310727               0.000000000              -0.224269676              -0.025402210               0.000000000              -0.247247203              -0.028493692               0.000000000              -0.270224730              -0.031585175               0.000000000              -0.293202257              -0.034676657               0.000000000              -0.316179784              -0.037768140               0.000000000              -0.339157311              -0.040859622               0.000000000              -0.362134838              -0.043951105               0.000000000              -0.385112365              -0.047042587               0.000000000              -0.408089892              -0.050134070               0.000000000              -0.431067419              -0.053225552               0.000000000              -0.454044946              -0.056317035               0.000000000              -0.477022473              -0.059408517               0.000000000              -0.500000000              -0.062500000               0.000000000              -0.130444442              -0.025947013               0.000000000              -0.153541665              -0.032137825               0.000000000              -0.176638887              -0.038328636               0.000000000              -0.199736109              -0.044519448               0.000000000              -0.222833332              -0.050710260               0.000000000              -0.245930554              -0.056901071               0.000000000              -0.269027776              -0.063091883               0.000000000              -0.292124999              -0.069282695               0.000000000              -0.315222221              -0.075473506               0.000000000              -0.338319444              -0.081664318               0.000000000              -0.361416666              -0.087855130               0.000000000              -0.384513888              -0.094045942               0.000000000              -0.407611111              -0.100236753               0.000000000              -0.430708333              -0.106427565               0.000000000              -0.453805555              -0.112618377               0.000000000              -0.476902778              -0.118809188               0.000000000              -0.500000000              -0.125000000               0.000000000              -0.127273065              -0.038607862               0.000000000              -0.150568498              -0.047913621               0.000000000              -0.173863932              -0.057219379               0.000000000              -0.197159365              -0.066525138               0.000000000              -0.220454798              -0.075830897               0.000000000              -0.243750232              -0.085136655               0.000000000              -0.267045665              -0.094442414               0.000000000              -0.290341099              -0.103748172               0.000000000              -0.313636532              -0.113053931               0.000000000              -0.336931966              -0.122359690               0.000000000              -0.360227399              -0.131665448               0.000000000              -0.383522833              -0.140971207               0.000000000              -0.406818266              -0.150276966               0.000000000              -0.430113700              -0.159582724               0.000000000              -0.453409133              -0.168888483               0.000000000              -0.476704567              -0.178194241               0.000000000              -0.500000000              -0.187500000               0.000000000              -0.122875978              -0.050896897               0.000000000              -0.146446229              -0.063340840               0.000000000              -0.170016481              -0.075784784               0.000000000              -0.193586732              -0.088228728               0.000000000              -0.217156983              -0.100672672               0.000000000              -0.240727235              -0.113116616               0.000000000              -0.264297486              -0.125560560               0.000000000              -0.287867738              -0.138004504               0.000000000              -0.311437989              -0.150448448               0.000000000              -0.335008240              -0.162892392               0.000000000              -0.358578492              -0.175336336               0.000000000              -0.382148743              -0.187780280               0.000000000              -0.405718994              -0.200224224               0.000000000              -0.429289246              -0.212668168               0.000000000              -0.452859497              -0.225112112               0.000000000              -0.476429749              -0.237556056               0.000000000              -0.500000000              -0.250000000               0.000000000              -0.117295528              -0.062695766               0.000000000              -0.141214558              -0.078308531               0.000000000              -0.165133587              -0.093921295               0.000000000              -0.189052617              -0.109534060               0.000000000              -0.212971646              -0.125146824               0.000000000              -0.236890676              -0.140759589               0.000000000              -0.260809705              -0.156372354               0.000000000              -0.284728735              -0.171985118               0.000000000              -0.308647764              -0.187597883               0.000000000              -0.332566794              -0.203210648               0.000000000              -0.356485823              -0.218823412               0.000000000              -0.380404853              -0.234436177               0.000000000              -0.404323882              -0.250048941               0.000000000              -0.428242912              -0.265661706               0.000000000              -0.452161941              -0.281274471               0.000000000              -0.476080971              -0.296887235               0.000000000              -0.500000000              -0.312500000               0.000000000              -0.110585458              -0.073890841               0.000000000              -0.134923867              -0.092710163               0.000000000              -0.159262276              -0.111529486               0.000000000              -0.183600685              -0.130348808               0.000000000              -0.207939094              -0.149168131               0.000000000              -0.232277503              -0.167987453               0.000000000              -0.256615912              -0.186806776               0.000000000              -0.280954320              -0.205626098               0.000000000              -0.305292729              -0.224445420               0.000000000              -0.329631138              -0.243264743               0.000000000              -0.353969547              -0.262084065               0.000000000              -0.378307956              -0.280903388               0.000000000              -0.402646365              -0.299722710               0.000000000              -0.426984773              -0.318542033               0.000000000              -0.451323182              -0.337361355               0.000000000              -0.475661591              -0.356180678               0.000000000              -0.500000000              -0.375000000               0.000000000              -0.102810390              -0.084374307               0.000000000              -0.127634741              -0.106444663               0.000000000              -0.152459092              -0.128515018               0.000000000              -0.177283442              -0.150585374               0.000000000              -0.202107793              -0.172655730               0.000000000              -0.226932143              -0.194726086               0.000000000              -0.251756494              -0.216796442               0.000000000              -0.276580845              -0.238866798               0.000000000              -0.301405195              -0.260937153               0.000000000              -0.326229546              -0.283007509               0.000000000              -0.351053896              -0.305077865               0.000000000              -0.375878247              -0.327148221               0.000000000              -0.400702598              -0.349218577               0.000000000              -0.425526948              -0.371288933               0.000000000              -0.450351299              -0.393359288               0.000000000              -0.475175649              -0.415429644               0.000000000              -0.500000000              -0.437500000               0.000000000              -0.094045202              -0.094045202               0.000000000              -0.119417377              -0.119417377               0.000000000              -0.144789552              -0.144789552               0.000000000              -0.170161727              -0.170161727               0.000000000              -0.195533901              -0.195533901               0.000000000              -0.220906076              -0.220906076               0.000000000              -0.246278251              -0.246278251               0.000000000              -0.271650426              -0.271650426               0.000000000              -0.297022601              -0.297022601               0.000000000              -0.322394776              -0.322394776               0.000000000              -0.347766951              -0.347766951               0.000000000              -0.373139126              -0.373139126               0.000000000              -0.398511300              -0.398511300               0.000000000              -0.423883475              -0.423883475               0.000000000              -0.449255650              -0.449255650               0.000000000              -0.474627825              -0.474627825               0.000000000              -0.500000000              -0.500000000               0.000000000              -0.084374307              -0.102810390               0.000000000              -0.106444663              -0.127634741               0.000000000              -0.128515018              -0.152459092               0.000000000              -0.150585374              -0.177283442               0.000000000              -0.172655730              -0.202107793               0.000000000              -0.194726086              -0.226932143               0.000000000              -0.216796442              -0.251756494               0.000000000              -0.238866798              -0.276580845               0.000000000              -0.260937153              -0.301405195               0.000000000              -0.283007509              -0.326229546               0.000000000              -0.305077865              -0.351053896               0.000000000              -0.327148221              -0.375878247               0.000000000              -0.349218577              -0.400702598               0.000000000              -0.371288933              -0.425526948               0.000000000              -0.393359288              -0.450351299               0.000000000              -0.415429644              -0.475175649               0.000000000              -0.437500000              -0.500000000               0.000000000              -0.073890841              -0.110585458               0.000000000              -0.092710163              -0.134923867               0.000000000              -0.111529486              -0.159262276               0.000000000              -0.130348808              -0.183600685               0.000000000              -0.149168131              -0.207939094               0.000000000              -0.167987453              -0.232277503               0.000000000              -0.186806776              -0.256615912               0.000000000              -0.205626098              -0.280954320               0.000000000              -0.224445420              -0.305292729               0.000000000              -0.243264743              -0.329631138               0.000000000              -0.262084065              -0.353969547               0.000000000              -0.280903388              -0.378307956               0.000000000              -0.299722710              -0.402646365               0.000000000              -0.318542033              -0.426984773               0.000000000              -0.337361355              -0.451323182               0.000000000              -0.356180678              -0.475661591               0.000000000              -0.375000000              -0.500000000               0.000000000              -0.062695766              -0.117295528               0.000000000              -0.078308531              -0.141214558               0.000000000              -0.093921295              -0.165133587               0.000000000              -0.109534060              -0.189052617               0.000000000              -0.125146824              -0.212971646               0.000000000              -0.140759589              -0.236890676               0.000000000              -0.156372354              -0.260809705               0.000000000              -0.171985118              -0.284728735               0.000000000              -0.187597883              -0.308647764               0.000000000              -0.203210648              -0.332566794               0.000000000              -0.218823412              -0.356485823               0.000000000              -0.234436177              -0.380404853               0.000000000              -0.250048941              -0.404323882               0.000000000              -0.265661706              -0.428242912               0.000000000              -0.281274471              -0.452161941               0.000000000              -0.296887235              -0.476080971               0.000000000              -0.312500000              -0.500000000               0.000000000              -0.050896897              -0.122875978               0.000000000              -0.063340840              -0.146446229               0.000000000              -0.075784784              -0.170016481               0.000000000              -0.088228728              -0.193586732               0.000000000              -0.100672672              -0.217156983               0.000000000              -0.113116616              -0.240727235               0.000000000              -0.125560560              -0.264297486               0.000000000              -0.138004504              -0.287867738               0.000000000              -0.150448448              -0.311437989               0.000000000              -0.162892392              -0.335008240               0.000000000              -0.175336336              -0.358578492               0.000000000              -0.187780280              -0.382148743               0.000000000              -0.200224224              -0.405718994               0.000000000              -0.212668168              -0.429289246               0.000000000              -0.225112112              -0.452859497               0.000000000              -0.237556056              -0.476429749               0.000000000              -0.250000000              -0.500000000               0.000000000              -0.038607862              -0.127273065               0.000000000              -0.047913621              -0.150568498               0.000000000              -0.057219379              -0.173863932               0.000000000              -0.066525138              -0.197159365               0.000000000              -0.075830897              -0.220454798               0.000000000              -0.085136655              -0.243750232               0.000000000              -0.094442414              -0.267045665               0.000000000              -0.103748172              -0.290341099               0.000000000              -0.113053931              -0.313636532               0.000000000              -0.122359690              -0.336931966               0.000000000              -0.131665448              -0.360227399               0.000000000              -0.140971207              -0.383522833               0.000000000              -0.150276966              -0.406818266               0.000000000              -0.159582724              -0.430113700               0.000000000              -0.168888483              -0.453409133               0.000000000              -0.178194241              -0.476704567               0.000000000              -0.187500000              -0.500000000               0.000000000              -0.025947013              -0.130444442               0.000000000              -0.032137825              -0.153541665               0.000000000              -0.038328636              -0.176638887               0.000000000              -0.044519448              -0.199736109               0.000000000              -0.050710260              -0.222833332               0.000000000              -0.056901071              -0.245930554               0.000000000              -0.063091883              -0.269027776               0.000000000              -0.069282695              -0.292124999               0.000000000              -0.075473506              -0.315222221               0.000000000              -0.081664318              -0.338319444               0.000000000              -0.087855130              -0.361416666               0.000000000              -0.094045942              -0.384513888               0.000000000              -0.100236753              -0.407611111               0.000000000              -0.106427565              -0.430708333               0.000000000              -0.112618377              -0.453805555               0.000000000              -0.118809188              -0.476902778               0.000000000              -0.125000000              -0.500000000               0.000000000              -0.013036280              -0.132359569               0.000000000              -0.016127762              -0.155337096               0.000000000              -0.019219245              -0.178314623               0.000000000              -0.022310727              -0.201292150               0.000000000              -0.025402210              -0.224269676               0.000000000              -0.028493692              -0.247247203               0.000000000              -0.031585175              -0.270224730               0.000000000              -0.034676657              -0.293202257               0.000000000              -0.037768140              -0.316179784               0.000000000              -0.040859622              -0.339157311               0.000000000              -0.043951105              -0.362134838               0.000000000              -0.047042587              -0.385112365               0.000000000              -0.050134070              -0.408089892               0.000000000              -0.053225552              -0.431067419               0.000000000              -0.056317035              -0.454044946               0.000000000              -0.059408517              -0.477022473               0.000000000              -0.062500000              -0.500000000               0.000000000               0.000000000              -0.133000000               0.000000000               0.000000000              -0.155937500               0.000000000               0.000000000              -0.178875000               0.000000000               0.000000000              -0.201812500               0.000000000               0.000000000              -0.224750000               0.000000000               0.000000000              -0.247687500               0.000000000               0.000000000              -0.270625000               0.000000000               0.000000000              -0.293562500               0.000000000               0.000000000              -0.316500000               0.000000000               0.000000000              -0.339437500               0.000000000               0.000000000              -0.362375000               0.000000000               0.000000000              -0.385312500               0.000000000               0.000000000              -0.408250000               0.000000000               0.000000000              -0.431187500               0.000000000               0.000000000              -0.454125000               0.000000000               0.000000000              -0.477062500               0.000000000               0.000000000              -0.500000000               0.000000000              -0.133000000               0.000000000               0.000000000              -0.155937500               0.000000000               0.000000000              -0.178875000               0.000000000               0.000000000              -0.201812500               0.000000000               0.000000000              -0.224750000               0.000000000               0.000000000              -0.247687500               0.000000000               0.000000000              -0.270625000               0.000000000               0.000000000              -0.293562500               0.000000000               0.000000000              -0.316500000               0.000000000               0.000000000              -0.339437500               0.000000000               0.000000000              -0.362375000               0.000000000               0.000000000              -0.385312500               0.000000000               0.000000000              -0.408250000               0.000000000               0.000000000              -0.431187500               0.000000000               0.000000000              -0.454125000               0.000000000               0.000000000              -0.477062500               0.000000000               0.000000000              -0.500000000               0.000000000               0.000000000              -0.132359569               0.013036280               0.000000000              -0.155337096               0.016127762               0.000000000              -0.178314623               0.019219245               0.000000000              -0.201292150               0.022310727               0.000000000              -0.224269676               0.025402210               0.000000000              -0.247247203               0.028493692               0.000000000              -0.270224730               0.031585175               0.000000000              -0.293202257               0.034676657               0.000000000              -0.316179784               0.037768140               0.000000000              -0.339157311               0.040859622               0.000000000              -0.362134838               0.043951105               0.000000000              -0.385112365               0.047042587               0.000000000              -0.408089892               0.050134070               0.000000000              -0.431067419               0.053225552               0.000000000              -0.454044946               0.056317035               0.000000000              -0.477022473               0.059408517               0.000000000              -0.500000000               0.062500000               0.000000000              -0.130444442               0.025947013               0.000000000              -0.153541665               0.032137825               0.000000000              -0.176638887               0.038328636               0.000000000              -0.199736109               0.044519448               0.000000000              -0.222833332               0.050710260               0.000000000              -0.245930554               0.056901071               0.000000000              -0.269027776               0.063091883               0.000000000              -0.292124999               0.069282695               0.000000000              -0.315222221               0.075473506               0.000000000              -0.338319444               0.081664318               0.000000000              -0.361416666               0.087855130               0.000000000              -0.384513888               0.094045942               0.000000000              -0.407611111               0.100236753               0.000000000              -0.430708333               0.106427565               0.000000000              -0.453805555               0.112618377               0.000000000              -0.476902778               0.118809188               0.000000000              -0.500000000               0.125000000               0.000000000              -0.127273065               0.038607862               0.000000000              -0.150568498               0.047913621               0.000000000              -0.173863932               0.057219379               0.000000000              -0.197159365               0.066525138               0.000000000              -0.220454798               0.075830897               0.000000000              -0.243750232               0.085136655               0.000000000              -0.267045665               0.094442414               0.000000000              -0.290341099               0.103748172               0.000000000              -0.313636532               0.113053931               0.000000000              -0.336931966               0.122359690               0.000000000              -0.360227399               0.131665448               0.000000000              -0.383522833               0.140971207               0.000000000              -0.406818266               0.150276966               0.000000000              -0.430113700               0.159582724               0.000000000              -0.453409133               0.168888483               0.000000000              -0.476704567               0.178194241               0.000000000              -0.500000000               0.187500000               0.000000000              -0.122875978               0.050896897               0.000000000              -0.146446229               0.063340840               0.000000000              -0.170016481               0.075784784               0.000000000              -0.193586732               0.088228728               0.000000000              -0.217156983               0.100672672               0.000000000              -0.240727235               0.113116616               0.000000000              -0.264297486               0.125560560               0.000000000              -0.287867738               0.138004504               0.000000000              -0.311437989               0.150448448               0.000000000              -0.335008240               0.162892392               0.000000000              -0.358578492               0.175336336               0.000000000              -0.382148743               0.187780280               0.000000000              -0.405718994               0.200224224               0.000000000              -0.429289246               0.212668168               0.000000000              -0.452859497               0.225112112               0.000000000              -0.476429749               0.237556056               0.000000000              -0.500000000               0.250000000               0.000000000              -0.117295528               0.062695766               0.000000000              -0.141214558               0.078308531               0.000000000              -0.165133587               0.093921295               0.000000000              -0.189052617               0.109534060               0.000000000              -0.212971646               0.125146824               0.000000000              -0.236890676               0.140759589               0.000000000              -0.260809705               0.156372354               0.000000000              -0.284728735               0.171985118               0.000000000              -0.308647764               0.187597883               0.000000000              -0.332566794               0.203210648               0.000000000              -0.356485823               0.218823412               0.000000000              -0.380404853               0.234436177               0.000000000              -0.404323882               0.250048941               0.000000000              -0.428242912               0.265661706               0.000000000              -0.452161941               0.281274471               0.000000000              -0.476080971               0.296887235               0.000000000              -0.500000000               0.312500000               0.000000000              -0.110585458               0.073890841               0.000000000              -0.134923867               0.092710163               0.000000000              -0.159262276               0.111529486               0.000000000              -0.183600685               0.130348808               0.000000000              -0.207939094               0.149168131               0.000000000              -0.232277503               0.167987453               0.000000000              -0.256615912               0.186806776               0.000000000              -0.280954320               0.205626098               0.000000000              -0.305292729               0.224445420               0.000000000              -0.329631138               0.243264743               0.000000000              -0.353969547               0.262084065               0.000000000              -0.378307956               0.280903388               0.000000000              -0.402646365               0.299722710               0.000000000              -0.426984773               0.318542033               0.000000000              -0.451323182               0.337361355               0.000000000              -0.475661591               0.356180678               0.000000000              -0.500000000               0.375000000               0.000000000              -0.102810390               0.084374307               0.000000000              -0.127634741               0.106444663               0.000000000              -0.152459092               0.128515018               0.000000000              -0.177283442               0.150585374               0.000000000              -0.202107793               0.172655730               0.000000000              -0.226932143               0.194726086               0.000000000              -0.251756494               0.216796442               0.000000000              -0.276580845               0.238866798               0.000000000              -0.301405195               0.260937153               0.000000000              -0.326229546               0.283007509               0.000000000              -0.351053896               0.305077865               0.000000000              -0.375878247               0.327148221               0.000000000              -0.400702598               0.349218577               0.000000000              -0.425526948               0.371288933               0.000000000              -0.450351299               0.393359288               0.000000000              -0.475175649               0.415429644               0.000000000              -0.500000000               0.437500000               0.000000000              -0.094045202               0.094045202               0.000000000              -0.119417377               0.119417377               0.000000000              -0.144789552               0.144789552               0.000000000              -0.170161727               0.170161727               0.000000000              -0.195533901               0.195533901               0.000000000              -0.220906076               0.220906076               0.000000000              -0.246278251               0.246278251               0.000000000              -0.271650426               0.271650426               0.000000000              -0.297022601               0.297022601               0.000000000              -0.322394776               0.322394776               0.000000000              -0.347766951               0.347766951               0.000000000              -0.373139126               0.373139126               0.000000000              -0.398511300               0.398511300               0.000000000              -0.423883475               0.423883475               0.000000000              -0.449255650               0.449255650               0.000000000              -0.474627825               0.474627825               0.000000000              -0.500000000               0.500000000               0.000000000              -0.084374307               0.102810390               0.000000000              -0.106444663               0.127634741               0.000000000              -0.128515018               0.152459092               0.000000000              -0.150585374               0.177283442               0.000000000              -0.172655730               0.202107793               0.000000000              -0.194726086               0.226932143               0.000000000              -0.216796442               0.251756494               0.000000000              -0.238866798               0.276580845               0.000000000              -0.260937153               0.301405195               0.000000000              -0.283007509               0.326229546               0.000000000              -0.305077865               0.351053896               0.000000000              -0.327148221               0.375878247               0.000000000              -0.349218577               0.400702598               0.000000000              -0.371288933               0.425526948               0.000000000              -0.393359288               0.450351299               0.000000000              -0.415429644               0.475175649               0.000000000              -0.437500000               0.500000000               0.000000000              -0.073890841               0.110585458               0.000000000              -0.092710163               0.134923867               0.000000000              -0.111529486               0.159262276               0.000000000              -0.130348808               0.183600685               0.000000000              -0.149168131               0.207939094               0.000000000              -0.167987453               0.232277503               0.000000000              -0.186806776               0.256615912               0.000000000              -0.205626098               0.280954320               0.000000000              -0.224445420               0.305292729               0.000000000              -0.243264743               0.329631138               0.000000000              -0.262084065               0.353969547               0.000000000              -0.280903388               0.378307956               0.000000000              -0.299722710               0.402646365               0.000000000              -0.318542033               0.426984773               0.000000000              -0.337361355               0.451323182               0.000000000              -0.356180678               0.475661591               0.000000000              -0.375000000               0.500000000               0.000000000              -0.062695766               0.117295528               0.000000000              -0.078308531               0.141214558               0.000000000              -0.093921295               0.165133587               0.000000000              -0.109534060               0.189052617               0.000000000              -0.125146824               0.212971646               0.000000000              -0.140759589               0.236890676               0.000000000              -0.156372354               0.260809705               0.000000000              -0.171985118               0.284728735               0.000000000              -0.187597883               0.308647764               0.000000000              -0.203210648               0.332566794               0.000000000              -0.218823412               0.356485823               0.000000000              -0.234436177               0.380404853               0.000000000              -0.250048941               0.404323882               0.000000000              -0.265661706               0.428242912               0.000000000              -0.281274471               0.452161941               0.000000000              -0.296887235               0.476080971               0.000000000              -0.312500000               0.500000000               0.000000000              -0.050896897               0.122875978               0.000000000              -0.063340840               0.146446229               0.000000000              -0.075784784               0.170016481               0.000000000              -0.088228728               0.193586732               0.000000000              -0.100672672               0.217156983               0.000000000              -0.113116616               0.240727235               0.000000000              -0.125560560               0.264297486               0.000000000              -0.138004504               0.287867738               0.000000000              -0.150448448               0.311437989               0.000000000              -0.162892392               0.335008240               0.000000000              -0.175336336               0.358578492               0.000000000              -0.187780280               0.382148743               0.000000000              -0.200224224               0.405718994               0.000000000              -0.212668168               0.429289246               0.000000000              -0.225112112               0.452859497               0.000000000              -0.237556056               0.476429749               0.000000000              -0.250000000               0.500000000               0.000000000              -0.038607862               0.127273065               0.000000000              -0.047913621               0.150568498               0.000000000              -0.057219379               0.173863932               0.000000000              -0.066525138               0.197159365               0.000000000              -0.075830897               0.220454798               0.000000000              -0.085136655               0.243750232               0.000000000              -0.094442414               0.267045665               0.000000000              -0.103748172               0.290341099               0.000000000              -0.113053931               0.313636532               0.000000000              -0.122359690               0.336931966               0.000000000              -0.131665448               0.360227399               0.000000000              -0.140971207               0.383522833               0.000000000              -0.150276966               0.406818266               0.000000000              -0.159582724               0.430113700               0.000000000              -0.168888483               0.453409133               0.000000000              -0.178194241               0.476704567               0.000000000              -0.187500000               0.500000000               0.000000000              -0.025947013               0.130444442               0.000000000              -0.032137825               0.153541665               0.000000000              -0.038328636               0.176638887               0.000000000              -0.044519448               0.199736109               0.000000000              -0.050710260               0.222833332               0.000000000              -0.056901071               0.245930554               0.000000000              -0.063091883               0.269027776               0.000000000              -0.069282695               0.292124999               0.000000000              -0.075473506               0.315222221               0.000000000              -0.081664318               0.338319444               0.000000000              -0.087855130               0.361416666               0.000000000              -0.094045942               0.384513888               0.000000000              -0.100236753               0.407611111               0.000000000              -0.106427565               0.430708333               0.000000000              -0.112618377               0.453805555               0.000000000              -0.118809188               0.476902778               0.000000000              -0.125000000               0.500000000               0.000000000              -0.013036280               0.132359569               0.000000000              -0.016127762               0.155337096               0.000000000              -0.019219245               0.178314623               0.000000000              -0.022310727               0.201292150               0.000000000              -0.025402210               0.224269676               0.000000000              -0.028493692               0.247247203               0.000000000              -0.031585175               0.270224730               0.000000000              -0.034676657               0.293202257               0.000000000              -0.037768140               0.316179784               0.000000000              -0.040859622               0.339157311               0.000000000              -0.043951105               0.362134838               0.000000000              -0.047042587               0.385112365               0.000000000              -0.050134070               0.408089892               0.000000000              -0.053225552               0.431067419               0.000000000              -0.056317035               0.454044946               0.000000000              -0.059408517               0.477022473               0.000000000              -0.062500000               0.500000000               0.000000000               0.000000000               0.133000000               0.000000000               0.000000000               0.155937500               0.000000000               0.000000000               0.178875000               0.000000000               0.000000000               0.201812500               0.000000000               0.000000000               0.224750000               0.000000000               0.000000000               0.247687500               0.000000000               0.000000000               0.270625000               0.000000000               0.000000000               0.293562500               0.000000000               0.000000000               0.316500000               0.000000000               0.000000000               0.339437500               0.000000000               0.000000000               0.362375000               0.000000000               0.000000000               0.385312500               0.000000000               0.000000000               0.408250000               0.000000000               0.000000000               0.431187500               0.000000000               0.000000000               0.454125000               0.000000000               0.000000000               0.477062500               0.000000000               0.000000000               0.500000000               0.000000000 </DataArray>
</Points>
<Cells>
<DataArray type="Int32"                                    Name="connectivity"                                                      NumberOfComponents=" 1" format="ascii">
         0          1         18         17          1          2         19         18          2          3         20         19          3          4         21         20          4          5         22         21          5          6         23         22          6          7         24         23          7          8         25         24          8          9         26         25          9         10         27         26         10         11         28         27         11         12         29         28         12         13         30         29         13         14         31         30         14         15         32         31         15         16         33         32         17         18         35         34         18         19         36         35         19         20         37         36         20         21         38         37         21         22         39         38         22         23         40         39         23         24         41         40         24         25         42         41         25         26         43         42         26         27         44         43         27         28         45         44         28         29         46         45         29         30         47         46         30         31         48         47         31         32         49         48         32         33         50         49         34         35         52         51         35         36         53         52         36         37         54         53         37         38         55         54         38         39         56         55         39         40         57         56         40         41         58         57         41         42         59         58         42         43         60         59         43         44         61         60         44         45         62         61         45         46         63         62         46         47         64         63         47         48         65         64         48         49         66         65         49         50         67         66         51         52         69         68         52         53         70         69         53         54         71         70         54         55         72         71         55         56         73         72         56         57         74         73         57         58         75         74         58         59         76         75         59         60         77         76         60         61         78         77         61         62         79         78         62         63         80         79         63         64         81         80         64         65         82         81         65         66         83         82         66         67         84         83         68         69         86         85         69         70         87         86         70         71         88         87         71         72         89         88         72         73         90         89         73         74         91         90         74         75         92         91         75         76         93         92         76         77         94         93         77         78         95         94         78         79         96         95         79         80         97         96         80         81         98         97         81         82         99         98         82         83        100         99         83         84        101        100         85         86        103        102         86         87        104        103         87         88        105        104         88         89        106        105         89         90        107        106         90         91        108        107         91         92        109        108         92         93        110        109         93         94        111        110         94         95        112        111         95         96        113        112         96         97        114        113         97         98        115        114         98         99        116        115         99        100        117        116        100        101        118        117        102        103        120        119        103        104        121        120        104        105        122        121        105        106        123        122        106        107        124        123        107        108        125        124        108        109        126        125        109        110        127        126        110        111        128        127        111        112        129        128        112        113        130        129        113        114        131        130        114        115        132        131        115        116        133        132        116        117        134        133        117        118        135        134        119        120        137        136        120        121        138        137        121        122        139        138        122        123        140        139        123        124        141        140        124        125        142        141        125        126        143        142        126        127        144        143        127        128        145        144        128        129        146        145        129        130        147        146        130        131        148        147        131        132        149        148        132        133        150        149        133        134        151        150        134        135        152        151        136        137        154        153        137        138        155        154        138        139        156        155        139        140        157        156        140        141        158        157        141        142        159        158        142        143        160        159        143        144        161        160        144        145        162        161        145        146        163        162        146        147        164        163        147        148        165        164        148        149        166        165        149        150        167        166        150        151        168        167        151        152        169        168        153        154        171        170        154        155        172        171        155        156        173        172        156        157        174        173        157        158        175        174        158        159        176        175        159        160        177        176        160        161        178        177        161        162        179        178        162        163        180        179        163        164        181        180        164        165        182        181        165        166        183        182        166        167        184        183        167        168        185        184        168        169        186        185        170        171        188        187        171        172        189        188        172        173        190        189        173        174        191        190        174        175        192        191        175        176        193        192        176        177        194        193        177        178        195        194        178        179        196        195        179        180        197        196        180        181        198        197        181        182        199        198        182        183        200        199        183        184        201        200        184        185        202        201        185        186        203        202        187        188        205        204        188        189        206        205        189        190        207        206        190        191        208        207        191        192        209        208        192        193        210        209        193        194        211        210        194        195        212        211        195        196        213        212        196        197        214        213        197        198        215        214        198        199        216        215        199        200        217        216        200        201        218        217        201        202        219        218        202        203        220        219        204        205        222        221        205        206        223        222        206        207        224        223        207        208        225        224        208        209        226        225        209        210        227        226        210        211        228        227        211        212        229        228        212        213        230        229        213        214        231        230        214        215        232        231        215        216        233        232        216        217        234        233        217        218        235        234        218        219        236        235        219        220        237        236        221        222        239        238        222        223        240        239        223        224        241        240        224        225        242        241        225        226        243        242        226        227        244        243        227        228        245        244        228        229        246        245        229        230        247        246        230        231        248        247        231        232        249        248        232        233        250        249        233        234        251        250        234        235        252        251        235        236        253        252        236        237        254        253        238        239        256        255        239        240        257        256        240        241        258        257        241        242        259        258        242        243        260        259        243        244        261        260        244        245        262        261        245        246        263        262        246        247        264        263        247        248        265        264        248        249        266        265        249        250        267        266        250        251        268        267        251        252        269        268        252        253        270        269        253        254        271        270        255        256        273        272        256        257        274        273        257        258        275        274        258        259        276        275        259        260        277        276        260        261        278        277        261        262        279        278        262        263        280        279        263        264        281        280        264        265        282        281        265        266        283        282        266        267        284        283        267        268        285        284        268        269        286        285        269        270        287        286        270        271        288        287        306        307          1          0        307        308          2          1        308        309          3          2        309        310          4          3        310        311          5          4        311        312          6          5        312        313          7          6        313        314          8          7        314        315          9          8        315        316         10          9        316        317         11         10        317        318         12         11        318        319         13         12        319        320         14         13        320        321         15         14        321        322         16         15        323        324        307        306        324        325        308        307        325        326        309        308        326        327        310        309        327        328        311        310        328        329        312        311        329        330        313        312        330        331        314        313        331        332        315        314        332        333        316        315        333        334        317        316        334        335        318        317        335        336        319        318        336        337        320        319        337        338        321        320        338        339        322        321        340        341        324        323        341        342        325        324        342        343        326        325        343        344        327        326        344        345        328        327        345        346        329        328        346        347        330        329        347        348        331        330        348        349        332        331        349        350        333        332        350        351        334        333        351        352        335        334        352        353        336        335        353        354        337        336        354        355        338        337        355        356        339        338        357        358        341        340        358        359        342        341        359        360        343        342        360        361        344        343        361        362        345        344        362        363        346        345        363        364        347        346        364        365        348        347        365        366        349        348        366        367        350        349        367        368        351        350        368        369        352        351        369        370        353        352        370        371        354        353        371        372        355        354        372        373        356        355        374        375        358        357        375        376        359        358        376        377        360        359        377        378        361        360        378        379        362        361        379        380        363        362        380        381        364        363        381        382        365        364        382        383        366        365        383        384        367        366        384        385        368        367        385        386        369        368        386        387        370        369        387        388        371        370        388        389        372        371        389        390        373        372        391        392        375        374        392        393        376        375        393        394        377        376        394        395        378        377        395        396        379        378        396        397        380        379        397        398        381        380        398        399        382        381        399        400        383        382        400        401        384        383        401        402        385        384        402        403        386        385        403        404        387        386        404        405        388        387        405        406        389        388        406        407        390        389        408        409        392        391        409        410        393        392        410        411        394        393        411        412        395        394        412        413        396        395        413        414        397        396        414        415        398        397        415        416        399        398        416        417        400        399        417        418        401        400        418        419        402        401        419        420        403        402        420        421        404        403        421        422        405        404        422        423        406        405        423        424        407        406        425        426        409        408        426        427        410        409        427        428        411        410        428        429        412        411        429        430        413        412        430        431        414        413        431        432        415        414        432        433        416        415        433        434        417        416        434        435        418        417        435        436        419        418        436        437        420        419        437        438        421        420        438        439        422        421        439        440        423        422        440        441        424        423        442        443        426        425        443        444        427        426        444        445        428        427        445        446        429        428        446        447        430        429        447        448        431        430        448        449        432        431        449        450        433        432        450        451        434        433        451        452        435        434        452        453        436        435        453        454        437        436        454        455        438        437        455        456        439        438        456        457        440        439        457        458        441        440        459        460        443        442        460        461        444        443        461        462        445        444        462        463        446        445        463        464        447        446        464        465        448        447        465        466        449        448        466        467        450        449        467        468        451        450        468        469        452        451        469        470        453        452        470        471        454        453        471        472        455        454        472        473        456        455        473        474        457        456        474        475        458        457        476        477        460        459        477        478        461        460        478        479        462        461        479        480        463        462        480        481        464        463        481        482        465        464        482        483        466        465        483        484        467        466        484        485        468        467        485        486        469        468        486        487        470        469        487        488        471        470        488        489        472        471        489        490        473        472        490        491        474        473        491        492        475        474        493        494        477        476        494        495        478        477        495        496        479        478        496        497        480        479        497        498        481        480        498        499        482        481        499        500        483        482        500        501        484        483        501        502        485        484        502        503        486        485        503        504        487        486        504        505        488        487        505        506        489        488        506        507        490        489        507        508        491        490        508        509        492        491        510        511        494        493        511        512        495        494        512        513        496        495        513        514        497        496        514        515        498        497        515        516        499        498        516        517        500        499        517        518        501        500        518        519        502        501        519        520        503        502        520        521        504        503        521        522        505        504        522        523        506        505        523        524        507        506        524        525        508        507        525        526        509        508        527        528        511        510        528        529        512        511        529        530        513        512        530        531        514        513        531        532        515        514        532        533        516        515        533        534        517        516        534        535        518        517        535        536        519        518        536        537        520        519        537        538        521        520        538        539        522        521        539        540        523        522        540        541        524        523        541        542        525        524        542        543        526        525        544        545        528        527        545        546        529        528        546        547        530        529        547        548        531        530        548        549        532        531        549        550        533        532        550        551        534        533        551        552        535        534        552        553        536        535        553        554        537        536        554        555        538        537        555        556        539        538        556        557        540        539        557        558        541        540        558        559        542        541        559        560        543        542        561        562        545        544        562        563        546        545        563        564        547        546        564        565        548        547        565        566        549        548        566        567        550        549        567        568        551        550        568        569        552        551        569        570        553        552        570        571        554        553        571        572        555        554        572        573        556        555        573        574        557        556        574        575        558        557        575        576        559        558        576        577        560        559        578        579        596        595        579        580        597        596        580        581        598        597        581        582        599        598        582        583        600        599        583        584        601        600        584        585        602        601        585        586        603        602        586        587        604        603        587        588        605        604        588        589        606        605        589        590        607        606        590        591        608        607        591        592        609        608        592        593        610        609        593        594        611        610        595        596        613        612        596        597        614        613        597        598        615        614        598        599        616        615        599        600        617        616        600        601        618        617        601        602        619        618        602        603        620        619        603        604        621        620        604        605        622        621        605        606        623        622        606        607        624        623        607        608        625        624        608        609        626        625        609        610        627        626        610        611        628        627        612        613        630        629        613        614        631        630        614        615        632        631        615        616        633        632        616        617        634        633        617        618        635        634        618        619        636        635        619        620        637        636        620        621        638        637        621        622        639        638        622        623        640        639        623        624        641        640        624        625        642        641        625        626        643        642        626        627        644        643        627        628        645        644        629        630        647        646        630        631        648        647        631        632        649        648        632        633        650        649        633        634        651        650        634        635        652        651        635        636        653        652        636        637        654        653        637        638        655        654        638        639        656        655        639        640        657        656        640        641        658        657        641        642        659        658        642        643        660        659        643        644        661        660        644        645        662        661        646        647        664        663        647        648        665        664        648        649        666        665        649        650        667        666        650        651        668        667        651        652        669        668        652        653        670        669        653        654        671        670        654        655        672        671        655        656        673        672        656        657        674        673        657        658        675        674        658        659        676        675        659        660        677        676        660        661        678        677        661        662        679        678        663        664        681        680        664        665        682        681        665        666        683        682        666        667        684        683        667        668        685        684        668        669        686        685        669        670        687        686        670        671        688        687        671        672        689        688        672        673        690        689        673        674        691        690        674        675        692        691        675        676        693        692        676        677        694        693        677        678        695        694        678        679        696        695        680        681        698        697        681        682        699        698        682        683        700        699        683        684        701        700        684        685        702        701        685        686        703        702        686        687        704        703        687        688        705        704        688        689        706        705        689        690        707        706        690        691        708        707        691        692        709        708        692        693        710        709        693        694        711        710        694        695        712        711        695        696        713        712        697        698        715        714        698        699        716        715        699        700        717        716        700        701        718        717        701        702        719        718        702        703        720        719        703        704        721        720        704        705        722        721        705        706        723        722        706        707        724        723        707        708        725        724        708        709        726        725        709        710        727        726        710        711        728        727        711        712        729        728        712        713        730        729        714        715        732        731        715        716        733        732        716        717        734        733        717        718        735        734        718        719        736        735        719        720        737        736        720        721        738        737        721        722        739        738        722        723        740        739        723        724        741        740        724        725        742        741        725        726        743        742        726        727        744        743        727        728        745        744        728        729        746        745        729        730        747        746        731        732        749        748        732        733        750        749        733        734        751        750        734        735        752        751        735        736        753        752        736        737        754        753        737        738        755        754        738        739        756        755        739        740        757        756        740        741        758        757        741        742        759        758        742        743        760        759        743        744        761        760        744        745        762        761        745        746        763        762        746        747        764        763        748        749        766        765        749        750        767        766        750        751        768        767        751        752        769        768        752        753        770        769        753        754        771        770        754        755        772        771        755        756        773        772        756        757        774        773        757        758        775        774        758        759        776        775        759        760        777        776        760        761        778        777        761        762        779        778        762        763        780        779        763        764        781        780        765        766        783        782        766        767        784        783        767        768        785        784        768        769        786        785        769        770        787        786        770        771        788        787        771        772        789        788        772        773        790        789        773        774        791        790        774        775        792        791        775        776        793        792        776        777        794        793        777        778        795        794        778        779        796        795        779        780        797        796        780        781        798        797        782        783        800        799        783        784        801        800        784        785        802        801        785        786        803        802        786        787        804        803        787        788        805        804        788        789        806        805        789        790        807        806        790        791        808        807        791        792        809        808        792        793        810        809        793        794        811        810        794        795        812        811        795        796        813        812        796        797        814        813        797        798        815        814        799        800        817        816        800        801        818        817        801        802        819        818        802        803        820        819        803        804        821        820        804        805        822        821        805        806        823        822        806        807        824        823        807        808        825        824        808        809        826        825        809        810        827        826        810        811        828        827        811        812        829        828        812        813        830        829        813        814        831        830        814        815        832        831        816        817        834        833        817        818        835        834        818        819        836        835        819        820        837        836        820        821        838        837        821        822        839        838        822        823        840        839        823        824        841        840        824        825        842        841        825        826        843        842        826        827        844        843        827        828        845        844        828        829        846        845        829        830        847        846        830        831        848        847        831        832        849        848        833        834        562        561        834        835        563        562        835        836        564        563        836        837        565        564        837        838        566        565        838        839        567        566        839        840        568        567        840        841        569        568        841        842        570        569        842        843        571        570        843        844        572        571        844        845        573        572        845        846        574        573        846        847        575        574        847        848        576        575        848        849        577        576        884        885        579        578        885        886        580        579        886        887        581        580        887        888        582        581        888        889        583        582        889        890        584        583        890        891        585        584        891        892        586        585        892        893        587        586        893        894        588        587        894        895        589        588        895        896        590        589        896        897        591        590        897        898        592        591        898        899        593        592        899        900        594        593        901        902        885        884        902        903        886        885        903        904        887        886        904        905        888        887        905        906        889        888        906        907        890        889        907        908        891        890        908        909        892        891        909        910        893        892        910        911        894        893        911        912        895        894        912        913        896        895        913        914        897        896        914        915        898        897        915        916        899        898        916        917        900        899        918        919        902        901        919        920        903        902        920        921        904        903        921        922        905        904        922        923        906        905        923        924        907        906        924        925        908        907        925        926        909        908        926        927        910        909        927        928        911        910        928        929        912        911        929        930        913        912        930        931        914        913        931        932        915        914        932        933        916        915        933        934        917        916        935        936        919        918        936        937        920        919        937        938        921        920        938        939        922        921        939        940        923        922        940        941        924        923        941        942        925        924        942        943        926        925        943        944        927        926        944        945        928        927        945        946        929        928        946        947        930        929        947        948        931        930        948        949        932        931        949        950        933        932        950        951        934        933        952        953        936        935        953        954        937        936        954        955        938        937        955        956        939        938        956        957        940        939        957        958        941        940        958        959        942        941        959        960        943        942        960        961        944        943        961        962        945        944        962        963        946        945        963        964        947        946        964        965        948        947        965        966        949        948        966        967        950        949        967        968        951        950        969        970        953        952        970        971        954        953        971        972        955        954        972        973        956        955        973        974        957        956        974        975        958        957        975        976        959        958        976        977        960        959        977        978        961        960        978        979        962        961        979        980        963        962        980        981        964        963        981        982        965        964        982        983        966        965        983        984        967        966        984        985        968        967        986        987        970        969        987        988        971        970        988        989        972        971        989        990        973        972        990        991        974        973        991        992        975        974        992        993        976        975        993        994        977        976        994        995        978        977        995        996        979        978        996        997        980        979        997        998        981        980        998        999        982        981        999       1000        983        982       1000       1001        984        983       1001       1002        985        984       1003       1004        987        986       1004       1005        988        987       1005       1006        989        988       1006       1007        990        989       1007       1008        991        990       1008       1009        992        991       1009       1010        993        992       1010       1011        994        993       1011       1012        995        994       1012       1013        996        995       1013       1014        997        996       1014       1015        998        997       1015       1016        999        998       1016       1017       1000        999       1017       1018       1001       1000       1018       1019       1002       1001       1020       1021       1004       1003       1021       1022       1005       1004       1022       1023       1006       1005       1023       1024       1007       1006       1024       1025       1008       1007       1025       1026       1009       1008       1026       1027       1010       1009       1027       1028       1011       1010       1028       1029       1012       1011       1029       1030       1013       1012       1030       1031       1014       1013       1031       1032       1015       1014       1032       1033       1016       1015       1033       1034       1017       1016       1034       1035       1018       1017       1035       1036       1019       1018       1037       1038       1021       1020       1038       1039       1022       1021       1039       1040       1023       1022       1040       1041       1024       1023       1041       1042       1025       1024       1042       1043       1026       1025       1043       1044       1027       1026       1044       1045       1028       1027       1045       1046       1029       1028       1046       1047       1030       1029       1047       1048       1031       1030       1048       1049       1032       1031       1049       1050       1033       1032       1050       1051       1034       1033       1051       1052       1035       1034       1052       1053       1036       1035       1054       1055       1038       1037       1055       1056       1039       1038       1056       1057       1040       1039       1057       1058       1041       1040       1058       1059       1042       1041       1059       1060       1043       1042       1060       1061       1044       1043       1061       1062       1045       1044       1062       1063       1046       1045       1063       1064       1047       1046       1064       1065       1048       1047       1065       1066       1049       1048       1066       1067       1050       1049       1067       1068       1051       1050       1068       1069       1052       1051       1069       1070       1053       1052       1071       1072       1055       1054       1072       1073       1056       1055       1073       1074       1057       1056       1074       1075       1058       1057       1075       1076       1059       1058       1076       1077       1060       1059       1077       1078       1061       1060       1078       1079       1062       1061       1079       1080       1063       1062       1080       1081       1064       1063       1081       1082       1065       1064       1082       1083       1066       1065       1083       1084       1067       1066       1084       1085       1068       1067       1085       1086       1069       1068       1086       1087       1070       1069       1088       1089       1072       1071       1089       1090       1073       1072       1090       1091       1074       1073       1091       1092       1075       1074       1092       1093       1076       1075       1093       1094       1077       1076       1094       1095       1078       1077       1095       1096       1079       1078       1096       1097       1080       1079       1097       1098       1081       1080       1098       1099       1082       1081       1099       1100       1083       1082       1100       1101       1084       1083       1101       1102       1085       1084       1102       1103       1086       1085       1103       1104       1087       1086       1105       1106       1089       1088       1106       1107       1090       1089       1107       1108       1091       1090       1108       1109       1092       1091       1109       1110       1093       1092       1110       1111       1094       1093       1111       1112       1095       1094       1112       1113       1096       1095       1113       1114       1097       1096       1114       1115       1098       1097       1115       1116       1099       1098       1116       1117       1100       1099       1117       1118       1101       1100       1118       1119       1102       1101       1119       1120       1103       1102       1120       1121       1104       1103       1122       1123       1106       1105       1123       1124       1107       1106       1124       1125       1108       1107       1125       1126       1109       1108       1126       1127       1110       1109       1127       1128       1111       1110       1128       1129       1112       1111       1129       1130       1113       1112       1130       1131       1114       1113       1131       1132       1115       1114       1132       1133       1116       1115       1133       1134       1117       1116       1134       1135       1118       1117       1135       1136       1119       1118       1136       1137       1120       1119       1137       1138       1121       1120        272        273       1123       1122        273        274       1124       1123        274        275       1125       1124        275        276       1126       1125        276        277       1127       1126        277        278       1128       1127        278        279       1129       1128        279        280       1130       1129        280        281       1131       1130        281        282       1132       1131        282        283       1133       1132        283        284       1134       1133        284        285       1135       1134        285        286       1136       1135        286        287       1137       1136        287        288       1138       1137 </DataArray>
<DataArray type="Int32"                                    Name="offsets"                                                      NumberOfComponents=" 1" format="ascii">
         4          8         12         16         20         24         28         32         36         40         44         48         52         56         60         64         68         72         76         80         84         88         92         96        100        104        108        112        116        120        124        128        132        136        140        144        148        152        156        160        164        168        172        176        180        184        188        192        196        200        204        208        212        216        220        224        228        232        236        240        244        248        252        256        260        264        268        272        276        280        284        288        292        296        300        304        308        312        316        320        324        328        332        336        340        344        348        352        356        360        364        368        372        376        380        384        388        392        396        400        404        408        412        416        420        424        428        432        436        440        444        448        452        456        460        464        468        472        476        480        484        488        492        496        500        504        508        512        516        520        524        528        532        536        540        544        548        552        556        560        564        568        572        576        580        584        588        592        596        600        604        608        612        616        620        624        628        632        636        640        644        648        652        656        660        664        668        672        676        680        684        688        692        696        700        704        708        712        716        720        724        728        732        736        740        744        748        752        756        760        764        768        772        776        780        784        788        792        796        800        804        808        812        816        820        824        828        832        836        840        844        848        852        856        860        864        868        872        876        880        884        888        892        896        900        904        908        912        916        920        924        928        932        936        940        944        948        952        956        960        964        968        972        976        980        984        988        992        996       1000       1004       1008       1012       1016       1020       1024       1028       1032       1036       1040       1044       1048       1052       1056       1060       1064       1068       1072       1076       1080       1084       1088       1092       1096       1100       1104       1108       1112       1116       1120       1124       1128       1132       1136       1140       1144       1148       1152       1156       1160       1164       1168       1172       1176       1180       1184       1188       1192       1196       1200       1204       1208       1212       1216       1220       1224       1228       1232       1236       1240       1244       1248       1252       1256       1260       1264       1268       1272       1276       1280       1284       1288       1292       1296       1300       1304       1308       1312       1316       1320       1324       1328       1332       1336       1340       1344       1348       1352       1356       1360       1364       1368       1372       1376       1380       1384       1388       1392       1396       1400       1404       1408       1412       1416       1420       1424       1428       1432       1436       1440       1444       1448       1452       1456       1460       1464       1468       1472       1476       1480       1484       1488       1492       1496       1500       1504       1508       1512       1516       1520       1524       1528       1532       1536       1540       1544       1548       1552       1556       1560       1564       1568       1572       1576       1580       1584       1588       1592       1596       1600       1604       1608       1612       1616       1620       1624       1628       1632       1636       1640       1644       1648       1652       1656       1660       1664       1668       1672       1676       1680       1684       1688       1692       1696       1700       1704       1708       1712       1716       1720       1724       1728       1732       1736       1740       1744       1748       1752       1756       1760       1764       1768       1772       1776       1780       1784       1788       1792       1796       1800       1804       1808       1812       1816       1820       1824       1828       1832       1836       1840       1844       1848       1852       1856       1860       1864       1868       1872       1876       1880       1884       1888       1892       1896       1900       1904       1908       1912       1916       1920       1924       1928       1932       1936       1940       1944       1948       1952       1956       1960       1964       1968       1972       1976       1980       1984       1988       1992       1996       2000       2004       2008       2012       2016       2020       2024       2028       2032       2036       2040       2044       2048       2052       2056       2060       2064       2068       2072       2076       2080       2084       2088       2092       2096       2100       2104       2108       2112       2116       2120       2124       2128       2132       2136       2140       2144       2148       2152       2156       2160       2164       2168       2172       2176       2180       2184       2188       2192       2196       2200       2204       2208       2212       2216       2220       2224       2228       2232       2236       2240       2244       2248       2252       2256       2260       2264       2268       2272       2276       2280       2284       2288       2292       2296       2300       2304       2308       2312       2316       2320       2324       2328       2332       2336       2340       2344       2348       2352       2356       2360       2364       2368       2372       2376       2380       2384       2388       2392       2396       2400       2404       2408       2412       2416       2420       2424       2428       2432       2436       2440       2444       2448       2452       2456       2460       2464       2468       2472       2476       2480       2484       2488       2492       2496       2500       2504       2508       2512       2516       2520       2524       2528       2532       2536       2540       2544       2548       2552       2556       2560       2564       2568       2572       2576       2580       2584       2588       2592       2596       2600       2604       2608       2612       2616       2620       2624       2628       2632       2636       2640       2644       2648       2652       2656       2660       2664       2668       2672       2676       2680       2684       2688       2692       2696       2700       2704       2708       2712       2716       2720       2724       2728       2732       2736       2740       2744       2748       2752       2756       2760       2764       2768       2772       2776       2780       2784       2788       2792       2796       2800       2804       2808       2812       2816       2820       2824       2828       2832       2836       2840       2844       2848       2852       2856       2860       2864       2868       2872       2876       2880       2884       2888       2892       2896       2900       2904       2908       2912       2916       2920       2924       2928       2932       2936       2940       2944       2948       2952       2956       2960       2964       2968       2972       2976       2980       2984       2988       2992       2996       3000       3004       3008       3012       3016       3020       3024       3028       3032       3036       3040       3044       3048       3052       3056       3060       3064       3068       3072       3076       3080       3084       3088       3092       3096       3100       3104       3108       3112       3116       3120       3124       3128       3132       3136       3140       3144       3148       3152       3156       3160       3164       3168       3172       3176       3180       3184       3188       3192       3196       3200       3204       3208       3212       3216       3220       3224       3228       3232       3236       3240       3244       3248       3252       3256       3260       3264       3268       3272       3276       3280       3284       3288       3292       3296       3300       3304       3308       3312       3316       3320       3324       3328       3332       3336       3340       3344       3348       3352       3356       3360       3364       3368       3372       3376       3380       3384       3388       3392       3396       3400       3404       3408       3412       3416       3420       3424       3428       3432       3436       3440       3444       3448       3452       3456       3460       3464       3468       3472       3476       3480       3484       3488       3492       3496       3500       3504       3508       3512       3516       3520       3524       3528       3532       3536       3540       3544       3548       3552       3556       3560       3564       3568       3572       3576       3580       3584       3588       3592       3596       3600       3604       3608       3612       3616       3620       3624       3628       3632       3636       3640       3644       3648       3652       3656       3660       3664       3668       3672       3676       3680       3684       3688       3692       3696       3700       3704       3708       3712       3716       3720       3724       3728       3732       3736       3740       3744       3748       3752       3756       3760       3764       3768       3772       3776       3780       3784       3788       3792       3796       3800       3804       3808       3812       3816       3820       3824       3828       3832       3836       3840       3844       3848       3852       3856       3860       3864       3868       3872       3876       3880       3884       3888       3892       3896       3900       3904       3908       3912       3916       3920       3924       3928       3932       3936       3940       3944       3948       3952       3956       3960       3964       3968       3972       3976       3980       3984       3988       3992       3996       4000       4004       4008       4012       4016       4020       4024       4028       4032       4036       4040       4044       4048       4052       4056       4060       4064       4068       4072       4076       4080       4084       4088       4092       4096 </DataArray>
<DataArray type="UInt8"                                    Name="types"                                                      NumberOfComponents=" 1" format="ascii">
         9          9          9          9          9          9          9          9          9          9          9          9          9          9          9          9          9          9          9          9          9          9          9          9          9          9          9          9          9          9          9          9          9          9          9          9          9          9          9          9          9          9          9          9          9          9          9          9          9          9          9          9          9          9          9          9          9          9          9          9          9          9          9          9          9          9          9          9          9          9          9          9          9          9          9          9          9          9          9          9          9          9          9          9          9          9          9          9          9          9          9          9          9          9          9          9          9          9          9          9          9          9          9          9          9          9          9          9          9          9          9          9          9          9          9          9          9          9          9          9          9          9          9          9          9          9          9          9          9          9          9          9          9          9          9          9          9          9          9          9          9          9          9          9          9          9          9          9          9          9          9          9          9          9          9          9          9          9          9          9          9          9          9          9          9          9          9          9          9          9          9          9          9          9          9          9          9          9          9          9          9          9          9          9          9          9          9          9          9          9          9          9          9          9          9          9          9          9          9          9          9          9          9          9          9          9          9          9          9          9          9          9          9          9          9          9          9          9          9          9          9          9          9          9          9          9          9          9          9          9          9          9          9          9          9          9          9          9          9          9          9          9          9          9          9          9          9          9          9          9          9          9          9          9          9          9          9          9          9          9          9          9          9          9          9          9          9          9          9          9          9          9          9          9          9          9          9          9          9          9          9          9          9          9          9          9          9          9          9          9          9          9          9          9          9          9          9          9          9          9          9          9          9          9          9          9          9          9          9          9          9          9          9          9          9          9          9          9          9          9          9          9          9          9          9          9          9          9          9          9          9          9          9          9          9          9          9          9          9          9          9          9          9          9          9          9          9          9          9          9          9          9          9          9          9          9          9          9          9          9          9          9          9          9          9          9          9          9          9          9          9          9          9          9          9          9          9          9          9          9          9          9          9          9          9          9          9          9          9          9          9          9          9          9          9          9          9          9          9          9          9          9          9          9          9          9          9          9          9          9          9          9          9          9          9          9          9          9          9          9          9          9          9          9          9          9          9          9          9          9          9          9          9          9          9          9          9          9          9          9          9          9          9          9          9          9          9          9          9          9          9          9          9          9          9          9          9          9          9          9          9          9          9          9          9          9          9          9          9          9          9          9          9          9          9          9          9          9          9          9          9          9          9          9          9          9          9          9          9          9          9          9          9          9          9          9          9          9          9          9          9          9          9          9          9          9          9          9          9          9          9          9          9          9          9          9          9          9          9          9          9          9          9          9          9          9          9          9          9          9          9          9          9          9          9          9          9          9          9          9          9          9          9          9          9          9          9          9          9          9          9          9          9          9          9          9          9          9          9          9          9          9          9          9          9          9          9          9          9          9          9          9          9          9          9          9          9          9          9          9          9          9          9          9          9          9          9          9          9          9          9          9          9          9          9          9          9          9          9          9          9          9          9          9          9          9          9          9          9          9          9          9          9          9          9          9          9          9          9          9          9          9          9          9          9          9          9          9          9          9          9          9          9          9          9          9          9          9          9          9          9          9          9          9          9          9          9          9          9          9          9          9          9          9          9          9          9          9          9          9          9          9          9          9          9          9          9          9          9          9          9          9          9          9          9          9          9          9          9          9          9          9          9          9          9          9          9          9          9          9          9          9          9          9          9          9          9          9          9          9          9          9          9          9          9          9          9          9          9          9          9          9          9          9          9          9          9          9          9          9          9          9          9          9          9          9          9          9          9          9          9          9          9          9          9          9          9          9          9          9          9          9          9          9          9          9          9          9          9          9          9          9          9          9          9          9          9          9          9          9          9          9          9          9          9          9          9          9          9          9          9          9          9          9          9          9          9          9          9          9          9          9          9          9          9          9          9          9          9          9          9          9          9          9          9          9          9          9          9          9          9          9          9          9          9          9          9          9          9          9          9          9          9          9          9          9          9          9          9          9          9          9          9          9          9          9          9          9          9          9          9          9          9          9          9          9          9          9          9          9          9          9          9          9          9          9          9          9          9          9          9          9          9          9          9          9          9          9          9          9          9          9          9          9          9          9          9          9          9          9          9          9          9          9          9          9          9          9          9          9          9          9          9          9          9          9          9          9          9          9          9          9          9          9          9          9          9          9          9          9          9          9          9          9          9          9          9          9          9          9          9          9          9          9          9          9          9          9          9          9          9          9          9          9          9          9          9          9          9          9          9          9          9          9          9          9          9          9          9          9          9          9          9          9          9          9          9          9          9          9          9          9          9          9          9          9          9          9          9          9          9          9          9          9          9          9          9          9          9          9          9          9          9          9          9          9          9          9          9          9          9          9          9          9          9          9          9          9          9          9          9          9          9          9          9          9          9          9          9          9          9          9          9          9          9          9          9          9          9          9          9          9          9          9          9          9          9          9          9          9          9          9          9          9 </DataArray>
</Cells>
<CellData>
<DataArray type="Int32"                                    Name="material"                                                      NumberOfComponents=" 1" format="ascii">
         1          1          1          1          1          1          1          1          1          1          1          1          1          1          1          1          1          1          1          1          1          1          1          1          1          1          1          1          1          1          1          1          1          1          1          1          1          1          1          1          1          1          1          1          1          1          1          1          1          1          1          1          1          1          1          1          1          1          1          1          1          1          1          1          1          1          1          1          1          1          1          1          1          1          1          1          1          1          1          1          1          1          1          1          1          1          1          1          1          1          1          1          1          1          1          1          1          1          1          1          1          1          1          1          1          1          1          1          1          1          1          1          1          1          1          1          1          1          1          1          1          1          1          1          1          1          1          1          1          1          1          1          1          1          1          1          1          1          1          1          1          1          1          1          1          1          1          1          1          1          1          1          1          1          1          1          1          1          1          1          1          1          1          1          1          1          1          1          1          1          1          1          1          1          1          1          1          1          1          1          1          1          1          1          1          1          1          1          1          1          1          1          1          1          1          1          1          1          1          1          1          1          1          1          1          1          1          1          1          1          1          1          1          1          1          1          1          1          1          1          1          1          1          1          1          1          1          1          1          1          1          1          1          1          1          1          1          1          1          1          1          1          1          1          1          1          1          1          1          1          1          1          1          1          1          1          1          1          1          1          1          1          1          1          1          1          1          1          1          1          1          1          1          1          1          1          1          1          1          1          1          1          1          1          1          1          1          1          1          1          1          1          1          1          1          1          1          1          1          1          1          1          1          1          1          1          1          1          1          1          1          1          1          1          1          1          1          1          1          1          1          1          1          1          1          1          1          1          1          1          1          1          1          1          1          1          1          1          1          1          1          1          1          1          1          1          1          1          1          1          1          1          1          1          1          1          1          1          1          1          1          1          1          1          1          1          1          1          1          1          1          1          1          1          1          1          1          1          1          1          1          1          1          1          1          1          1          1          1          1          1          1          1          1          1          1          1          1          1          1          1          1          1          1          1          1          1          1          1          1          1          1          1          1          1          1          1          1          1          1          1          1          1          1          1          1          1          1          1          1          1          1          1          1          1          1          1          1          1          1          1          1          1          1          1          1          1          1          1          1          1          1          1          1          1          1          1          1          1          1          1          1          1          1          1          1          1          1          1          1          1          1          1          1          1          1          1          1          1          1          1          1          1          1          1          1          1          1          1          1          1          1          1          1          1          1          1          1          1          1          1          1          1          1          1          1          1          1          1          1          1          1          1          1          1          1          1          1          1          1          1          1          1          1          1          1          1          1          1          1          1          1          1          1          1          1          1          1          1          1          1          1          1          1          1          1          1          1          1          1          1          1          1          1          1          1          1          1          1          1          1          1          1          1          1          1          1          1          1          1          1          1          1          1          1          1          1          1          1          1          1          1          1          1          1          1          1          1          1          1          1          1          1          1          1          1          1          1          1          1          1          1          1          1          1          1          1          1          1          1          1          1          1          1          1          1          1          1          1          1          1          1          1          1          1          1          1          1          1          1          1          1          1          1          1          1          1          1          1          1          1          1          1          1          1          1          1          1          1          1          1          1          1          1          1          1          1          1          1          1          1          1          1          1          1          1          1          1          1          1          1          1          1          1          1          1          1          1          1          1          1          1          1          1          1          1          1          1          1          1          1          1          1          1          1          1          1          1          1          1          1          1          1          1          1          1          1          1          1          1          1          1          1          1          1          1          1          1          1          1          1          1          1          1          1          1          1          1          1          1          1          1          1          1          1          1          1          1          1          1          1          1          1          1          1          1          1          1          1          1          1          1          1          1          1          1          1          1          1          1          1          1          1          1          1          1          1          1          1          1          1          1          1          1          1          1          1          1          1          1          1          1          1          1          1          1          1          1          1          1          1          1          1          1          1          1          1          1          1          1          1          1          1          1          1          1          1          1          1          1          1          1          1          1          1          1          1          1          1          1          1          1          1          1          1          1          1          1          1          1          1          1          1          1          1          1          1          1          1          1          1          1          1          1          1          1          1          1          1          1          1          1          1          1          1          1          1          1          1          1          1          1          1          1          1          1          1          1          1          1          1          1          1          1          1          1          1          1          1          1          1          1          1          1          1          1          1          1          1          1          1          1          1          1          1          1          1          1          1          1          1          1          1          1          1          1          1          1          1          1          1          1          1          1          1          1          1          1          1          1          1          1          1          1          1          1          1          1          1          1          1          1          1          1          1          1          1          1          1          1          1          1          1          1          1          1          1          1          1          1          1          1          1          1          1          1          1          1          1          1          1          1          1          1          1          1          1          1          1          1          1          1          1          1          1          1          1          1          1          1          1          1          1          1          1          1          1          1          1          1          1          1          1          1          1          1          1          1          1          1          1          1          1          1          1          1          1          1          1          1          1          1          1          1          1          1          1          1          1          1          1          1          1          1 </DataArray>
</CellData>
<PointData>
<DataArray type="Float64"                                    Name="u"                                                      NumberOfComponents=" 3" format="ascii">
             -0.000174089               0.000000000               0.999999990              -0.000203945              -0.000000000               0.999999990              -0.000218108               0.000000000               0.999999990              -0.000226248               0.000000000               0.999999990              -0.000232305               0.000000000               0.999999990              -0.000238075               0.000000000               0.999999990              -0.000244369               0.000000000               0.999999990              -0.000251552              -0.000000000               0.999999990              -0.000259647               0.000000000               0.999999990              -0.000268792              -0.000000000               0.999999990              -0.000279007               0.000000000               0.999999990              -0.000290353               0.000000000               0.999999990              -0.000302845               0.000000000               0.999999990              -0.000316358               0.000000000               0.999999990              -0.000330729               0.000000000               0.999999990              -0.000345685               0.000000000               0.999999990              -0.000360975              -0.000000000               0.999999990              -0.000173289               0.000074903               0.999999990              -0.000201623               0.000064781               0.999999990              -0.000214832               0.000061355               0.999999990              -0.000222475               0.000061374               0.999999990              -0.000228280               0.000063523               0.999999990              -0.000233912               0.000066959               0.999999990              -0.000240178               0.000071368               0.999999990              -0.000247418               0.000076370               0.999999990              -0.000255696               0.000081685               0.999999990              -0.000265031               0.000087323               0.999999990              -0.000275416               0.000093369               0.999999990              -0.000286873               0.000099621               0.999999990              -0.000299338               0.000105819               0.999999990              -0.000312710               0.000111728               0.999999990              -0.000326832               0.000117106               0.999999990              -0.000341455               0.000121583               0.999999990              -0.000356283               0.000124827               0.999999990              -0.000170772               0.000149023               0.999999990              -0.000194555               0.000128847               0.999999990              -0.000205007               0.000122348               0.999999990              -0.000211111               0.000122858               0.999999990              -0.000216263               0.000127455               0.999999990              -0.000221821               0.000134673               0.999999990              -0.000228326               0.000143600               0.999999990              -0.000235858               0.000153639               0.999999990              -0.000244458               0.000164359               0.999999990              -0.000254107               0.000175749               0.999999990              -0.000264727               0.000187684               0.999999990              -0.000276274               0.000199793               0.999999990              -0.000288504               0.000211802               0.999999990              -0.000301277               0.000223254               0.999999990              -0.000314494               0.000233725               0.999999990              -0.000327939               0.000242688               0.999999990              -0.000341494               0.000249459               0.999999990              -0.000166374               0.000221549               0.999999990              -0.000182831               0.000191615               0.999999990              -0.000189346               0.000182804               0.999999990              -0.000193588               0.000184514               0.999999990              -0.000198155               0.000192130               0.999999990              -0.000203825               0.000203373               0.999999990              -0.000210730               0.000216978               0.999999990              -0.000218744               0.000232066               0.999999990              -0.000227775               0.000248204               0.999999990              -0.000237838               0.000265136               0.999999990              -0.000248740               0.000282639               0.999999990              -0.000260260               0.000300313               0.999999990              -0.000272187               0.000317561               0.999999990              -0.000284320               0.000333982               0.999999990              -0.000296485               0.000349270               0.999999990              -0.000308671               0.000362910               0.999999990              -0.000320951               0.000374544               0.999999990              -0.000160085               0.000291676               0.999999990              -0.000167135               0.000252696               0.999999990              -0.000169439               0.000242575               0.999999990              -0.000172166               0.000246110               0.999999990              -0.000176550               0.000257195               0.999999990              -0.000182671               0.000272720               0.999999990              -0.000190240               0.000290966               0.999999990              -0.000199013               0.000310978               0.999999990              -0.000208787               0.000332269               0.999999990              -0.000219471               0.000354481               0.999999990              -0.000230729               0.000377270               0.999999990              -0.000242245               0.000399925               0.999999990              -0.000253930               0.000421938               0.999999990              -0.000265543               0.000442994               0.999999990              -0.000277020               0.000462966               0.999999990              -0.000288389               0.000481589               0.999999990              -0.000299711               0.000498880               0.999999990              -0.000152163               0.000358608               0.999999990              -0.000148448               0.000311860               0.999999990              -0.000146892               0.000301498               0.999999990              -0.000148774               0.000307443               0.999999990              -0.000153600               0.000322165               0.999999990              -0.000160687               0.000341926               0.999999990              -0.000169468               0.000364620               0.999999990              -0.000179406               0.000389216               0.999999990              -0.000190185               0.000415407               0.999999990              -0.000201551               0.000442657               0.999999990              -0.000213197               0.000470187               0.999999990              -0.000224872               0.000497378               0.999999990              -0.000236361               0.000523814               0.999999990              -0.000247537               0.000549360               0.999999990              -0.000258452               0.000574100               0.999999990              -0.000269090               0.000597824               0.999999990              -0.000279506               0.000620644               0.999999990              -0.000142710               0.000421719               0.999999990              -0.000127775               0.000368966               0.999999990              -0.000123387               0.000359203               0.999999990              -0.000125421               0.000367846               0.999999990              -0.000131541               0.000386074               0.999999990              -0.000140257               0.000409798               0.999999990              -0.000150562               0.000436684               0.999999990              -0.000161741               0.000465763               0.999999990              -0.000173530               0.000496749               0.999999990              -0.000185605               0.000528572               0.999999990              -0.000197613               0.000560413               0.999999990              -0.000209213               0.000591832               0.999999990              -0.000220313               0.000622589               0.999999990              -0.000230907               0.000652627               0.999999990              -0.000241005               0.000682016               0.999999990              -0.000250666               0.000710583               0.999999990              -0.000259974               0.000738202               0.999999990              -0.000131872               0.000480435               0.999999990              -0.000106303               0.000423804               0.999999990              -0.000100452               0.000415201               0.999999990              -0.000103763               0.000426434               0.999999990              -0.000111743               0.000447980               0.999999990              -0.000122265               0.000475520               0.999999990              -0.000134091               0.000506519               0.999999990              -0.000146548               0.000540023               0.999999990              -0.000159339               0.000575392               0.999999990              -0.000171947               0.000611437               0.999999990              -0.000183948               0.000647317               0.999999990              -0.000195162               0.000682686               0.999999990              -0.000205562               0.000717521               0.999999990              -0.000215240               0.000751796               0.999999990              -0.000224344               0.000785475               0.999999990              -0.000233074               0.000818396               0.999999990              -0.000241418               0.000850432               0.999999990              -0.000120233               0.000533775               0.999999990              -0.000084779               0.000476452               0.999999990              -0.000079413               0.000468946               0.999999990              -0.000084631               0.000482499               0.999999990              -0.000094686               0.000507233               0.999999990              -0.000107058               0.000538413               0.999999990              -0.000120327               0.000573543               0.999999990              -0.000133946               0.000611325               0.999999990              -0.000147470               0.000650816               0.999999990              -0.000160243               0.000690699               0.999999990              -0.000171765               0.000730264               0.999999990              -0.000182132               0.000769408               0.999999990              -0.000191502               0.000808091               0.999999990              -0.000200306               0.000846211               0.999999990              -0.000208722               0.000883682               0.999999990              -0.000216952               0.000920439               0.999999990              -0.000224999               0.000956464               0.999999990              -0.000108637               0.000583632               0.999999990              -0.000067832               0.000532620               0.999999990              -0.000060046               0.000520863               0.999999990              -0.000063657               0.000529281               0.999999990              -0.000072336               0.000549034               0.999999990              -0.000083432               0.000575736               0.999999990              -0.000095412               0.000606887               0.999999990              -0.000107773               0.000641044               0.999999990              -0.000120285               0.000677170               0.999999990              -0.000132443               0.000714431               0.999999990              -0.000143292               0.000751878               0.999999990              -0.000152782               0.000789188               0.999999990              -0.000161034               0.000826288               0.999999990              -0.000168422               0.000863150               0.999999990              -0.000175430               0.000899650               0.999999990              -0.000182241               0.000935762               0.999999990              -0.000189147               0.000971260               0.999999990              -0.000095526               0.000628595               0.999999990              -0.000053082               0.000586353               0.999999990              -0.000042806               0.000573519               0.999999990              -0.000044453               0.000578044               0.999999990              -0.000051403               0.000593490               0.999999990              -0.000060844               0.000616156               0.999999990              -0.000071317               0.000643538               0.999999990              -0.000082291               0.000674152               0.999999990              -0.000093531               0.000707143               0.999999990              -0.000104691               0.000741657               0.999999990              -0.000114848               0.000776798               0.999999990              -0.000123603               0.000812128               0.999999990              -0.000130818               0.000847366               0.999999990              -0.000136700               0.000882545               0.999999990              -0.000141713               0.000917624               0.999999990              -0.000146310               0.000952670               0.999999990              -0.000151036               0.000987578               0.999999990              -0.000081394               0.000667665               0.999999990              -0.000040434               0.000636171               0.999999990              -0.000028502               0.000624684               0.999999990              -0.000028091               0.000627199               0.999999990              -0.000032959               0.000639457               0.999999990              -0.000040465               0.000658664               0.999999990              -0.000049240               0.000682733               0.999999990              -0.000058536               0.000710258               0.999999990              -0.000068300               0.000740353               0.999999990              -0.000078128               0.000772414               0.999999990              -0.000087293               0.000805512               0.999999990              -0.000095109               0.000839046               0.999999990              -0.000101287               0.000872634               0.999999990              -0.000105834               0.000906148               0.999999990              -0.000108861               0.000939603               0.999999990              -0.000110742               0.000973114               0.999999990              -0.000112121               0.001006867               0.999999990              -0.000066392               0.000700303               0.999999990              -0.000029816               0.000680120               0.999999990              -0.000017461               0.000671942               0.999999990              -0.000015340               0.000674252               0.999999990              -0.000018159               0.000684715               0.999999990              -0.000023616               0.000701409               0.999999990              -0.000030390               0.000722852               0.999999990              -0.000037938               0.000747793               0.999999990              -0.000045869               0.000775493               0.999999990              -0.000053988               0.000805434               0.999999990              -0.000061763               0.000836922               0.999999990              -0.000068446               0.000869196               0.999999990              -0.000073641               0.000901744               0.999999990              -0.000076980               0.000934280               0.999999990              -0.000078336               0.000966629               0.999999990              -0.000077595               0.000998976               0.999999990              -0.000074959               0.001031603               0.999999990              -0.000050642               0.000726130               0.999999990              -0.000020938               0.000716395               0.999999990              -0.000009591               0.000712540               0.999999990              -0.000006609               0.000716093               0.999999990              -0.000007800               0.000726083               0.999999990              -0.000011207               0.000741383               0.999999990              -0.000016062               0.000761011               0.999999990              -0.000021663               0.000784078               0.999999990              -0.000027635               0.000809933               0.999999990              -0.000033785               0.000838189               0.999999990              -0.000039850               0.000868310               0.999999990              -0.000045158               0.000899682               0.999999990              -0.000049223               0.000931862               0.999999990              -0.000051560               0.000964332               0.999999990              -0.000051694               0.000996811               0.999999990              -0.000049122               0.001029127               0.999999990              -0.000043331               0.001061386               0.999999990              -0.000034229               0.000744835               0.999999990              -0.000013283               0.000743628               0.999999990              -0.000004522               0.000743885               0.999999990              -0.000001756               0.000749155               0.999999990              -0.000001963               0.000759530               0.999999990              -0.000003874               0.000774323               0.999999990              -0.000006850               0.000793036               0.999999990              -0.000010486               0.000815039               0.999999990              -0.000014402               0.000839822               0.999999990              -0.000018424               0.000866932               0.999999990              -0.000022453               0.000896118               0.999999990              -0.000026024               0.000926988               0.999999990              -0.000028712               0.000959099               0.999999990              -0.000030222               0.000991975               0.999999990              -0.000029952               0.001025116               0.999999990              -0.000027240               0.001058257               0.999999990              -0.000021054               0.001091229               0.999999990              -0.000017261               0.000756207               0.999999990              -0.000006424               0.000760552               0.999999990              -0.000001662               0.000763734               0.999999990               0.000000002               0.000770357               0.999999990               0.000000071               0.000781267               0.999999990              -0.000000723               0.000796147               0.999999990              -0.000002109               0.000814563               0.999999990              -0.000003862               0.000836098               0.999999990              -0.000005841               0.000860372               0.999999990              -0.000007797               0.000887019               0.999999990              -0.000009656               0.000915716               0.999999990              -0.000011364               0.000946182               0.999999990              -0.000012698               0.000978090               0.999999990              -0.000013501               0.001010973               0.999999990              -0.000013372               0.001044530               0.999999990              -0.000011803               0.001078374               0.999999990              -0.000008202               0.001112157               0.999999990              -0.000000000               0.000760021               0.999999990               0.000000000               0.000766262               0.999999990               0.000000000               0.000770525               0.999999990               0.000000000               0.000777667               0.999999990              -0.000000000               0.000788772               0.999999990              -0.000000000               0.000803735               0.999999990               0.000000000               0.000822119               0.999999990              -0.000000000               0.000843559               0.999999990              -0.000000000               0.000867758               0.999999990              -0.000000000               0.000894346               0.999999990              -0.000000000               0.000922871               0.999999990               0.000000000               0.000953105               0.999999990               0.000000000               0.000984787               0.999999990               0.000000000               0.001017579               0.999999990               0.000000000               0.001051165               0.999999990               0.000000000               0.001085209               0.999999990               0.000000000               0.001119382               0.999999990              -0.000174089               0.000000000               0.999999990              -0.000203945              -0.000000000               0.999999990              -0.000218108               0.000000000               0.999999990              -0.000226248               0.000000000               0.999999990              -0.000232305               0.000000000               0.999999990              -0.000238075               0.000000000               0.999999990              -0.000244369               0.000000000               0.999999990              -0.000251552              -0.000000000               0.999999990              -0.000259647               0.000000000               0.999999990              -0.000268792              -0.000000000               0.999999990              -0.000279007               0.000000000               0.999999990              -0.000290353               0.000000000               0.999999990              -0.000302845               0.000000000               0.999999990              -0.000316358               0.000000000               0.999999990              -0.000330729               0.000000000               0.999999990              -0.000345685               0.000000000               0.999999990              -0.000360975              -0.000000000               0.999999990              -0.000173289              -0.000074903               0.999999990              -0.000201623              -0.000064781               0.999999990              -0.000214832              -0.000061355               0.999999990              -0.000222475              -0.000061374               0.999999990              -0.000228280              -0.000063523               0.999999990              -0.000233912              -0.000066959               0.999999990              -0.000240178              -0.000071368               0.999999990              -0.000247418              -0.000076370               0.999999990              -0.000255696              -0.000081685               0.999999990              -0.000265031              -0.000087323               0.999999990              -0.000275416              -0.000093369               0.999999990              -0.000286873              -0.000099621               0.999999990              -0.000299338              -0.000105819               0.999999990              -0.000312710              -0.000111728               0.999999990              -0.000326832              -0.000117106               0.999999990              -0.000341455              -0.000121583               0.999999990              -0.000356283              -0.000124827               0.999999990              -0.000170772              -0.000149023               0.999999990              -0.000194555              -0.000128847               0.999999990              -0.000205007              -0.000122348               0.999999990              -0.000211111              -0.000122858               0.999999990              -0.000216263              -0.000127455               0.999999990              -0.000221821              -0.000134673               0.999999990              -0.000228326              -0.000143600               0.999999990              -0.000235858              -0.000153639               0.999999990              -0.000244458              -0.000164359               0.999999990              -0.000254107              -0.000175749               0.999999990              -0.000264727              -0.000187684               0.999999990              -0.000276274              -0.000199793               0.999999990              -0.000288504              -0.000211802               0.999999990              -0.000301277              -0.000223254               0.999999990              -0.000314494              -0.000233725               0.999999990              -0.000327939              -0.000242688               0.999999990              -0.000341494              -0.000249459               0.999999990              -0.000166374              -0.000221549               0.999999990              -0.000182831              -0.000191615               0.999999990              -0.000189346              -0.000182804               0.999999990              -0.000193588              -0.000184514               0.999999990              -0.000198155              -0.000192130               0.999999990              -0.000203825              -0.000203373               0.999999990              -0.000210730              -0.000216978               0.999999990              -0.000218744              -0.000232066               0.999999990              -0.000227775              -0.000248204               0.999999990              -0.000237838              -0.000265136               0.999999990              -0.000248740              -0.000282639               0.999999990              -0.000260260              -0.000300313               0.999999990              -0.000272187              -0.000317561               0.999999990              -0.000284320              -0.000333982               0.999999990              -0.000296485              -0.000349270               0.999999990              -0.000308671              -0.000362910               0.999999990              -0.000320951              -0.000374544               0.999999990              -0.000160085              -0.000291676               0.999999990              -0.000167135              -0.000252696               0.999999990              -0.000169439              -0.000242575               0.999999990              -0.000172166              -0.000246110               0.999999990              -0.000176550              -0.000257195               0.999999990              -0.000182671              -0.000272720               0.999999990              -0.000190240              -0.000290966               0.999999990              -0.000199013              -0.000310978               0.999999990              -0.000208787              -0.000332269               0.999999990              -0.000219471              -0.000354481               0.999999990              -0.000230729              -0.000377270               0.999999990              -0.000242245              -0.000399925               0.999999990              -0.000253930              -0.000421938               0.999999990              -0.000265543              -0.000442994               0.999999990              -0.000277020              -0.000462966               0.999999990              -0.000288389              -0.000481589               0.999999990              -0.000299711              -0.000498880               0.999999990              -0.000152163              -0.000358608               0.999999990              -0.000148448              -0.000311860               0.999999990              -0.000146892              -0.000301498               0.999999990              -0.000148774              -0.000307443               0.999999990              -0.000153600              -0.000322165               0.999999990              -0.000160687              -0.000341926               0.999999990              -0.000169468              -0.000364620               0.999999990              -0.000179406              -0.000389216               0.999999990              -0.000190185              -0.000415407               0.999999990              -0.000201551              -0.000442657               0.999999990              -0.000213197              -0.000470187               0.999999990              -0.000224872              -0.000497378               0.999999990              -0.000236361              -0.000523814               0.999999990              -0.000247537              -0.000549360               0.999999990              -0.000258452              -0.000574100               0.999999990              -0.000269090              -0.000597824               0.999999990              -0.000279506              -0.000620644               0.999999990              -0.000142710              -0.000421719               0.999999990              -0.000127775              -0.000368966               0.999999990              -0.000123387              -0.000359203               0.999999990              -0.000125421              -0.000367846               0.999999990              -0.000131541              -0.000386074               0.999999990              -0.000140257              -0.000409798               0.999999990              -0.000150562              -0.000436684               0.999999990              -0.000161741              -0.000465763               0.999999990              -0.000173530              -0.000496749               0.999999990              -0.000185605              -0.000528572               0.999999990              -0.000197613              -0.000560413               0.999999990              -0.000209213              -0.000591832               0.999999990              -0.000220313              -0.000622589               0.999999990              -0.000230907              -0.000652627               0.999999990              -0.000241005              -0.000682016               0.999999990              -0.000250666              -0.000710583               0.999999990              -0.000259974              -0.000738202               0.999999990              -0.000131872              -0.000480435               0.999999990              -0.000106303              -0.000423804               0.999999990              -0.000100452              -0.000415201               0.999999990              -0.000103763              -0.000426434               0.999999990              -0.000111743              -0.000447980               0.999999990              -0.000122265              -0.000475520               0.999999990              -0.000134091              -0.000506519               0.999999990              -0.000146548              -0.000540023               0.999999990              -0.000159339              -0.000575392               0.999999990              -0.000171947              -0.000611437               0.999999990              -0.000183948              -0.000647317               0.999999990              -0.000195162              -0.000682686               0.999999990              -0.000205562              -0.000717521               0.999999990              -0.000215240              -0.000751796               0.999999990              -0.000224344              -0.000785475               0.999999990              -0.000233074              -0.000818396               0.999999990              -0.000241418              -0.000850432               0.999999990              -0.000120233              -0.000533775               0.999999990              -0.000084779              -0.000476452               0.999999990              -0.000079413              -0.000468946               0.999999990              -0.000084631              -0.000482499               0.999999990              -0.000094686              -0.000507233               0.999999990              -0.000107058              -0.000538413               0.999999990              -0.000120327              -0.000573543               0.999999990              -0.000133946              -0.000611325               0.999999990              -0.000147470              -0.000650816               0.999999990              -0.000160243              -0.000690699               0.999999990              -0.000171765              -0.000730264               0.999999990              -0.000182132              -0.000769408               0.999999990              -0.000191502              -0.000808091               0.999999990              -0.000200306              -0.000846211               0.999999990              -0.000208722              -0.000883682               0.999999990              -0.000216952              -0.000920439               0.999999990              -0.000224999              -0.000956464               0.999999990              -0.000108637              -0.000583632               0.999999990              -0.000067832              -0.000532620               0.999999990              -0.000060046              -0.000520863               0.999999990              -0.000063657              -0.000529281               0.999999990              -0.000072336              -0.000549034               0.999999990              -0.000083432              -0.000575736               0.999999990              -0.000095412              -0.000606887               0.999999990              -0.000107773              -0.000641044               0.999999990              -0.000120285              -0.000677170               0.999999990              -0.000132443              -0.000714431               0.999999990              -0.000143292              -0.000751878               0.999999990              -0.000152782              -0.000789188               0.999999990              -0.000161034              -0.000826288               0.999999990              -0.000168422              -0.000863150               0.999999990              -0.000175430              -0.000899650               0.999999990              -0.000182241              -0.000935762               0.999999990              -0.000189147              -0.000971260               0.999999990              -0.000095526              -0.000628595               0.999999990              -0.000053082              -0.000586353               0.999999990              -0.000042806              -0.000573519               0.999999990              -0.000044453              -0.000578044               0.999999990              -0.000051403              -0.000593490               0.999999990              -0.000060844              -0.000616156               0.999999990              -0.000071317              -0.000643538               0.999999990              -0.000082291              -0.000674152               0.999999990              -0.000093531              -0.000707143               0.999999990              -0.000104691              -0.000741657               0.999999990              -0.000114848              -0.000776798               0.999999990              -0.000123603              -0.000812128               0.999999990              -0.000130818              -0.000847366               0.999999990              -0.000136700              -0.000882545               0.999999990              -0.000141713              -0.000917624               0.999999990              -0.000146310              -0.000952670               0.999999990              -0.000151036              -0.000987578               0.999999990              -0.000081394              -0.000667665               0.999999990              -0.000040434              -0.000636171               0.999999990              -0.000028502              -0.000624684               0.999999990              -0.000028091              -0.000627199               0.999999990              -0.000032959              -0.000639457               0.999999990              -0.000040465              -0.000658664               0.999999990              -0.000049240              -0.000682733               0.999999990              -0.000058536              -0.000710258               0.999999990              -0.000068300              -0.000740353               0.999999990              -0.000078128              -0.000772414               0.999999990              -0.000087293              -0.000805512               0.999999990              -0.000095109              -0.000839046               0.999999990              -0.000101287              -0.000872634               0.999999990              -0.000105834              -0.000906148               0.999999990              -0.000108861              -0.000939603               0.999999990              -0.000110742              -0.000973114               0.999999990              -0.000112121              -0.001006867               0.999999990              -0.000066392              -0.000700303               0.999999990              -0.000029816              -0.000680120               0.999999990              -0.000017461              -0.000671942               0.999999990              -0.000015340              -0.000674252               0.999999990              -0.000018159              -0.000684715               0.999999990              -0.000023616              -0.000701409               0.999999990              -0.000030390              -0.000722852               0.999999990              -0.000037938              -0.000747793               0.999999990              -0.000045869              -0.000775493               0.999999990              -0.000053988              -0.000805434               0.999999990              -0.000061763              -0.000836922               0.999999990              -0.000068446              -0.000869196               0.999999990              -0.000073641              -0.000901744               0.999999990              -0.000076980              -0.000934280               0.999999990              -0.000078336              -0.000966629               0.999999990              -0.000077595              -0.000998976               0.999999990              -0.000074959              -0.001031603               0.999999990              -0.000050642              -0.000726130               0.999999990              -0.000020938              -0.000716395               0.999999990              -0.000009591              -0.000712540               0.999999990              -0.000006609              -0.000716093               0.999999990              -0.000007800              -0.000726083               0.999999990              -0.000011207              -0.000741383               0.999999990              -0.000016062              -0.000761011               0.999999990              -0.000021663              -0.000784078               0.999999990              -0.000027635              -0.000809933               0.999999990              -0.000033785              -0.000838189               0.999999990              -0.000039850              -0.000868310               0.999999990              -0.000045158              -0.000899682               0.999999990              -0.000049223              -0.000931862               0.999999990              -0.000051560              -0.000964332               0.999999990              -0.000051694              -0.000996811               0.999999990              -0.000049122              -0.001029127               0.999999990              -0.000043331              -0.001061386               0.999999990              -0.000034229              -0.000744835               0.999999990              -0.000013283              -0.000743628               0.999999990              -0.000004522              -0.000743885               0.999999990              -0.000001756              -0.000749155               0.999999990              -0.000001963              -0.000759530               0.999999990              -0.000003874              -0.000774323               0.999999990              -0.000006850              -0.000793036               0.999999990              -0.000010486              -0.000815039               0.999999990              -0.000014402              -0.000839822               0.999999990              -0.000018424              -0.000866932               0.999999990              -0.000022453              -0.000896118               0.999999990              -0.000026024              -0.000926988               0.999999990              -0.000028712              -0.000959099               0.999999990              -0.000030222              -0.000991975               0.999999990              -0.000029952              -0.001025116               0.999999990              -0.000027240              -0.001058257               0.999999990              -0.000021054              -0.001091229               0.999999990              -0.000017261              -0.000756207               0.999999990              -0.000006424              -0.000760552               0.999999990              -0.000001662              -0.000763734               0.999999990               0.000000002              -0.000770357               0.999999990               0.000000071              -0.000781267               0.999999990              -0.000000723              -0.000796147               0.999999990              -0.000002109              -0.000814563               0.999999990              -0.000003862              -0.000836098               0.999999990              -0.000005841              -0.000860372               0.999999990              -0.000007797              -0.000887019               0.999999990              -0.000009656              -0.000915716               0.999999990              -0.000011364              -0.000946182               0.999999990              -0.000012698              -0.000978090               0.999999990              -0.000013501              -0.001010973               0.999999990              -0.000013372              -0.001044530               0.999999990              -0.000011803              -0.001078374               0.999999990              -0.000008202              -0.001112157               0.999999990              -0.000000000              -0.000760021               0.999999990               0.000000000              -0.000766262               0.999999990               0.000000000              -0.000770525               0.999999990              -0.000000000              -0.000777667               0.999999990              -0.000000000              -0.000788772               0.999999990               0.000000000              -0.000803735               0.999999990              -0.000000000              -0.000822119               0.999999990              -0.000000000              -0.000843559               0.999999990              -0.000000000              -0.000867758               0.999999990              -0.000000000              -0.000894346               0.999999990               0.000000000              -0.000922871               0.999999990              -0.000000000              -0.000953105               0.999999990              -0.000000000              -0.000984787               0.999999990               0.000000000              -0.001017579               0.999999990              -0.000000000              -0.001051165               0.999999990              -0.000000000              -0.001085209               0.999999990               0.000000000              -0.001119382               0.999999990               0.000174089              -0.000000000               0.999999990               0.000203945              -0.000000000               0.999999990               0.000218108              -0.000000000               0.999999990               0.000226248              -0.000000000               0.999999990               0.000232305               0.000000000               0.999999990               0.000238075               0.000000000               0.999999990               0.000244369               0.000000000               0.999999990               0.000251552              -0.000000000               0.999999990               0.000259647               0.000000000               0.999999990               0.000268792              -0.000000000               0.999999990               0.000279007               0.000000000               0.999999990               0.000290353              -0.000000000               0.999999990               0.000302845               0.000000000               0.999999990               0.000316358              -0.000000000               0.999999990               0.000330729               0.000000000               0.999999990               0.000345685               0.000000000               0.999999990               0.000360975              -0.000000000               0.999999990               0.000173289              -0.000074903               0.999999990               0.000201623              -0.000064781               0.999999990               0.000214832              -0.000061355               0.999999990               0.000222475              -0.000061374               0.999999990               0.000228280              -0.000063523               0.999999990               0.000233912              -0.000066959               0.999999990               0.000240178              -0.000071368               0.999999990               0.000247418              -0.000076370               0.999999990               0.000255696              -0.000081685               0.999999990               0.000265031              -0.000087323               0.999999990               0.000275416              -0.000093369               0.999999990               0.000286873              -0.000099621               0.999999990               0.000299338              -0.000105819               0.999999990               0.000312710              -0.000111728               0.999999990               0.000326832              -0.000117106               0.999999990               0.000341455              -0.000121583               0.999999990               0.000356283              -0.000124827               0.999999990               0.000170772              -0.000149023               0.999999990               0.000194555              -0.000128847               0.999999990               0.000205007              -0.000122348               0.999999990               0.000211111              -0.000122858               0.999999990               0.000216263              -0.000127455               0.999999990               0.000221821              -0.000134673               0.999999990               0.000228326              -0.000143600               0.999999990               0.000235858              -0.000153639               0.999999990               0.000244458              -0.000164359               0.999999990               0.000254107              -0.000175749               0.999999990               0.000264727              -0.000187684               0.999999990               0.000276274              -0.000199793               0.999999990               0.000288504              -0.000211802               0.999999990               0.000301277              -0.000223254               0.999999990               0.000314494              -0.000233725               0.999999990               0.000327939              -0.000242688               0.999999990               0.000341494              -0.000249459               0.999999990               0.000166374              -0.000221549               0.999999990               0.000182831              -0.000191615               0.999999990               0.000189346              -0.000182804               0.999999990               0.000193588              -0.000184514               0.999999990               0.000198155              -0.000192130               0.999999990               0.000203825              -0.000203373               0.999999990               0.000210730              -0.000216978               0.999999990               0.000218744              -0.000232066               0.999999990               0.000227775              -0.000248204               0.999999990               0.000237838              -0.000265136               0.999999990               0.000248740              -0.000282639               0.999999990               0.000260260              -0.000300313               0.999999990               0.000272187              -0.000317561               0.999999990               0.000284320              -0.000333982               0.999999990               0.000296485              -0.000349270               0.999999990               0.000308671              -0.000362910               0.999999990               0.000320951              -0.000374544               0.999999990               0.000160085              -0.000291676               0.999999990               0.000167135              -0.000252696               0.999999990               0.000169439              -0.000242575               0.999999990               0.000172166              -0.000246110               0.999999990               0.000176550              -0.000257195               0.999999990               0.000182671              -0.000272720               0.999999990               0.000190240              -0.000290966               0.999999990               0.000199013              -0.000310978               0.999999990               0.000208787              -0.000332269               0.999999990               0.000219471              -0.000354481               0.999999990               0.000230729              -0.000377270               0.999999990               0.000242245              -0.000399925               0.999999990               0.000253930              -0.000421938               0.999999990               0.000265543              -0.000442994               0.999999990               0.000277020              -0.000462966               0.999999990               0.000288389              -0.000481589               0.999999990               0.000299711              -0.000498880               0.999999990               0.000152163              -0.000358608               0.999999990               0.000148448              -0.000311860               0.999999990               0.000146892              -0.000301498               0.999999990               0.000148774              -0.000307443               0.999999990               0.000153600              -0.000322165               0.999999990               0.000160687              -0.000341926               0.999999990               0.000169468              -0.000364620               0.999999990               0.000179406              -0.000389216               0.999999990               0.000190185              -0.000415407               0.999999990               0.000201551              -0.000442657               0.999999990               0.000213197              -0.000470187               0.999999990               0.000224872              -0.000497378               0.999999990               0.000236361              -0.000523814               0.999999990               0.000247537              -0.000549360               0.999999990               0.000258452              -0.000574100               0.999999990               0.000269090              -0.000597824               0.999999990               0.000279506              -0.000620644               0.999999990               0.000142710              -0.000421719               0.999999990               0.000127775              -0.000368966               0.999999990               0.000123387              -0.000359203               0.999999990               0.000125421              -0.000367846               0.999999990               0.000131541              -0.000386074               0.999999990               0.000140257              -0.000409798               0.999999990               0.000150562              -0.000436684               0.999999990               0.000161741              -0.000465763               0.999999990               0.000173530              -0.000496749               0.999999990               0.000185605              -0.000528572               0.999999990               0.000197613              -0.000560413               0.999999990               0.000209213              -0.000591832               0.999999990               0.000220313              -0.000622589               0.999999990               0.000230907              -0.000652627               0.999999990               0.000241005              -0.000682016               0.999999990               0.000250666              -0.000710583               0.999999990               0.000259974              -0.000738202               0.999999990               0.000131872              -0.000480435               0.999999990               0.000106303              -0.000423804               0.999999990               0.000100452              -0.000415201               0.999999990               0.000103763              -0.000426434               0.999999990               0.000111743              -0.000447980               0.999999990               0.000122265              -0.000475520               0.999999990               0.000134091              -0.000506519               0.999999990               0.000146548              -0.000540023               0.999999990               0.000159339              -0.000575392               0.999999990               0.000171947              -0.000611437               0.999999990               0.000183948              -0.000647317               0.999999990               0.000195162              -0.000682686               0.999999990               0.000205562              -0.000717521               0.999999990               0.000215240              -0.000751796               0.999999990               0.000224344              -0.000785475               0.999999990               0.000233074              -0.000818396               0.999999990               0.000241418              -0.000850432               0.999999990               0.000120233              -0.000533775               0.999999990               0.000084779              -0.000476452               0.999999990               0.000079413              -0.000468946               0.999999990               0.000084631              -0.000482499               0.999999990               0.000094686              -0.000507233               0.999999990               0.000107058              -0.000538413               0.999999990               0.000120327              -0.000573543               0.999999990               0.000133946              -0.000611325               0.999999990               0.000147470              -0.000650816               0.999999990               0.000160243              -0.000690699               0.999999990               0.000171765              -0.000730264               0.999999990               0.000182132              -0.000769408               0.999999990               0.000191502              -0.000808091               0.999999990               0.000200306              -0.000846211               0.999999990               0.000208722              -0.000883682               0.999999990               0.000216952              -0.000920439               0.999999990               0.000224999              -0.000956464               0.999999990               0.000108637              -0.000583632               0.999999990               0.000067832              -0.000532620               0.999999990               0.000060046              -0.000520863               0.999999990               0.000063657              -0.000529281               0.999999990               0.000072336              -0.000549034               0.999999990               0.000083432              -0.000575736               0.999999990               0.000095412              -0.000606887               0.999999990               0.000107773              -0.000641044               0.999999990               0.000120285              -0.000677170               0.999999990               0.000132443              -0.000714431               0.999999990               0.000143292              -0.000751878               0.999999990               0.000152782              -0.000789188               0.999999990               0.000161034              -0.000826288               0.999999990               0.000168422              -0.000863150               0.999999990               0.000175430              -0.000899650               0.999999990               0.000182241              -0.000935762               0.999999990               0.000189147              -0.000971260               0.999999990               0.000095526              -0.000628595               0.999999990               0.000053082              -0.000586353               0.999999990               0.000042806              -0.000573519               0.999999990               0.000044453              -0.000578044               0.999999990               0.000051403              -0.000593490               0.999999990               0.000060844              -0.000616156               0.999999990               0.000071317              -0.000643538               0.999999990               0.000082291              -0.000674152               0.999999990               0.000093531              -0.000707143               0.999999990               0.000104691              -0.000741657               0.999999990               0.000114848              -0.000776798               0.999999990               0.000123603              -0.000812128               0.999999990               0.000130818              -0.000847366               0.999999990               0.000136700              -0.000882545               0.999999990               0.000141713              -0.000917624               0.999999990               0.000146310              -0.000952670               0.999999990               0.000151036              -0.000987578               0.999999990               0.000081394              -0.000667665               0.999999990               0.000040434              -0.000636171               0.999999990               0.000028502              -0.000624684               0.999999990               0.000028091              -0.000627199               0.999999990               0.000032959              -0.000639457               0.999999990               0.000040465              -0.000658664               0.999999990               0.000049240              -0.000682733               0.999999990               0.000058536              -0.000710258               0.999999990               0.000068300              -0.000740353               0.999999990               0.000078128              -0.000772414               0.999999990               0.000087293              -0.000805512               0.999999990               0.000095109              -0.000839046               0.999999990               0.000101287              -0.000872634               0.999999990               0.000105834              -0.000906148               0.999999990               0.000108861              -0.000939603               0.999999990               0.000110742              -0.000973114               0.999999990               0.000112121              -0.001006867               0.999999990               0.000066392              -0.000700303               0.999999990               0.000029816              -0.000680120               0.999999990               0.000017461              -0.000671942               0.999999990               0.000015340              -0.000674252               0.999999990               0.000018159              -0.000684715               0.999999990               0.000023616              -0.000701409               0.999999990               0.000030390              -0.000722852               0.999999990               0.000037938              -0.000747793               0.999999990               0.000045869              -0.000775493               0.999999990               0.000053988              -0.000805434               0.999999990               0.000061763              -0.000836922               0.999999990               0.000068446              -0.000869196               0.999999990               0.000073641              -0.000901744               0.999999990               0.000076980              -0.000934280               0.999999990               0.000078336              -0.000966629               0.999999990               0.000077595              -0.000998976               0.999999990               0.000074959              -0.001031603               0.999999990               0.000050642              -0.000726130               0.999999990               0.000020938              -0.000716395               0.999999990               0.000009591              -0.000712540               0.999999990               0.000006609              -0.000716093               0.999999990               0.000007800              -0.000726083               0.999999990               0.000011207              -0.000741383               0.999999990               0.000016062              -0.000761011               0.999999990               0.000021663              -0.000784078               0.999999990               0.000027635              -0.000809933               0.999999990               0.000033785              -0.000838189               0.999999990               0.000039850              -0.000868310               0.999999990               0.000045158              -0.000899682               0.999999990               0.000049223              -0.000931862               0.999999990               0.000051560              -0.000964332               0.999999990               0.000051694              -0.000996811               0.999999990               0.000049122              -0.001029127               0.999999990               0.000043331              -0.001061386               0.999999990               0.000034229              -0.000744835               0.999999990               0.000013283              -0.000743628               0.999999990               0.000004522              -0.000743885               0.999999990               0.000001756              -0.000749155               0.999999990               0.000001963              -0.000759530               0.999999990               0.000003874              -0.000774323               0.999999990               0.000006850              -0.000793036               0.999999990               0.000010486              -0.000815039               0.999999990               0.000014402              -0.000839822               0.999999990               0.000018424              -0.000866932               0.999999990               0.000022453              -0.000896118               0.999999990               0.000026024              -0.000926988               0.999999990               0.000028712              -0.000959099               0.999999990               0.000030222              -0.000991975               0.999999990               0.000029952              -0.001025116               0.999999990               0.000027240              -0.001058257               0.999999990               0.000021054              -0.001091229               0.999999990               0.000017261              -0.000756207               0.999999990               0.000006424              -0.000760552               0.999999990               0.000001662              -0.000763734               0.999999990              -0.000000002              -0.000770357               0.999999990              -0.000000071              -0.000781267               0.999999990               0.000000723              -0.000796147               0.999999990               0.000002109              -0.000814563               0.999999990               0.000003862              -0.000836098               0.999999990               0.000005841              -0.000860372               0.999999990               0.000007797              -0.000887019               0.999999990               0.000009656              -0.000915716               0.999999990               0.000011364              -0.000946182               0.999999990               0.000012698              -0.000978090               0.999999990               0.000013501              -0.001010973               0.999999990               0.000013372              -0.001044530               0.999999990               0.000011803              -0.001078374               0.999999990               0.000008202              -0.001112157               0.999999990              -0.000000000              -0.000760021               0.999999990               0.000000000              -0.000766262               0.999999990               0.000000000              -0.000770525               0.999999990              -0.000000000              -0.000777667               0.999999990              -0.000000000              -0.000788772               0.999999990               0.000000000              -0.000803735               0.999999990              -0.000000000              -0.000822119               0.999999990              -0.000000000              -0.000843559               0.999999990              -0.000000000              -0.000867758               0.999999990              -0.000000000              -0.000894346               0.999999990               0.000000000              -0.000922871               0.999999990              -0.000000000              -0.000953105               0.999999990              -0.000000000              -0.000984787               0.999999990               0.000000000              -0.001017579               0.999999990              -0.000000000              -0.001051165               0.999999990              -0.000000000              -0.001085209               0.999999990               0.000000000              -0.001119382               0.999999990               0.000174089              -0.000000000               0.999999990               0.000203945              -0.000000000               0.999999990               0.000218108              -0.000000000               0.999999990               0.000226248              -0.000000000               0.999999990               0.000232305               0.000000000               0.999999990               0.000238075               0.000000000               0.999999990               0.000244369               0.000000000               0.999999990               0.000251552              -0.000000000               0.999999990               0.000259647               0.000000000               0.999999990               0.000268792              -0.000000000               0.999999990               0.000279007               0.000000000               0.999999990               0.000290353              -0.000000000               0.999999990               0.000302845               0.000000000               0.999999990               0.000316358              -0.000000000               0.999999990               0.000330729               0.000000000               0.999999990               0.000345685               0.000000000               0.999999990               0.000360975              -0.000000000               0.999999990               0.000173289               0.000074903               0.999999990               0.000201623               0.000064781               0.999999990               0.000214832               0.000061355               0.999999990               0.000222475               0.000061374               0.999999990               0.000228280               0.000063523               0.999999990               0.000233912               0.000066959               0.999999990               0.000240178               0.000071368               0.999999990               0.000247418               0.000076370               0.999999990               0.000255696               0.000081685               0.999999990               0.000265031               0.000087323               0.999999990               0.000275416               0.000093369               0.999999990               0.000286873               0.000099621               0.999999990               0.000299338               0.000105819               0.999999990               0.000312710               0.000111728               0.999999990               0.000326832               0.000117106               0.999999990               0.000341455               0.000121583               0.999999990               0.000356283               0.000124827               0.999999990               0.000170772               0.000149023               0.999999990               0.000194555               0.000128847               0.999999990               0.000205007               0.000122348               0.999999990               0.000211111               0.000122858               0.999999990               0.000216263               0.000127455               0.999999990               0.000221821               0.000134673               0.999999990               0.000228326               0.000143600               0.999999990               0.000235858               0.000153639               0.999999990               0.000244458               0.000164359               0.999999990               0.000254107               0.000175749               0.999999990               0.000264727               0.000187684               0.999999990               0.000276274               0.000199793               0.999999990               0.000288504               0.000211802               0.999999990               0.000301277               0.000223254               0.999999990               0.000314494               0.000233725               0.999999990               0.000327939               0.000242688               0.999999990               0.000341494               0.000249459               0.999999990               0.000166374               0.000221549               0.999999990               0.000182831               0.000191615               0.999999990               0.000189346               0.000182804               0.999999990               0.000193588               0.000184514               0.999999990               0.000198155               0.000192130               0.999999990               0.000203825               0.000203373               0.999999990               0.000210730               0.000216978               0.999999990               0.000218744               0.000232066               0.999999990               0.000227775               0.000248204               0.999999990               0.000237838               0.000265136               0.999999990               0.000248740               0.000282639               0.999999990               0.000260260               0.000300313               0.999999990               0.000272187               0.000317561               0.999999990               0.000284320               0.000333982               0.999999990               0.000296485               0.000349270               0.999999990               0.000308671               0.000362910               0.999999990               0.000320951               0.000374544               0.999999990               0.000160085               0.000291676               0.999999990               0.000167135               0.000252696               0.999999990               0.000169439               0.000242575               0.999999990               0.000172166               0.000246110               0.999999990               0.000176550               0.000257195               0.999999990               0.000182671               0.000272720               0.999999990               0.000190240               0.000290966               0.999999990               0.000199013               0.000310978               0.999999990               0.000208787               0.000332269               0.999999990               0.000219471               0.000354481               0.999999990               0.000230729               0.000377270               0.999999990               0.000242245               0.000399925               0.999999990               0.000253930               0.000421938               0.999999990               0.000265543               0.000442994               0.999999990               0.000277020               0.000462966               0.999999990               0.000288389               0.000481589               0.999999990               0.000299711               0.000498880               0.999999990               0.000152163               0.000358608               0.999999990               0.000148448               0.000311860               0.999999990               0.000146892               0.000301498               0.999999990               0.000148774               0.000307443               0.999999990               0.000153600               0.000322165               0.999999990               0.000160687               0.000341926               0.999999990               0.000169468               0.000364620               0.999999990               0.000179406               0.000389216               0.999999990               0.000190185               0.000415407               0.999999990               0.000201551               0.000442657               0.999999990               0.000213197               0.000470187               0.999999990               0.000224872               0.000497378               0.999999990               0.000236361               0.000523814               0.999999990               0.000247537               0.000549360               0.999999990               0.000258452               0.000574100               0.999999990               0.000269090               0.000597824               0.999999990               0.000279506               0.000620644               0.999999990               0.000142710               0.000421719               0.999999990               0.000127775               0.000368966               0.999999990               0.000123387               0.000359203               0.999999990               0.000125421               0.000367846               0.999999990               0.000131541               0.000386074               0.999999990               0.000140257               0.000409798               0.999999990               0.000150562               0.000436684               0.999999990               0.000161741               0.000465763               0.999999990               0.000173530               0.000496749               0.999999990               0.000185605               0.000528572               0.999999990               0.000197613               0.000560413               0.999999990               0.000209213               0.000591832               0.999999990               0.000220313               0.000622589               0.999999990               0.000230907               0.000652627               0.999999990               0.000241005               0.000682016               0.999999990               0.000250666               0.000710583               0.999999990               0.000259974               0.000738202               0.999999990               0.000131872               0.000480435               0.999999990               0.000106303               0.000423804               0.999999990               0.000100452               0.000415201               0.999999990               0.000103763               0.000426434               0.999999990               0.000111743               0.000447980               0.999999990               0.000122265               0.000475520               0.999999990               0.000134091               0.000506519               0.999999990               0.000146548               0.000540023               0.999999990               0.000159339               0.000575392               0.999999990               0.000171947               0.000611437               0.999999990               0.000183948               0.000647317               0.999999990               0.000195162               0.000682686               0.999999990               0.000205562               0.000717521               0.999999990               0.000215240               0.000751796               0.999999990               0.000224344               0.000785475               0.999999990               0.000233074               0.000818396               0.999999990               0.000241418               0.000850432               0.999999990               0.000120233               0.000533775               0.999999990               0.000084779               0.000476452               0.999999990               0.000079413               0.000468946               0.999999990               0.000084631               0.000482499               0.999999990               0.000094686               0.000507233               0.999999990               0.000107058               0.000538413               0.999999990               0.000120327               0.000573543               0.999999990               0.000133946               0.000611325               0.999999990               0.000147470               0.000650816               0.999999990               0.000160243               0.000690699               0.999999990               0.000171765               0.000730264               0.999999990               0.000182132               0.000769408               0.999999990               0.000191502               0.000808091               0.999999990               0.000200306               0.000846211               0.999999990               0.000208722               0.000883682               0.999999990               0.000216952               0.000920439               0.999999990               0.000224999               0.000956464               0.999999990               0.000108637               0.000583632               0.999999990               0.000067832               0.000532620               0.999999990               0.000060046               0.000520863               0.999999990               0.000063657               0.000529281               0.999999990               0.000072336               0.000549034               0.999999990               0.000083432               0.000575736               0.999999990               0.000095412               0.000606887               0.999999990               0.000107773               0.000641044               0.999999990               0.000120285               0.000677170               0.999999990               0.000132443               0.000714431               0.999999990               0.000143292               0.000751878               0.999999990               0.000152782               0.000789188               0.999999990               0.000161034               0.000826288               0.999999990               0.000168422               0.000863150               0.999999990               0.000175430               0.000899650               0.999999990               0.000182241               0.000935762               0.999999990               0.000189147               0.000971260               0.999999990               0.000095526               0.000628595               0.999999990               0.000053082               0.000586353               0.999999990               0.000042806               0.000573519               0.999999990               0.000044453               0.000578044               0.999999990               0.000051403               0.000593490               0.999999990               0.000060844               0.000616156               0.999999990               0.000071317               0.000643538               0.999999990               0.000082291               0.000674152               0.999999990               0.000093531               0.000707143               0.999999990               0.000104691               0.000741657               0.999999990               0.000114848               0.000776798               0.999999990               0.000123603               0.000812128               0.999999990               0.000130818               0.000847366               0.999999990               0.000136700               0.000882545               0.999999990               0.000141713               0.000917624               0.999999990               0.000146310               0.000952670               0.999999990               0.000151036               0.000987578               0.999999990               0.000081394               0.000667665               0.999999990               0.000040434               0.000636171               0.999999990               0.000028502               0.000624684               0.999999990               0.000028091               0.000627199               0.999999990               0.000032959               0.000639457               0.999999990               0.000040465               0.000658664               0.999999990               0.000049240               0.000682733               0.999999990               0.000058536               0.000710258               0.999999990               0.000068300               0.000740353               0.999999990               0.000078128               0.000772414               0.999999990               0.000087293               0.000805512               0.999999990               0.000095109               0.000839046               0.999999990               0.000101287               0.000872634               0.999999990               0.000105834               0.000906148               0.999999990               0.000108861               0.000939603               0.999999990               0.000110742               0.000973114               0.999999990               0.000112121               0.001006867               0.999999990               0.000066392               0.000700303               0.999999990               0.000029816               0.000680120               0.999999990               0.000017461               0.000671942               0.999999990               0.000015340               0.000674252               0.999999990               0.000018159               0.000684715               0.999999990               0.000023616               0.000701409               0.999999990               0.000030390               0.000722852               0.999999990               0.000037938               0.000747793               0.999999990               0.000045869               0.000775493               0.999999990               0.000053988               0.000805434               0.999999990               0.000061763               0.000836922               0.999999990               0.000068446               0.000869196               0.999999990               0.000073641               0.000901744               0.999999990               0.000076980               0.000934280               0.999999990               0.000078336               0.000966629               0.999999990               0.000077595               0.000998976               0.999999990               0.000074959               0.001031603               0.999999990               0.000050642               0.000726130               0.999999990               0.000020938               0.000716395               0.999999990               0.000009591               0.000712540               0.999999990               0.000006609               0.000716093               0.999999990               0.000007800               0.000726083               0.999999990               0.000011207               0.000741383               0.999999990               0.000016062               0.000761011               0.999999990               0.000021663               0.000784078               0.999999990               0.000027635               0.000809933               0.999999990               0.000033785               0.000838189               0.999999990               0.000039850               0.000868310               0.999999990               0.000045158               0.000899682               0.999999990               0.000049223               0.000931862               0.999999990               0.000051560               0.000964332               0.999999990               0.000051694               0.000996811               0.999999990               0.000049122               0.001029127               0.999999990               0.000043331               0.001061386               0.999999990               0.000034229               0.000744835               0.999999990               0.000013283               0.000743628               0.999999990               0.000004522               0.000743885               0.999999990               0.000001756               0.000749155               0.999999990               0.000001963               0.000759530               0.999999990               0.000003874               0.000774323               0.999999990               0.000006850               0.000793036               0.999999990               0.000010486               0.000815039               0.999999990               0.000014402               0.000839822               0.999999990               0.000018424               0.000866932               0.999999990               0.000022453               0.000896118               0.999999990               0.000026024               0.000926988               0.999999990               0.000028712               0.000959099               0.999999990               0.000030222               0.000991975               0.999999990               0.000029952               0.001025116               0.999999990               0.000027240               0.001058257               0.999999990               0.000021054               0.001091229               0.999999990               0.000017261               0.000756207               0.999999990               0.000006424               0.000760552               0.999999990               0.000001662               0.000763734               0.999999990              -0.000000002               0.000770357               0.999999990              -0.000000071               0.000781267               0.999999990               0.000000723               0.000796147               0.999999990               0.000002109               0.000814563               0.999999990               0.000003862               0.000836098               0.999999990               0.000005841               0.000860372               0.999999990               0.000007797               0.000887019               0.999999990               0.000009656               0.000915716               0.999999990               0.000011364               0.000946182               0.999999990               0.000012698               0.000978090               0.999999990               0.000013501               0.001010973               0.999999990               0.000013372               0.001044530               0.999999990               0.000011803               0.001078374               0.999999990               0.000008202               0.001112157               0.999999990              -0.000000000               0.000760021               0.999999990               0.000000000               0.000766262               0.999999990               0.000000000               0.000770525               0.999999990               0.000000000               0.000777667               0.999999990              -0.000000000               0.000788772               0.999999990              -0.000000000               0.000803735               0.999999990               0.000000000               0.000822119               0.999999990              -0.000000000               0.000843559               0.999999990              -0.000000000               0.000867758               0.999999990              -0.000000000               0.000894346               0.999999990              -0.000000000               0.000922871               0.999999990               0.000000000               0.000953105               0.999999990               0.000000000               0.000984787               0.999999990               0.000000000               0.001017579               0.999999990               0.000000000               0.001051165               0.999999990               0.000000000               0.001085209               0.999999990               0.000000000               0.001119382               0.999999990 </DataArray>
<DataArray type="Float64"                                    Name="defo"                                                      NumberOfComponents=" 3" format="ascii">
             -0.000174089               0.000000000               0.999999990              -0.000203945              -0.000000000               0.999999990              -0.000218108               0.000000000               0.999999990              -0.000226248               0.000000000               0.999999990              -0.000232305               0.000000000               0.999999990              -0.000238075               0.000000000               0.999999990              -0.000244369               0.000000000               0.999999990              -0.000251552              -0.000000000               0.999999990              -0.000259647               0.000000000               0.999999990              -0.000268792              -0.000000000               0.999999990              -0.000279007               0.000000000               0.999999990              -0.000290353               0.000000000               0.999999990              -0.000302845               0.000000000               0.999999990              -0.000316358               0.000000000               0.999999990              -0.000330729               0.000000000               0.999999990              -0.000345685               0.000000000               0.999999990              -0.000360975              -0.000000000               0.999999990              -0.000173289               0.000074903               0.999999990              -0.000201623               0.000064781               0.999999990              -0.000214832               0.000061355               0.999999990              -0.000222475               0.000061374               0.999999990              -0.000228280               0.000063523               0.999999990              -0.000233912               0.000066959               0.999999990              -0.000240178               0.000071368               0.999999990              -0.000247418               0.000076370               0.999999990              -0.000255696               0.000081685               0.999999990              -0.000265031               0.000087323               0.999999990              -0.000275416               0.000093369               0.999999990              -0.000286873               0.000099621               0.999999990              -0.000299338               0.000105819               0.999999990              -0.000312710               0.000111728               0.999999990              -0.000326832               0.000117106               0.999999990              -0.000341455               0.000121583               0.999999990              -0.000356283               0.000124827               0.999999990              -0.000170772               0.000149023               0.999999990              -0.000194555               0.000128847               0.999999990              -0.000205007               0.000122348               0.999999990              -0.000211111               0.000122858               0.999999990              -0.000216263               0.000127455               0.999999990              -0.000221821               0.000134673               0.999999990              -0.000228326               0.000143600               0.999999990              -0.000235858               0.000153639               0.999999990              -0.000244458               0.000164359               0.999999990              -0.000254107               0.000175749               0.999999990              -0.000264727               0.000187684               0.999999990              -0.000276274               0.000199793               0.999999990              -0.000288504               0.000211802               0.999999990              -0.000301277               0.000223254               0.999999990              -0.000314494               0.000233725               0.999999990              -0.000327939               0.000242688               0.999999990              -0.000341494               0.000249459               0.999999990              -0.000166374               0.000221549               0.999999990              -0.000182831               0.000191615               0.999999990              -0.000189346               0.000182804               0.999999990              -0.000193588               0.000184514               0.999999990              -0.000198155               0.000192130               0.999999990              -0.000203825               0.000203373               0.999999990              -0.000210730               0.000216978               0.999999990              -0.000218744               0.000232066               0.999999990              -0.000227775               0.000248204               0.999999990              -0.000237838               0.000265136               0.999999990              -0.000248740               0.000282639               0.999999990              -0.000260260               0.000300313               0.999999990              -0.000272187               0.000317561               0.999999990              -0.000284320               0.000333982               0.999999990              -0.000296485               0.000349270               0.999999990              -0.000308671               0.000362910               0.999999990              -0.000320951               0.000374544               0.999999990              -0.000160085               0.000291676               0.999999990              -0.000167135               0.000252696               0.999999990              -0.000169439               0.000242575               0.999999990              -0.000172166               0.000246110               0.999999990              -0.000176550               0.000257195               0.999999990              -0.000182671               0.000272720               0.999999990              -0.000190240               0.000290966               0.999999990              -0.000199013               0.000310978               0.999999990              -0.000208787               0.000332269               0.999999990              -0.000219471               0.000354481               0.999999990              -0.000230729               0.000377270               0.999999990              -0.000242245               0.000399925               0.999999990              -0.000253930               0.000421938               0.999999990              -0.000265543               0.000442994               0.999999990              -0.000277020               0.000462966               0.999999990              -0.000288389               0.000481589               0.999999990              -0.000299711               0.000498880               0.999999990              -0.000152163               0.000358608               0.999999990              -0.000148448               0.000311860               0.999999990              -0.000146892               0.000301498               0.999999990              -0.000148774               0.000307443               0.999999990              -0.000153600               0.000322165               0.999999990              -0.000160687               0.000341926               0.999999990              -0.000169468               0.000364620               0.999999990              -0.000179406               0.000389216               0.999999990              -0.000190185               0.000415407               0.999999990              -0.000201551               0.000442657               0.999999990              -0.000213197               0.000470187               0.999999990              -0.000224872               0.000497378               0.999999990              -0.000236361               0.000523814               0.999999990              -0.000247537               0.000549360               0.999999990              -0.000258452               0.000574100               0.999999990              -0.000269090               0.000597824               0.999999990              -0.000279506               0.000620644               0.999999990              -0.000142710               0.000421719               0.999999990              -0.000127775               0.000368966               0.999999990              -0.000123387               0.000359203               0.999999990              -0.000125421               0.000367846               0.999999990              -0.000131541               0.000386074               0.999999990              -0.000140257               0.000409798               0.999999990              -0.000150562               0.000436684               0.999999990              -0.000161741               0.000465763               0.999999990              -0.000173530               0.000496749               0.999999990              -0.000185605               0.000528572               0.999999990              -0.000197613               0.000560413               0.999999990              -0.000209213               0.000591832               0.999999990              -0.000220313               0.000622589               0.999999990              -0.000230907               0.000652627               0.999999990              -0.000241005               0.000682016               0.999999990              -0.000250666               0.000710583               0.999999990              -0.000259974               0.000738202               0.999999990              -0.000131872               0.000480435               0.999999990              -0.000106303               0.000423804               0.999999990              -0.000100452               0.000415201               0.999999990              -0.000103763               0.000426434               0.999999990              -0.000111743               0.000447980               0.999999990              -0.000122265               0.000475520               0.999999990              -0.000134091               0.000506519               0.999999990              -0.000146548               0.000540023               0.999999990              -0.000159339               0.000575392               0.999999990              -0.000171947               0.000611437               0.999999990              -0.000183948               0.000647317               0.999999990              -0.000195162               0.000682686               0.999999990              -0.000205562               0.000717521               0.999999990              -0.000215240               0.000751796               0.999999990              -0.000224344               0.000785475               0.999999990              -0.000233074               0.000818396               0.999999990              -0.000241418               0.000850432               0.999999990              -0.000120233               0.000533775               0.999999990              -0.000084779               0.000476452               0.999999990              -0.000079413               0.000468946               0.999999990              -0.000084631               0.000482499               0.999999990              -0.000094686               0.000507233               0.999999990              -0.000107058               0.000538413               0.999999990              -0.000120327               0.000573543               0.999999990              -0.000133946               0.000611325               0.999999990              -0.000147470               0.000650816               0.999999990              -0.000160243               0.000690699               0.999999990              -0.000171765               0.000730264               0.999999990              -0.000182132               0.000769408               0.999999990              -0.000191502               0.000808091               0.999999990              -0.000200306               0.000846211               0.999999990              -0.000208722               0.000883682               0.999999990              -0.000216952               0.000920439               0.999999990              -0.000224999               0.000956464               0.999999990              -0.000108637               0.000583632               0.999999990              -0.000067832               0.000532620               0.999999990              -0.000060046               0.000520863               0.999999990              -0.000063657               0.000529281               0.999999990              -0.000072336               0.000549034               0.999999990              -0.000083432               0.000575736               0.999999990              -0.000095412               0.000606887               0.999999990              -0.000107773               0.000641044               0.999999990              -0.000120285               0.000677170               0.999999990              -0.000132443               0.000714431               0.999999990              -0.000143292               0.000751878               0.999999990              -0.000152782               0.000789188               0.999999990              -0.000161034               0.000826288               0.999999990              -0.000168422               0.000863150               0.999999990              -0.000175430               0.000899650               0.999999990              -0.000182241               0.000935762               0.999999990              -0.000189147               0.000971260               0.999999990              -0.000095526               0.000628595               0.999999990              -0.000053082               0.000586353               0.999999990              -0.000042806               0.000573519               0.999999990              -0.000044453               0.000578044               0.999999990              -0.000051403               0.000593490               0.999999990              -0.000060844               0.000616156               0.999999990              -0.000071317               0.000643538               0.999999990              -0.000082291               0.000674152               0.999999990              -0.000093531               0.000707143               0.999999990              -0.000104691               0.000741657               0.999999990              -0.000114848               0.000776798               0.999999990              -0.000123603               0.000812128               0.999999990              -0.000130818               0.000847366               0.999999990              -0.000136700               0.000882545               0.999999990              -0.000141713               0.000917624               0.999999990              -0.000146310               0.000952670               0.999999990              -0.000151036               0.000987578               0.999999990              -0.000081394               0.000667665               0.999999990              -0.000040434               0.000636171               0.999999990              -0.000028502               0.000624684               0.999999990              -0.000028091               0.000627199               0.999999990              -0.000032959               0.000639457               0.999999990              -0.000040465               0.000658664               0.999999990              -0.000049240               0.000682733               0.999999990              -0.000058536               0.000710258               0.999999990              -0.000068300               0.000740353               0.999999990              -0.000078128               0.000772414               0.999999990              -0.000087293               0.000805512               0.999999990              -0.000095109               0.000839046               0.999999990              -0.000101287               0.000872634               0.999999990              -0.000105834               0.000906148               0.999999990              -0.000108861               0.000939603               0.999999990              -0.000110742               0.000973114               0.999999990              -0.000112121               0.001006867               0.999999990              -0.000066392               0.000700303               0.999999990              -0.000029816               0.000680120               0.999999990              -0.000017461               0.000671942               0.999999990              -0.000015340               0.000674252               0.999999990              -0.000018159               0.000684715               0.999999990              -0.000023616               0.000701409               0.999999990              -0.000030390               0.000722852               0.999999990              -0.000037938               0.000747793               0.999999990              -0.000045869               0.000775493               0.999999990              -0.000053988               0.000805434               0.999999990              -0.000061763               0.000836922               0.999999990              -0.000068446               0.000869196               0.999999990              -0.000073641               0.000901744               0.999999990              -0.000076980               0.000934280               0.999999990              -0.000078336               0.000966629               0.999999990              -0.000077595               0.000998976               0.999999990              -0.000074959               0.001031603               0.999999990              -0.000050642               0.000726130               0.999999990              -0.000020938               0.000716395               0.999999990              -0.000009591               0.000712540               0.999999990              -0.000006609               0.000716093               0.999999990              -0.000007800               0.000726083               0.999999990              -0.000011207               0.000741383               0.999999990              -0.000016062               0.000761011               0.999999990              -0.000021663               0.000784078               0.999999990              -0.000027635               0.000809933               0.999999990              -0.000033785               0.000838189               0.999999990              -0.000039850               0.000868310               0.999999990              -0.000045158               0.000899682               0.999999990              -0.000049223               0.000931862               0.999999990              -0.000051560               0.000964332               0.999999990              -0.000051694               0.000996811               0.999999990              -0.000049122               0.001029127               0.999999990              -0.000043331               0.001061386               0.999999990              -0.000034229               0.000744835               0.999999990              -0.000013283               0.000743628               0.999999990              -0.000004522               0.000743885               0.999999990              -0.000001756               0.000749155               0.999999990              -0.000001963               0.000759530               0.999999990              -0.000003874               0.000774323               0.999999990              -0.000006850               0.000793036               0.999999990              -0.000010486               0.000815039               0.999999990              -0.000014402               0.000839822               0.999999990              -0.000018424               0.000866932               0.999999990              -0.000022453               0.000896118               0.999999990              -0.000026024               0.000926988               0.999999990              -0.000028712               0.000959099               0.999999990              -0.000030222               0.000991975               0.999999990              -0.000029952               0.001025116               0.999999990              -0.000027240               0.001058257               0.999999990              -0.000021054               0.001091229               0.999999990              -0.000017261               0.000756207               0.999999990              -0.000006424               0.000760552               0.999999990              -0.000001662               0.000763734               0.999999990               0.000000002               0.000770357               0.999999990               0.000000071               0.000781267               0.999999990              -0.000000723               0.000796147               0.999999990              -0.000002109               0.000814563               0.999999990              -0.000003862               0.000836098               0.999999990              -0.000005841               0.000860372               0.999999990              -0.000007797               0.000887019               0.999999990              -0.000009656               0.000915716               0.999999990              -0.000011364               0.000946182               0.999999990              -0.000012698               0.000978090               0.999999990              -0.000013501               0.001010973               0.999999990              -0.000013372               0.001044530               0.999999990              -0.000011803               0.001078374               0.999999990              -0.000008202               0.001112157               0.999999990              -0.000000000               0.000760021               0.999999990               0.000000000               0.000766262               0.999999990               0.000000000               0.000770525               0.999999990               0.000000000               0.000777667               0.999999990              -0.000000000               0.000788772               0.999999990              -0.000000000               0.000803735               0.999999990               0.000000000               0.000822119               0.999999990              -0.000000000               0.000843559               0.999999990              -0.000000000               0.000867758               0.999999990              -0.000000000               0.000894346               0.999999990              -0.000000000               0.000922871               0.999999990               0.000000000               0.000953105               0.999999990               0.000000000               0.000984787               0.999999990               0.000000000               0.001017579               0.999999990               0.000000000               0.001051165               0.999999990               0.000000000               0.001085209               0.999999990               0.000000000               0.001119382               0.999999990              -0.000174089               0.000000000               0.999999990              -0.000203945              -0.000000000               0.999999990              -0.000218108               0.000000000               0.999999990              -0.000226248               0.000000000               0.999999990              -0.000232305               0.000000000               0.999999990              -0.000238075               0.000000000               0.999999990              -0.000244369               0.000000000               0.999999990              -0.000251552              -0.000000000               0.999999990              -0.000259647               0.000000000               0.999999990              -0.000268792              -0.000000000               0.999999990              -0.000279007               0.000000000               0.999999990              -0.000290353               0.000000000               0.999999990              -0.000302845               0.000000000               0.999999990              -0.000316358               0.000000000               0.999999990              -0.000330729               0.000000000               0.999999990              -0.000345685               0.000000000               0.999999990              -0.000360975              -0.000000000               0.999999990              -0.000173289              -0.000074903               0.999999990              -0.000201623              -0.000064781               0.999999990              -0.000214832              -0.000061355               0.999999990              -0.000222475              -0.000061374               0.999999990              -0.000228280              -0.000063523               0.999999990              -0.000233912              -0.000066959               0.999999990              -0.000240178              -0.000071368               0.999999990              -0.000247418              -0.000076370               0.999999990              -0.000255696              -0.000081685               0.999999990              -0.000265031              -0.000087323               0.999999990              -0.000275416              -0.000093369               0.999999990              -0.000286873              -0.000099621               0.999999990              -0.000299338              -0.000105819               0.999999990              -0.000312710              -0.000111728               0.999999990              -0.000326832              -0.000117106               0.999999990              -0.000341455              -0.000121583               0.999999990              -0.000356283              -0.000124827               0.999999990              -0.000170772              -0.000149023               0.999999990              -0.000194555              -0.000128847               0.999999990              -0.000205007              -0.000122348               0.999999990              -0.000211111              -0.000122858               0.999999990              -0.000216263              -0.000127455               0.999999990              -0.000221821              -0.000134673               0.999999990              -0.000228326              -0.000143600               0.999999990              -0.000235858              -0.000153639               0.999999990              -0.000244458              -0.000164359               0.999999990              -0.000254107              -0.000175749               0.999999990              -0.000264727              -0.000187684               0.999999990              -0.000276274              -0.000199793               0.999999990              -0.000288504              -0.000211802               0.999999990              -0.000301277              -0.000223254               0.999999990              -0.000314494              -0.000233725               0.999999990              -0.000327939              -0.000242688               0.999999990              -0.000341494              -0.000249459               0.999999990              -0.000166374              -0.000221549               0.999999990              -0.000182831              -0.000191615               0.999999990              -0.000189346              -0.000182804               0.999999990              -0.000193588              -0.000184514               0.999999990              -0.000198155              -0.000192130               0.999999990              -0.000203825              -0.000203373               0.999999990              -0.000210730              -0.000216978               0.999999990              -0.000218744              -0.000232066               0.999999990              -0.000227775              -0.000248204               0.999999990              -0.000237838              -0.000265136               0.999999990              -0.000248740              -0.000282639               0.999999990              -0.000260260              -0.000300313               0.999999990              -0.000272187              -0.000317561               0.999999990              -0.000284320              -0.000333982               0.999999990              -0.000296485              -0.000349270               0.999999990              -0.000308671              -0.000362910               0.999999990              -0.000320951              -0.000374544               0.999999990              -0.000160085              -0.000291676               0.999999990              -0.000167135              -0.000252696               0.999999990              -0.000169439              -0.000242575               0.999999990              -0.000172166              -0.000246110               0.999999990              -0.000176550              -0.000257195               0.999999990              -0.000182671              -0.000272720               0.999999990              -0.000190240              -0.000290966               0.999999990              -0.000199013              -0.000310978               0.999999990              -0.000208787              -0.000332269               0.999999990              -0.000219471              -0.000354481               0.999999990              -0.000230729              -0.000377270               0.999999990              -0.000242245              -0.000399925               0.999999990              -0.000253930              -0.000421938               0.999999990              -0.000265543              -0.000442994               0.999999990              -0.000277020              -0.000462966               0.999999990              -0.000288389              -0.000481589               0.999999990              -0.000299711              -0.000498880               0.999999990              -0.000152163              -0.000358608               0.999999990              -0.000148448              -0.000311860               0.999999990              -0.000146892              -0.000301498               0.999999990              -0.000148774              -0.000307443               0.999999990              -0.000153600              -0.000322165               0.999999990              -0.000160687              -0.000341926               0.999999990              -0.000169468              -0.000364620               0.999999990              -0.000179406              -0.000389216               0.999999990              -0.000190185              -0.000415407               0.999999990              -0.000201551              -0.000442657               0.999999990              -0.000213197              -0.000470187               0.999999990              -0.000224872              -0.000497378               0.999999990              -0.000236361              -0.000523814               0.999999990              -0.000247537              -0.000549360               0.999999990              -0.000258452              -0.000574100               0.999999990              -0.000269090              -0.000597824               0.999999990              -0.000279506              -0.000620644               0.999999990              -0.000142710              -0.000421719               0.999999990              -0.000127775              -0.000368966               0.999999990              -0.000123387              -0.000359203               0.999999990              -0.000125421              -0.000367846               0.999999990              -0.000131541              -0.000386074               0.999999990              -0.000140257              -0.000409798               0.999999990              -0.000150562              -0.000436684               0.999999990              -0.000161741              -0.000465763               0.999999990              -0.000173530              -0.000496749               0.999999990              -0.000185605              -0.000528572               0.999999990              -0.000197613              -0.000560413               0.999999990              -0.000209213              -0.000591832               0.999999990              -0.000220313              -0.000622589               0.999999990              -0.000230907              -0.000652627               0.999999990              -0.000241005              -0.000682016               0.999999990              -0.000250666              -0.000710583               0.999999990              -0.000259974              -0.000738202               0.999999990              -0.000131872              -0.000480435               0.999999990              -0.000106303              -0.000423804               0.999999990              -0.000100452              -0.000415201               0.999999990              -0.000103763              -0.000426434               0.999999990              -0.000111743              -0.000447980               0.999999990              -0.000122265              -0.000475520               0.999999990              -0.000134091              -0.000506519               0.999999990              -0.000146548              -0.000540023               0.999999990              -0.000159339              -0.000575392               0.999999990              -0.000171947              -0.000611437               0.999999990              -0.000183948              -0.000647317               0.999999990              -0.000195162              -0.000682686               0.999999990              -0.000205562              -0.000717521               0.999999990              -0.000215240              -0.000751796               0.999999990              -0.000224344              -0.000785475               0.999999990              -0.000233074              -0.000818396               0.999999990              -0.000241418              -0.000850432               0.999999990              -0.000120233              -0.000533775               0.999999990              -0.000084779              -0.000476452               0.999999990              -0.000079413              -0.000468946               0.999999990              -0.000084631              -0.000482499               0.999999990              -0.000094686              -0.000507233               0.999999990              -0.000107058              -0.000538413               0.999999990              -0.000120327              -0.000573543               0.999999990              -0.000133946              -0.000611325               0.999999990              -0.000147470              -0.000650816               0.999999990              -0.000160243              -0.000690699               0.999999990              -0.000171765              -0.000730264               0.999999990              -0.000182132              -0.000769408               0.999999990              -0.000191502              -0.000808091               0.999999990              -0.000200306              -0.000846211               0.999999990              -0.000208722              -0.000883682               0.999999990              -0.000216952              -0.000920439               0.999999990              -0.000224999              -0.000956464               0.999999990              -0.000108637              -0.000583632               0.999999990              -0.000067832              -0.000532620               0.999999990              -0.000060046              -0.000520863               0.999999990              -0.000063657              -0.000529281               0.999999990              -0.000072336              -0.000549034               0.999999990              -0.000083432              -0.000575736               0.999999990              -0.000095412              -0.000606887               0.999999990              -0.000107773              -0.000641044               0.999999990              -0.000120285              -0.000677170               0.999999990              -0.000132443              -0.000714431               0.999999990              -0.000143292              -0.000751878               0.999999990              -0.000152782              -0.000789188               0.999999990              -0.000161034              -0.000826288               0.999999990              -0.000168422              -0.000863150               0.999999990              -0.000175430              -0.000899650               0.999999990              -0.000182241              -0.000935762               0.999999990              -0.000189147              -0.000971260               0.999999990              -0.000095526              -0.000628595               0.999999990              -0.000053082              -0.000586353               0.999999990              -0.000042806              -0.000573519               0.999999990              -0.000044453              -0.000578044               0.999999990              -0.000051403              -0.000593490               0.999999990              -0.000060844              -0.000616156               0.999999990              -0.000071317              -0.000643538               0.999999990              -0.000082291              -0.000674152               0.999999990              -0.000093531              -0.000707143               0.999999990              -0.000104691              -0.000741657               0.999999990              -0.000114848              -0.000776798               0.999999990              -0.000123603              -0.000812128               0.999999990              -0.000130818              -0.000847366               0.999999990              -0.000136700              -0.000882545               0.999999990              -0.000141713              -0.000917624               0.999999990              -0.000146310              -0.000952670               0.999999990              -0.000151036              -0.000987578               0.999999990              -0.000081394              -0.000667665               0.999999990              -0.000040434              -0.000636171               0.999999990              -0.000028502              -0.000624684               0.999999990              -0.000028091              -0.000627199               0.999999990              -0.000032959              -0.000639457               0.999999990              -0.000040465              -0.000658664               0.999999990              -0.000049240              -0.000682733               0.999999990              -0.000058536              -0.000710258               0.999999990              -0.000068300              -0.000740353               0.999999990              -0.000078128              -0.000772414               0.999999990              -0.000087293              -0.000805512               0.999999990              -0.000095109              -0.000839046               0.999999990              -0.000101287              -0.000872634               0.999999990              -0.000105834              -0.000906148               0.999999990              -0.000108861              -0.000939603               0.999999990              -0.000110742              -0.000973114               0.999999990              -0.000112121              -0.001006867               0.999999990              -0.000066392              -0.000700303               0.999999990              -0.000029816              -0.000680120               0.999999990              -0.000017461              -0.000671942               0.999999990              -0.000015340              -0.000674252               0.999999990              -0.000018159              -0.000684715               0.999999990              -0.000023616              -0.000701409               0.999999990              -0.000030390              -0.000722852               0.999999990              -0.000037938              -0.000747793               0.999999990              -0.000045869              -0.000775493               0.999999990              -0.000053988              -0.000805434               0.999999990              -0.000061763              -0.000836922               0.999999990              -0.000068446              -0.000869196               0.999999990              -0.000073641              -0.000901744               0.999999990              -0.000076980              -0.000934280               0.999999990              -0.000078336              -0.000966629               0.999999990              -0.000077595              -0.000998976               0.999999990              -0.000074959              -0.001031603               0.999999990              -0.000050642              -0.000726130               0.999999990              -0.000020938              -0.000716395               0.999999990              -0.000009591              -0.000712540               0.999999990              -0.000006609              -0.000716093               0.999999990              -0.000007800              -0.000726083               0.999999990              -0.000011207              -0.000741383               0.999999990              -0.000016062              -0.000761011               0.999999990              -0.000021663              -0.000784078               0.999999990              -0.000027635              -0.000809933               0.999999990              -0.000033785              -0.000838189               0.999999990              -0.000039850              -0.000868310               0.999999990              -0.000045158              -0.000899682               0.999999990              -0.000049223              -0.000931862               0.999999990              -0.000051560              -0.000964332               0.999999990              -0.000051694              -0.000996811               0.999999990              -0.000049122              -0.001029127               0.999999990              -0.000043331              -0.001061386               0.999999990              -0.000034229              -0.000744835               0.999999990              -0.000013283              -0.000743628               0.999999990              -0.000004522              -0.000743885               0.999999990              -0.000001756              -0.000749155               0.999999990              -0.000001963              -0.000759530               0.999999990              -0.000003874              -0.000774323               0.999999990              -0.000006850              -0.000793036               0.999999990              -0.000010486              -0.000815039               0.999999990              -0.000014402              -0.000839822               0.999999990              -0.000018424              -0.000866932               0.999999990              -0.000022453              -0.000896118               0.999999990              -0.000026024              -0.000926988               0.999999990              -0.000028712              -0.000959099               0.999999990              -0.000030222              -0.000991975               0.999999990              -0.000029952              -0.001025116               0.999999990              -0.000027240              -0.001058257               0.999999990              -0.000021054              -0.001091229               0.999999990              -0.000017261              -0.000756207               0.999999990              -0.000006424              -0.000760552               0.999999990              -0.000001662              -0.000763734               0.999999990               0.000000002              -0.000770357               0.999999990               0.000000071              -0.000781267               0.999999990              -0.000000723              -0.000796147               0.999999990              -0.000002109              -0.000814563               0.999999990              -0.000003862              -0.000836098               0.999999990              -0.000005841              -0.000860372               0.999999990              -0.000007797              -0.000887019               0.999999990              -0.000009656              -0.000915716               0.999999990              -0.000011364              -0.000946182               0.999999990              -0.000012698              -0.000978090               0.999999990              -0.000013501              -0.001010973               0.999999990              -0.000013372              -0.001044530               0.999999990              -0.000011803              -0.001078374               0.999999990              -0.000008202              -0.001112157               0.999999990              -0.000000000              -0.000760021               0.999999990               0.000000000              -0.000766262               0.999999990               0.000000000              -0.000770525               0.999999990              -0.000000000              -0.000777667               0.999999990              -0.000000000              -0.000788772               0.999999990               0.000000000              -0.000803735               0.999999990              -0.000000000              -0.000822119               0.999999990              -0.000000000              -0.000843559               0.999999990              -0.000000000              -0.000867758               0.999999990              -0.000000000              -0.000894346               0.999999990               0.000000000              -0.000922871               0.999999990              -0.000000000              -0.000953105               0.999999990              -0.000000000              -0.000984787               0.999999990               0.000000000              -0.001017579               0.999999990              -0.000000000              -0.001051165               0.999999990              -0.000000000              -0.001085209               0.999999990               0.000000000              -0.001119382               0.999999990               0.000174089              -0.000000000               0.999999990               0.000203945              -0.000000000               0.999999990               0.000218108              -0.000000000               0.999999990               0.000226248              -0.000000000               0.999999990               0.000232305               0.000000000               0.999999990               0.000238075               0.000000000               0.999999990               0.000244369               0.000000000               0.999999990               0.000251552              -0.000000000               0.999999990               0.000259647               0.000000000               0.999999990               0.000268792              -0.000000000               0.999999990               0.000279007               0.000000000               0.999999990               0.000290353              -0.000000000               0.999999990               0.000302845               0.000000000               0.999999990               0.000316358              -0.000000000               0.999999990               0.000330729               0.000000000               0.999999990               0.000345685               0.000000000               0.999999990               0.000360975              -0.000000000               0.999999990               0.000173289              -0.000074903               0.999999990               0.000201623              -0.000064781               0.999999990               0.000214832              -0.000061355               0.999999990               0.000222475              -0.000061374               0.999999990               0.000228280              -0.000063523               0.999999990               0.000233912              -0.000066959               0.999999990               0.000240178              -0.000071368               0.999999990               0.000247418              -0.000076370               0.999999990               0.000255696              -0.000081685               0.999999990               0.000265031              -0.000087323               0.999999990               0.000275416              -0.000093369               0.999999990               0.000286873              -0.000099621               0.999999990               0.000299338              -0.000105819               0.999999990               0.000312710              -0.000111728               0.999999990               0.000326832              -0.000117106               0.999999990               0.000341455              -0.000121583               0.999999990               0.000356283              -0.000124827               0.999999990               0.000170772              -0.000149023               0.999999990               0.000194555              -0.000128847               0.999999990               0.000205007              -0.000122348               0.999999990               0.000211111              -0.000122858               0.999999990               0.000216263              -0.000127455               0.999999990               0.000221821              -0.000134673               0.999999990               0.000228326              -0.000143600               0.999999990               0.000235858              -0.000153639               0.999999990               0.000244458              -0.000164359               0.999999990               0.000254107              -0.000175749               0.999999990               0.000264727              -0.000187684               0.999999990               0.000276274              -0.000199793               0.999999990               0.000288504              -0.000211802               0.999999990               0.000301277              -0.000223254               0.999999990               0.000314494              -0.000233725               0.999999990               0.000327939              -0.000242688               0.999999990               0.000341494              -0.000249459               0.999999990               0.000166374              -0.000221549               0.999999990               0.000182831              -0.000191615               0.999999990               0.000189346              -0.000182804               0.999999990               0.000193588              -0.000184514               0.999999990               0.000198155              -0.000192130               0.999999990               0.000203825              -0.000203373               0.999999990               0.000210730              -0.000216978               0.999999990               0.000218744              -0.000232066               0.999999990               0.000227775              -0.000248204               0.999999990               0.000237838              -0.000265136               0.999999990               0.000248740              -0.000282639               0.999999990               0.000260260              -0.000300313               0.999999990               0.000272187              -0.000317561               0.999999990               0.000284320              -0.000333982               0.999999990               0.000296485              -0.000349270               0.999999990               0.000308671              -0.000362910               0.999999990               0.000320951              -0.000374544               0.999999990               0.000160085              -0.000291676               0.999999990               0.000167135              -0.000252696               0.999999990               0.000169439              -0.000242575               0.999999990               0.000172166              -0.000246110               0.999999990               0.000176550              -0.000257195               0.999999990               0.000182671              -0.000272720               0.999999990               0.000190240              -0.000290966               0.999999990               0.000199013              -0.000310978               0.999999990               0.000208787              -0.000332269               0.999999990               0.000219471              -0.000354481               0.999999990               0.000230729              -0.000377270               0.999999990               0.000242245              -0.000399925               0.999999990               0.000253930              -0.000421938               0.999999990               0.000265543              -0.000442994               0.999999990               0.000277020              -0.000462966               0.999999990               0.000288389              -0.000481589               0.999999990               0.000299711              -0.000498880               0.999999990               0.000152163              -0.000358608               0.999999990               0.000148448              -0.000311860               0.999999990               0.000146892              -0.000301498               0.999999990               0.000148774              -0.000307443               0.999999990               0.000153600              -0.000322165               0.999999990               0.000160687              -0.000341926               0.999999990               0.000169468              -0.000364620               0.999999990               0.000179406              -0.000389216               0.999999990               0.000190185              -0.000415407               0.999999990               0.000201551              -0.000442657               0.999999990               0.000213197              -0.000470187               0.999999990               0.000224872              -0.000497378               0.999999990               0.000236361              -0.000523814               0.999999990               0.000247537              -0.000549360               0.999999990               0.000258452              -0.000574100               0.999999990               0.000269090              -0.000597824               0.999999990               0.000279506              -0.000620644               0.999999990               0.000142710              -0.000421719               0.999999990               0.000127775              -0.000368966               0.999999990               0.000123387              -0.000359203               0.999999990               0.000125421              -0.000367846               0.999999990               0.000131541              -0.000386074               0.999999990               0.000140257              -0.000409798               0.999999990               0.000150562              -0.000436684               0.999999990               0.000161741              -0.000465763               0.999999990               0.000173530              -0.000496749               0.999999990               0.000185605              -0.000528572               0.999999990               0.000197613              -0.000560413               0.999999990               0.000209213              -0.000591832               0.999999990               0.000220313              -0.000622589               0.999999990               0.000230907              -0.000652627               0.999999990               0.000241005              -0.000682016               0.999999990               0.000250666              -0.000710583               0.999999990               0.000259974              -0.000738202               0.999999990               0.000131872              -0.000480435               0.999999990               0.000106303              -0.000423804               0.999999990               0.000100452              -0.000415201               0.999999990               0.000103763              -0.000426434               0.999999990               0.000111743              -0.000447980               0.999999990               0.000122265              -0.000475520               0.999999990               0.000134091              -0.000506519               0.999999990               0.000146548              -0.000540023               0.999999990               0.000159339              -0.000575392               0.999999990               0.000171947              -0.000611437               0.999999990               0.000183948              -0.000647317               0.999999990               0.000195162              -0.000682686               0.999999990               0.000205562              -0.000717521               0.999999990               0.000215240              -0.000751796               0.999999990               0.000224344              -0.000785475               0.999999990               0.000233074              -0.000818396               0.999999990               0.000241418              -0.000850432               0.999999990               0.000120233              -0.000533775               0.999999990               0.000084779              -0.000476452               0.999999990               0.000079413              -0.000468946               0.999999990               0.000084631              -0.000482499               0.999999990               0.000094686              -0.000507233               0.999999990               0.000107058              -0.000538413               0.999999990               0.000120327              -0.000573543               0.999999990               0.000133946              -0.000611325               0.999999990               0.000147470              -0.000650816               0.999999990               0.000160243              -0.000690699               0.999999990               0.000171765              -0.000730264               0.999999990               0.000182132              -0.000769408               0.999999990               0.000191502              -0.000808091               0.999999990               0.000200306              -0.000846211               0.999999990               0.000208722              -0.000883682               0.999999990               0.000216952              -0.000920439               0.999999990               0.000224999              -0.000956464               0.999999990               0.000108637              -0.000583632               0.999999990               0.000067832              -0.000532620               0.999999990               0.000060046              -0.000520863               0.999999990               0.000063657              -0.000529281               0.999999990               0.000072336              -0.000549034               0.999999990               0.000083432              -0.000575736               0.999999990               0.000095412              -0.000606887               0.999999990               0.000107773              -0.000641044               0.999999990               0.000120285              -0.000677170               0.999999990               0.000132443              -0.000714431               0.999999990               0.000143292              -0.000751878               0.999999990               0.000152782              -0.000789188               0.999999990               0.000161034              -0.000826288               0.999999990               0.000168422              -0.000863150               0.999999990               0.000175430              -0.000899650               0.999999990               0.000182241              -0.000935762               0.999999990               0.000189147              -0.000971260               0.999999990               0.000095526              -0.000628595               0.999999990               0.000053082              -0.000586353               0.999999990               0.000042806              -0.000573519               0.999999990               0.000044453              -0.000578044               0.999999990               0.000051403              -0.000593490               0.999999990               0.000060844              -0.000616156               0.999999990               0.000071317              -0.000643538               0.999999990               0.000082291              -0.000674152               0.999999990               0.000093531              -0.000707143               0.999999990               0.000104691              -0.000741657               0.999999990               0.000114848              -0.000776798               0.999999990               0.000123603              -0.000812128               0.999999990               0.000130818              -0.000847366               0.999999990               0.000136700              -0.000882545               0.999999990               0.000141713              -0.000917624               0.999999990               0.000146310              -0.000952670               0.999999990               0.000151036              -0.000987578               0.999999990               0.000081394              -0.000667665               0.999999990               0.000040434              -0.000636171               0.999999990               0.000028502              -0.000624684               0.999999990               0.000028091              -0.000627199               0.999999990               0.000032959              -0.000639457               0.999999990               0.000040465              -0.000658664               0.999999990               0.000049240              -0.000682733               0.999999990               0.000058536              -0.000710258               0.999999990               0.000068300              -0.000740353               0.999999990               0.000078128              -0.000772414               0.999999990               0.000087293              -0.000805512               0.999999990               0.000095109              -0.000839046               0.999999990               0.000101287              -0.000872634               0.999999990               0.000105834              -0.000906148               0.999999990               0.000108861              -0.000939603               0.999999990               0.000110742              -0.000973114               0.999999990               0.000112121              -0.001006867               0.999999990               0.000066392              -0.000700303               0.999999990               0.000029816              -0.000680120               0.999999990               0.000017461              -0.000671942               0.999999990               0.000015340              -0.000674252               0.999999990               0.000018159              -0.000684715               0.999999990               0.000023616              -0.000701409               0.999999990               0.000030390              -0.000722852               0.999999990               0.000037938              -0.000747793               0.999999990               0.000045869              -0.000775493               0.999999990               0.000053988              -0.000805434               0.999999990               0.000061763              -0.000836922               0.999999990               0.000068446              -0.000869196               0.999999990               0.000073641              -0.000901744               0.999999990               0.000076980              -0.000934280               0.999999990               0.000078336              -0.000966629               0.999999990               0.000077595              -0.000998976               0.999999990               0.000074959              -0.001031603               0.999999990               0.000050642              -0.000726130               0.999999990               0.000020938              -0.000716395               0.999999990               0.000009591              -0.000712540               0.999999990               0.000006609              -0.000716093               0.999999990               0.000007800              -0.000726083               0.999999990               0.000011207              -0.000741383               0.999999990               0.000016062              -0.000761011               0.999999990               0.000021663              -0.000784078               0.999999990               0.000027635              -0.000809933               0.999999990               0.000033785              -0.000838189               0.999999990               0.000039850              -0.000868310               0.999999990               0.000045158              -0.000899682               0.999999990               0.000049223              -0.000931862               0.999999990               0.000051560              -0.000964332               0.999999990               0.000051694              -0.000996811               0.999999990               0.000049122              -0.001029127               0.999999990               0.000043331              -0.001061386               0.999999990               0.000034229              -0.000744835               0.999999990               0.000013283              -0.000743628               0.999999990               0.000004522              -0.000743885               0.999999990               0.000001756              -0.000749155               0.999999990               0.000001963              -0.000759530               0.999999990               0.000003874              -0.000774323               0.999999990               0.000006850              -0.000793036               0.999999990               0.000010486              -0.000815039               0.999999990               0.000014402              -0.000839822               0.999999990               0.000018424              -0.000866932               0.999999990               0.000022453              -0.000896118               0.999999990               0.000026024              -0.000926988               0.999999990               0.000028712              -0.000959099               0.999999990               0.000030222              -0.000991975               0.999999990               0.000029952              -0.001025116               0.999999990               0.000027240              -0.001058257               0.999999990               0.000021054              -0.001091229               0.999999990               0.000017261              -0.000756207               0.999999990               0.000006424              -0.000760552               0.999999990               0.000001662              -0.000763734               0.999999990              -0.000000002              -0.000770357               0.999999990              -0.000000071              -0.000781267               0.999999990               0.000000723              -0.000796147               0.999999990               0.000002109              -0.000814563               0.999999990               0.000003862              -0.000836098               0.999999990               0.000005841              -0.000860372               0.999999990               0.000007797              -0.000887019               0.999999990               0.000009656              -0.000915716               0.999999990               0.000011364              -0.000946182               0.999999990               0.000012698              -0.000978090               0.999999990               0.000013501              -0.001010973               0.999999990               0.000013372              -0.001044530               0.999999990               0.000011803              -0.001078374               0.999999990               0.000008202              -0.001112157               0.999999990              -0.000000000              -0.000760021               0.999999990               0.000000000              -0.000766262               0.999999990               0.000000000              -0.000770525               0.999999990              -0.000000000              -0.000777667               0.999999990              -0.000000000              -0.000788772               0.999999990               0.000000000              -0.000803735               0.999999990              -0.000000000              -0.000822119               0.999999990              -0.000000000              -0.000843559               0.999999990              -0.000000000              -0.000867758               0.999999990              -0.000000000              -0.000894346               0.999999990               0.000000000              -0.000922871               0.999999990              -0.000000000              -0.000953105               0.999999990              -0.000000000              -0.000984787               0.999999990               0.000000000              -0.001017579               0.999999990              -0.000000000              -0.001051165               0.999999990              -0.000000000              -0.001085209               0.999999990               0.000000000              -0.001119382               0.999999990               0.000174089              -0.000000000               0.999999990               0.000203945              -0.000000000               0.999999990               0.000218108              -0.000000000               0.999999990               0.000226248              -0.000000000               0.999999990               0.000232305               0.000000000               0.999999990               0.000238075               0.000000000               0.999999990               0.000244369               0.000000000               0.999999990               0.000251552              -0.000000000               0.999999990               0.000259647               0.000000000               0.999999990               0.000268792              -0.000000000               0.999999990               0.000279007               0.000000000               0.999999990               0.000290353              -0.000000000               0.999999990               0.000302845               0.000000000               0.999999990               0.000316358              -0.000000000               0.999999990               0.000330729               0.000000000               0.999999990               0.000345685               0.000000000               0.999999990               0.000360975              -0.000000000               0.999999990               0.000173289               0.000074903               0.999999990               0.000201623               0.000064781               0.999999990               0.000214832               0.000061355               0.999999990               0.000222475               0.000061374               0.999999990               0.000228280               0.000063523               0.999999990               0.000233912               0.000066959               0.999999990               0.000240178               0.000071368               0.999999990               0.000247418               0.000076370               0.999999990               0.000255696               0.000081685               0.999999990               0.000265031               0.000087323               0.999999990               0.000275416               0.000093369               0.999999990               0.000286873               0.000099621               0.999999990               0.000299338               0.000105819               0.999999990               0.000312710               0.000111728               0.999999990               0.000326832               0.000117106               0.999999990               0.000341455               0.000121583               0.999999990               0.000356283               0.000124827               0.999999990               0.000170772               0.000149023               0.999999990               0.000194555               0.000128847               0.999999990               0.000205007               0.000122348               0.999999990               0.000211111               0.000122858               0.999999990               0.000216263               0.000127455               0.999999990               0.000221821               0.000134673               0.999999990               0.000228326               0.000143600               0.999999990               0.000235858               0.000153639               0.999999990               0.000244458               0.000164359               0.999999990               0.000254107               0.000175749               0.999999990               0.000264727               0.000187684               0.999999990               0.000276274               0.000199793               0.999999990               0.000288504               0.000211802               0.999999990               0.000301277               0.000223254               0.999999990               0.000314494               0.000233725               0.999999990               0.000327939               0.000242688               0.999999990               0.000341494               0.000249459               0.999999990               0.000166374               0.000221549               0.999999990               0.000182831               0.000191615               0.999999990               0.000189346               0.000182804               0.999999990               0.000193588               0.000184514               0.999999990               0.000198155               0.000192130               0.999999990               0.000203825               0.000203373               0.999999990               0.000210730               0.000216978               0.999999990               0.000218744               0.000232066               0.999999990               0.000227775               0.000248204               0.999999990               0.000237838               0.000265136               0.999999990               0.000248740               0.000282639               0.999999990               0.000260260               0.000300313               0.999999990               0.000272187               0.000317561               0.999999990               0.000284320               0.000333982               0.999999990               0.000296485               0.000349270               0.999999990               0.000308671               0.000362910               0.999999990               0.000320951               0.000374544               0.999999990               0.000160085               0.000291676               0.999999990               0.000167135               0.000252696               0.999999990               0.000169439               0.000242575               0.999999990               0.000172166               0.000246110               0.999999990               0.000176550               0.000257195               0.999999990               0.000182671               0.000272720               0.999999990               0.000190240               0.000290966               0.999999990               0.000199013               0.000310978               0.999999990               0.000208787               0.000332269               0.999999990               0.000219471               0.000354481               0.999999990               0.000230729               0.000377270               0.999999990               0.000242245               0.000399925               0.999999990               0.000253930               0.000421938               0.999999990               0.000265543               0.000442994               0.999999990               0.000277020               0.000462966               0.999999990               0.000288389               0.000481589               0.999999990               0.000299711               0.000498880               0.999999990               0.000152163               0.000358608               0.999999990               0.000148448               0.000311860               0.999999990               0.000146892               0.000301498               0.999999990               0.000148774               0.000307443               0.999999990               0.000153600               0.000322165               0.999999990               0.000160687               0.000341926               0.999999990               0.000169468               0.000364620               0.999999990               0.000179406               0.000389216               0.999999990               0.000190185               0.000415407               0.999999990               0.000201551               0.000442657               0.999999990               0.000213197               0.000470187               0.999999990               0.000224872               0.000497378               0.999999990               0.000236361               0.000523814               0.999999990               0.000247537               0.000549360               0.999999990               0.000258452               0.000574100               0.999999990               0.000269090               0.000597824               0.999999990               0.000279506               0.000620644               0.999999990               0.000142710               0.000421719               0.999999990               0.000127775               0.000368966               0.999999990               0.000123387               0.000359203               0.999999990               0.000125421               0.000367846               0.999999990               0.000131541               0.000386074               0.999999990               0.000140257               0.000409798               0.999999990               0.000150562               0.000436684               0.999999990               0.000161741               0.000465763               0.999999990               0.000173530               0.000496749               0.999999990               0.000185605               0.000528572               0.999999990               0.000197613               0.000560413               0.999999990               0.000209213               0.000591832               0.999999990               0.000220313               0.000622589               0.999999990               0.000230907               0.000652627               0.999999990               0.000241005               0.000682016               0.999999990               0.000250666               0.000710583               0.999999990               0.000259974               0.000738202               0.999999990               0.000131872               0.000480435               0.999999990               0.000106303               0.000423804               0.999999990               0.000100452               0.000415201               0.999999990               0.000103763               0.000426434               0.999999990               0.000111743               0.000447980               0.999999990               0.000122265               0.000475520               0.999999990               0.000134091               0.000506519               0.999999990               0.000146548               0.000540023               0.999999990               0.000159339               0.000575392               0.999999990               0.000171947               0.000611437               0.999999990               0.000183948               0.000647317               0.999999990               0.000195162               0.000682686               0.999999990               0.000205562               0.000717521               0.999999990               0.000215240               0.000751796               0.999999990               0.000224344               0.000785475               0.999999990               0.000233074               0.000818396               0.999999990               0.000241418               0.000850432               0.999999990               0.000120233               0.000533775               0.999999990               0.000084779               0.000476452               0.999999990               0.000079413               0.000468946               0.999999990               0.000084631               0.000482499               0.999999990               0.000094686               0.000507233               0.999999990               0.000107058               0.000538413               0.999999990               0.000120327               0.000573543               0.999999990               0.000133946               0.000611325               0.999999990               0.000147470               0.000650816               0.999999990               0.000160243               0.000690699               0.999999990               0.000171765               0.000730264               0.999999990               0.000182132               0.000769408               0.999999990               0.000191502               0.000808091               0.999999990               0.000200306               0.000846211               0.999999990               0.000208722               0.000883682               0.999999990               0.000216952               0.000920439               0.999999990               0.000224999               0.000956464               0.999999990               0.000108637               0.000583632               0.999999990               0.000067832               0.000532620               0.999999990               0.000060046               0.000520863               0.999999990               0.000063657               0.000529281               0.999999990               0.000072336               0.000549034               0.999999990               0.000083432               0.000575736               0.999999990               0.000095412               0.000606887               0.999999990               0.000107773               0.000641044               0.999999990               0.000120285               0.000677170               0.999999990               0.000132443               0.000714431               0.999999990               0.000143292               0.000751878               0.999999990               0.000152782               0.000789188               0.999999990               0.000161034               0.000826288               0.999999990               0.000168422               0.000863150               0.999999990               0.000175430               0.000899650               0.999999990               0.000182241               0.000935762               0.999999990               0.000189147               0.000971260               0.999999990               0.000095526               0.000628595               0.999999990               0.000053082               0.000586353               0.999999990               0.000042806               0.000573519               0.999999990               0.000044453               0.000578044               0.999999990               0.000051403               0.000593490               0.999999990               0.000060844               0.000616156               0.999999990               0.000071317               0.000643538               0.999999990               0.000082291               0.000674152               0.999999990               0.000093531               0.000707143               0.999999990               0.000104691               0.000741657               0.999999990               0.000114848               0.000776798               0.999999990               0.000123603               0.000812128               0.999999990               0.000130818               0.000847366               0.999999990               0.000136700               0.000882545               0.999999990               0.000141713               0.000917624               0.999999990               0.000146310               0.000952670               0.999999990               0.000151036               0.000987578               0.999999990               0.000081394               0.000667665               0.999999990               0.000040434               0.000636171               0.999999990               0.000028502               0.000624684               0.999999990               0.000028091               0.000627199               0.999999990               0.000032959               0.000639457               0.999999990               0.000040465               0.000658664               0.999999990               0.000049240               0.000682733               0.999999990               0.000058536               0.000710258               0.999999990               0.000068300               0.000740353               0.999999990               0.000078128               0.000772414               0.999999990               0.000087293               0.000805512               0.999999990               0.000095109               0.000839046               0.999999990               0.000101287               0.000872634               0.999999990               0.000105834               0.000906148               0.999999990               0.000108861               0.000939603               0.999999990               0.000110742               0.000973114               0.999999990               0.000112121               0.001006867               0.999999990               0.000066392               0.000700303               0.999999990               0.000029816               0.000680120               0.999999990               0.000017461               0.000671942               0.999999990               0.000015340               0.000674252               0.999999990               0.000018159               0.000684715               0.999999990               0.000023616               0.000701409               0.999999990               0.000030390               0.000722852               0.999999990               0.000037938               0.000747793               0.999999990               0.000045869               0.000775493               0.999999990               0.000053988               0.000805434               0.999999990               0.000061763               0.000836922               0.999999990               0.000068446               0.000869196               0.999999990               0.000073641               0.000901744               0.999999990               0.000076980               0.000934280               0.999999990               0.000078336               0.000966629               0.999999990               0.000077595               0.000998976               0.999999990               0.000074959               0.001031603               0.999999990               0.000050642               0.000726130               0.999999990               0.000020938               0.000716395               0.999999990               0.000009591               0.000712540               0.999999990               0.000006609               0.000716093               0.999999990               0.000007800               0.000726083               0.999999990               0.000011207               0.000741383               0.999999990               0.000016062               0.000761011               0.999999990               0.000021663               0.000784078               0.999999990               0.000027635               0.000809933               0.999999990               0.000033785               0.000838189               0.999999990               0.000039850               0.000868310               0.999999990               0.000045158               0.000899682               0.999999990               0.000049223               0.000931862               0.999999990               0.000051560               0.000964332               0.999999990               0.000051694               0.000996811               0.999999990               0.000049122               0.001029127               0.999999990               0.000043331               0.001061386               0.999999990               0.000034229               0.000744835               0.999999990               0.000013283               0.000743628               0.999999990               0.000004522               0.000743885               0.999999990               0.000001756               0.000749155               0.999999990               0.000001963               0.000759530               0.999999990               0.000003874               0.000774323               0.999999990               0.000006850               0.000793036               0.999999990               0.000010486               0.000815039               0.999999990               0.000014402               0.000839822               0.999999990               0.000018424               0.000866932               0.999999990               0.000022453               0.000896118               0.999999990               0.000026024               0.000926988               0.999999990               0.000028712               0.000959099               0.999999990               0.000030222               0.000991975               0.999999990               0.000029952               0.001025116               0.999999990               0.000027240               0.001058257               0.999999990               0.000021054               0.001091229               0.999999990               0.000017261               0.000756207               0.999999990               0.000006424               0.000760552               0.999999990               0.000001662               0.000763734               0.999999990              -0.000000002               0.000770357               0.999999990              -0.000000071               0.000781267               0.999999990               0.000000723               0.000796147               0.999999990               0.000002109               0.000814563               0.999999990               0.000003862               0.000836098               0.999999990               0.000005841               0.000860372               0.999999990               0.000007797               0.000887019               0.999999990               0.000009656               0.000915716               0.999999990               0.000011364               0.000946182               0.999999990               0.000012698               0.000978090               0.999999990               0.000013501               0.001010973               0.999999990               0.000013372               0.001044530               0.999999990               0.000011803               0.001078374               0.999999990               0.000008202               0.001112157               0.999999990              -0.000000000               0.000760021               0.999999990               0.000000000               0.000766262               0.999999990               0.000000000               0.000770525               0.999999990               0.000000000               0.000777667               0.999999990              -0.000000000               0.000788772               0.999999990              -0.000000000               0.000803735               0.999999990               0.000000000               0.000822119               0.999999990              -0.000000000               0.000843559               0.999999990              -0.000000000               0.000867758               0.999999990              -0.000000000               0.000894346               0.999999990              -0.000000000               0.000922871               0.999999990               0.000000000               0.000953105               0.999999990               0.000000000               0.000984787               0.999999990               0.000000000               0.001017579               0.999999990               0.000000000               0.001051165               0.999999990               0.000000000               0.001085209               0.999999990               0.000000000               0.001119382               0.999999990 </DataArray>
<DataArray type="Float64"                                    Name="stress"                                                      NumberOfComponents="10" format="ascii">
              0.001227191               0.013924549              -0.000000000              -0.001280369               0.005068260               0.003787891               0.000000000               0.000000000               0.000000000               0.000000000               0.001303189               0.011302263              -0.000000000              -0.000924085               0.004075412               0.003151327               0.000000000               0.000000000               0.000000000               0.000000000               0.001791299               0.009176630               0.000000000              -0.000475340               0.003217293               0.002741953               0.000000000               0.000000000               0.000000000               0.000000000               0.001837232               0.007983789               0.000000000              -0.000309011               0.002764240               0.002455229               0.000000000               0.000000000               0.000000000               0.000000000               0.001723385               0.007261870               0.000000000              -0.000261464               0.002507754               0.002246290               0.000000000               0.000000000               0.000000000               0.000000000               0.001549697               0.006796362               0.000000000              -0.000268408               0.002354901               0.002086492               0.000000000               0.000000000               0.000000000               0.000000000               0.001361540               0.006486592              -0.000000000              -0.000300246               0.002262258               0.001962012               0.000000000               0.000000000               0.000000000               0.000000000               0.001182478               0.006270469              -0.000000000              -0.000340379               0.002203595               0.001863216               0.000000000               0.000000000               0.000000000               0.000000000               0.001013703               0.006108802              -0.000000000              -0.000383461               0.002164067               0.001780606               0.000000000               0.000000000               0.000000000               0.000000000               0.000851860               0.005987290               0.000000000              -0.000428963               0.002138731               0.001709768               0.000000000               0.000000000               0.000000000               0.000000000               0.000697449               0.005899545               0.000000000              -0.000475899               0.002125128               0.001649230               0.000000000               0.000000000               0.000000000               0.000000000               0.000546351               0.005828750               0.000000000              -0.000523711               0.002117468               0.001593757               0.000000000               0.000000000               0.000000000               0.000000000               0.000403288               0.005760459               0.000000000              -0.000568823               0.002109742               0.001540919               0.000000000               0.000000000               0.000000000               0.000000000               0.000273427               0.005684397               0.000000000              -0.000608013               0.002097451               0.001489438               0.000000000               0.000000000               0.000000000               0.000000000               0.000162792               0.005592202              -0.000000000              -0.000637977               0.002076708               0.001438731               0.000000000               0.000000000               0.000000000               0.000000000               0.000073709               0.005472834              -0.000000000              -0.000656462               0.002043080               0.001386619               0.000000000               0.000000000               0.000000000               0.000000000               0.000024662               0.005376570              -0.000000000              -0.000662821               0.002013112               0.001350291               0.000000000               0.000000000               0.000000000               0.000000000               0.001294188               0.013670776              -0.001022368              -0.001223524               0.004964721               0.003741197               0.000000000               0.000000000               0.000000000               0.000000000               0.001311299               0.011123887              -0.000609318              -0.000898747               0.004007508               0.003108761               0.000000000               0.000000000               0.000000000               0.000000000               0.001733657               0.009080562              -0.000189050              -0.000484948               0.003188473               0.002703525               0.000000000               0.000000000               0.000000000               0.000000000               0.001750224               0.007936753               0.000001403              -0.000335759               0.002757478               0.002421718               0.000000000               0.000000000               0.000000000               0.000000000               0.001627801               0.007242877               0.000089675              -0.000294933               0.002512579               0.002217646               0.000000000               0.000000000               0.000000000               0.000000000               0.001456055               0.006796226               0.000129227              -0.000303507               0.002366555               0.002063048               0.000000000               0.000000000               0.000000000               0.000000000               0.001272490               0.006493598               0.000144318              -0.000334515               0.002276016               0.001941501               0.000000000               0.000000000               0.000000000               0.000000000               0.001096878               0.006278866               0.000144579              -0.000373528               0.002217444               0.001843916               0.000000000               0.000000000               0.000000000               0.000000000               0.000933360               0.006119534               0.000139816              -0.000414931               0.002178134               0.001763204               0.000000000               0.000000000               0.000000000               0.000000000               0.000780773               0.006000698               0.000137792              -0.000457296               0.002152645               0.001695348               0.000000000               0.000000000               0.000000000               0.000000000               0.000635152               0.005908692               0.000135209              -0.000500403               0.002136345               0.001635942               0.000000000               0.000000000               0.000000000               0.000000000               0.000495601               0.005829422               0.000127896              -0.000542826               0.002124063               0.001581237               0.000000000               0.000000000               0.000000000               0.000000000               0.000366099               0.005753861               0.000116509              -0.000581944               0.002111916               0.001529972               0.000000000               0.000000000               0.000000000               0.000000000               0.000247348               0.005671756               0.000100670              -0.000616212               0.002095971               0.001479758               0.000000000               0.000000000               0.000000000               0.000000000               0.000145631               0.005576402               0.000077268              -0.000642437               0.002072928               0.001430491               0.000000000               0.000000000               0.000000000               0.000000000               0.000065234               0.005460299               0.000043228              -0.000658073               0.002039439               0.001381366               0.000000000               0.000000000               0.000000000               0.000000000               0.000020793               0.005368970               0.000026310              -0.000663322               0.002010746               0.001347424               0.000000000               0.000000000               0.000000000               0.000000000               0.001469426               0.012938153              -0.001913143              -0.001066233               0.004668085               0.003601853               0.000000000               0.000000000               0.000000000               0.000000000               0.001322543               0.010616236              -0.001136657              -0.000831074               0.003815735               0.002984660               0.000000000               0.000000000               0.000000000               0.000000000               0.001568585               0.008816352              -0.000352513              -0.000513824               0.003110029               0.002596206               0.000000000               0.000000000               0.000000000               0.000000000               0.001508550               0.007807000              -0.000007856              -0.000410168               0.002739030               0.002328862               0.000000000               0.000000000               0.000000000               0.000000000               0.001357583               0.007186186               0.000147353              -0.000389179               0.002525097               0.002135919               0.000000000               0.000000000               0.000000000               0.000000000               0.001185946               0.006778663               0.000214406              -0.000402602               0.002393733               0.001991130               0.000000000               0.000000000               0.000000000               0.000000000               0.001020441               0.006494777               0.000238844              -0.000429181               0.002307964               0.001878784               0.000000000               0.000000000               0.000000000               0.000000000               0.000868345               0.006287675               0.000242236              -0.000460329               0.002249314               0.001788985               0.000000000               0.000000000               0.000000000               0.000000000               0.000726334               0.006132496               0.000239643              -0.000494186               0.002208873               0.001714688               0.000000000               0.000000000               0.000000000               0.000000000               0.000595652               0.006011343               0.000238048              -0.000528047               0.002179777               0.001651730               0.000000000               0.000000000               0.000000000               0.000000000               0.000473863               0.005908333               0.000232706              -0.000560841               0.002156372               0.001595530               0.000000000               0.000000000               0.000000000               0.000000000               0.000364774               0.005815066               0.000220788              -0.000590091               0.002135033               0.001544942               0.000000000               0.000000000               0.000000000               0.000000000               0.000270504               0.005723994               0.000201729              -0.000614059               0.002112665               0.001498607               0.000000000               0.000000000               0.000000000               0.000000000               0.000184726               0.005629421               0.000174101              -0.000634404               0.002087923               0.001453519               0.000000000               0.000000000               0.000000000               0.000000000               0.000111166               0.005531762               0.000134522              -0.000649781               0.002060496               0.001410715               0.000000000               0.000000000               0.000000000               0.000000000               0.000051285               0.005430496               0.000075900              -0.000659578               0.002030007               0.001370428               0.000000000               0.000000000               0.000000000               0.000000000               0.000017534               0.005361728               0.000044416              -0.000663639               0.002008438               0.001344799               0.000000000               0.000000000               0.000000000               0.000000000               0.001687845               0.011810697              -0.002583182              -0.000843395               0.004217991               0.003374596               0.000000000               0.000000000               0.000000000               0.000000000               0.001307840               0.009851489              -0.001541276              -0.000740995               0.003530795               0.002789800               0.000000000               0.000000000               0.000000000               0.000000000               0.001305018               0.008427064              -0.000501995              -0.000564000               0.002996993               0.002432993               0.000000000               0.000000000               0.000000000               0.000000000               0.001152197               0.007603294              -0.000063389              -0.000518337               0.002707185               0.002188848               0.000000000               0.000000000               0.000000000               0.000000000               0.000978422               0.007080470               0.000129596              -0.000518149               0.002532849               0.002014700               0.000000000               0.000000000               0.000000000               0.000000000               0.000819286               0.006721009               0.000214734              -0.000532893               0.002417945               0.001885052               0.000000000               0.000000000               0.000000000               0.000000000               0.000682734               0.006457569               0.000249639              -0.000551170               0.002336225               0.001785055               0.000000000               0.000000000               0.000000000               0.000000000               0.000565938               0.006257395               0.000260622              -0.000569946               0.002275760               0.001705813               0.000000000               0.000000000               0.000000000               0.000000000               0.000456343               0.006100558               0.000262944              -0.000591440               0.002230645               0.001639206               0.000000000               0.000000000               0.000000000               0.000000000               0.000356118               0.005970998               0.000262614              -0.000612829               0.002194589               0.001581760               0.000000000               0.000000000               0.000000000               0.000000000               0.000272492               0.005858397               0.000257272              -0.000630114               0.002162817               0.001532704               0.000000000               0.000000000               0.000000000               0.000000000               0.000201781               0.005750963               0.000241958              -0.000643201               0.002131369               0.001488168               0.000000000               0.000000000               0.000000000               0.000000000               0.000144904               0.005644679               0.000215860              -0.000651244               0.002098622               0.001447378               0.000000000               0.000000000               0.000000000               0.000000000               0.000101437               0.005543557               0.000182049              -0.000654904               0.002066135               0.001411231               0.000000000               0.000000000               0.000000000               0.000000000               0.000065837               0.005452389               0.000135996              -0.000656858               0.002036398               0.001379540               0.000000000               0.000000000               0.000000000               0.000000000               0.000032015               0.005376150               0.000072974              -0.000660011               0.002012036               0.001352024               0.000000000               0.000000000               0.000000000               0.000000000               0.000013052               0.005338448               0.000039275              -0.000662410               0.002000268               0.001337858               0.000000000               0.000000000               0.000000000               0.000000000               0.001875094               0.010413222              -0.002993441              -0.000598494               0.003670536               0.003072043               0.000000000               0.000000000               0.000000000               0.000000000               0.001243660               0.008925604              -0.001813443              -0.000649328               0.003191614               0.002542286               0.000000000               0.000000000               0.000000000               0.000000000               0.000969955               0.007960445              -0.000649112              -0.000631321               0.002863895               0.002232574               0.000000000               0.000000000               0.000000000               0.000000000               0.000742244               0.007343601              -0.000173806              -0.000639607               0.002661045               0.002021438               0.000000000               0.000000000               0.000000000               0.000000000               0.000568729               0.006919535               0.000036249              -0.000651667               0.002523711               0.001872044               0.000000000               0.000000000               0.000000000               0.000000000               0.000439339               0.006606016               0.000130562              -0.000660998               0.002422316               0.001761318               0.000000000               0.000000000               0.000000000               0.000000000               0.000341434               0.006358148               0.000172917              -0.000666729               0.002341605               0.001674875               0.000000000               0.000000000               0.000000000               0.000000000               0.000263196               0.006159584               0.000193981              -0.000671248               0.002276923               0.001605676               0.000000000               0.000000000               0.000000000               0.000000000               0.000193129               0.006001148               0.000205853              -0.000677718               0.002226269               0.001548551               0.000000000               0.000000000               0.000000000               0.000000000               0.000133598               0.005868442               0.000212043              -0.000683454               0.002183946               0.001500492               0.000000000               0.000000000               0.000000000               0.000000000               0.000092375               0.005746292               0.000208637              -0.000683644               0.002143293               0.001459649               0.000000000               0.000000000               0.000000000               0.000000000               0.000059931               0.005625807               0.000191988              -0.000680750               0.002102167               0.001421417               0.000000000               0.000000000               0.000000000               0.000000000               0.000037237               0.005512638               0.000166167              -0.000675114               0.002062566               0.001387452               0.000000000               0.000000000               0.000000000               0.000000000               0.000026387               0.005414785               0.000135459              -0.000666951               0.002027227               0.001360276               0.000000000               0.000000000               0.000000000               0.000000000               0.000019643               0.005336648               0.000095784              -0.000659713               0.001998769               0.001339056               0.000000000               0.000000000               0.000000000               0.000000000               0.000012303               0.005281980               0.000047431              -0.000655632               0.001979187               0.001323554               0.000000000               0.000000000               0.000000000               0.000000000               0.000006949               0.005259773               0.000023441              -0.000654864               0.001971528               0.001316664               0.000000000               0.000000000               0.000000000               0.000000000               0.001969742               0.008891614              -0.003139126              -0.000372801               0.003088108               0.002715307               0.000000000               0.000000000               0.000000000               0.000000000               0.001122361               0.007935468              -0.001957081              -0.000571048               0.002835479               0.002264430               0.000000000               0.000000000               0.000000000               0.000000000               0.000609002               0.007454221              -0.000796052              -0.000703400               0.002719182               0.002015782               0.000000000               0.000000000               0.000000000               0.000000000               0.000343919               0.007038323              -0.000332116              -0.000750819               0.002596357               0.001845538               0.000000000               0.000000000               0.000000000               0.000000000               0.000196270               0.006699323              -0.000120913              -0.000763812               0.002487690               0.001723877               0.000000000               0.000000000               0.000000000               0.000000000               0.000107956               0.006420610              -0.000020394              -0.000762091               0.002394212               0.001632121               0.000000000               0.000000000               0.000000000               0.000000000               0.000054328               0.006188889               0.000031961              -0.000753236               0.002314021               0.001560785               0.000000000               0.000000000               0.000000000               0.000000000               0.000019841               0.006002406               0.000070177              -0.000742859               0.002248401               0.001505543               0.000000000               0.000000000               0.000000000               0.000000000              -0.000005676               0.005853545               0.000099237              -0.000733820               0.002195769               0.001461949               0.000000000               0.000000000               0.000000000               0.000000000              -0.000024591               0.005717692               0.000114975              -0.000723931               0.002147189               0.001423257               0.000000000               0.000000000               0.000000000               0.000000000              -0.000033462               0.005584195               0.000117189              -0.000710571               0.002098237               0.001387666               0.000000000               0.000000000               0.000000000               0.000000000              -0.000033718               0.005459368               0.000107959              -0.000695063               0.002051459               0.001356395               0.000000000               0.000000000               0.000000000               0.000000000              -0.000026499               0.005350857               0.000092218              -0.000678792               0.002009865               0.001331073               0.000000000               0.000000000               0.000000000               0.000000000              -0.000016292               0.005262239               0.000074945              -0.000663888               0.001975358               0.001311470               0.000000000               0.000000000               0.000000000               0.000000000              -0.000007150               0.005193811               0.000052591              -0.000651906               0.001948555               0.001296649               0.000000000               0.000000000               0.000000000               0.000000000              -0.000000136               0.005143864               0.000025123              -0.000643032               0.001928948               0.001285916               0.000000000               0.000000000               0.000000000               0.000000000              -0.000001761               0.005116423               0.000013967              -0.000640212               0.001918861               0.001278649               0.000000000               0.000000000               0.000000000               0.000000000               0.001924496               0.007370966              -0.003052317              -0.000199688               0.002523526               0.002323838               0.000000000               0.000000000               0.000000000               0.000000000               0.000944770               0.006952520              -0.001996542              -0.000514777               0.002489075               0.001974298               0.000000000               0.000000000               0.000000000               0.000000000               0.000264359               0.006925279              -0.000949784              -0.000766524               0.002563911               0.001797387               0.000000000               0.000000000               0.000000000               0.000000000               0.000006620               0.006681144              -0.000526540              -0.000832659               0.002504578               0.001671920               0.000000000               0.000000000               0.000000000               0.000000000              -0.000097564               0.006417866              -0.000317619              -0.000838818               0.002418873               0.001580055               0.000000000               0.000000000               0.000000000               0.000000000              -0.000136617               0.006179931              -0.000203265              -0.000823721               0.002334530               0.001510809               0.000000000               0.000000000               0.000000000               0.000000000              -0.000142462               0.005978163              -0.000129941              -0.000800692               0.002259598               0.001458907               0.000000000               0.000000000               0.000000000               0.000000000              -0.000135174               0.005816122              -0.000068497              -0.000777704               0.002197922               0.001420219               0.000000000               0.000000000               0.000000000               0.000000000              -0.000126218               0.005674066              -0.000021620              -0.000756588               0.002143532               0.001386944               0.000000000               0.000000000               0.000000000               0.000000000              -0.000113868               0.005533219               0.000005147              -0.000734351               0.002089172               0.001354821               0.000000000               0.000000000               0.000000000               0.000000000              -0.000094395               0.005396561               0.000020032              -0.000709966               0.002035491               0.001325525               0.000000000               0.000000000               0.000000000               0.000000000              -0.000070876               0.005272789               0.000028251              -0.000685675               0.001986137               0.001300462               0.000000000               0.000000000               0.000000000               0.000000000              -0.000048660               0.005168436               0.000031371              -0.000664300               0.001944228               0.001279928               0.000000000               0.000000000               0.000000000               0.000000000              -0.000029311               0.005083510               0.000032137              -0.000646429               0.001909963               0.001263534               0.000000000               0.000000000               0.000000000               0.000000000              -0.000015154               0.005012830               0.000027656              -0.000632285               0.001881688               0.001249403               0.000000000               0.000000000               0.000000000               0.000000000              -0.000005062               0.004953902               0.000014459              -0.000621135               0.001858329               0.001237194               0.000000000               0.000000000               0.000000000               0.000000000              -0.000006772               0.004916514               0.000009991              -0.000617102               0.001844522               0.001227420               0.000000000               0.000000000               0.000000000               0.000000000               0.001739190               0.005937723              -0.002786422              -0.000090023               0.002009228               0.001919205               0.000000000               0.000000000               0.000000000               0.000000000               0.000721968               0.006035111              -0.001962539              -0.000483652               0.002172900               0.001689248               0.000000000               0.000000000               0.000000000               0.000000000              -0.000028853               0.006391544              -0.001112235              -0.000809762               0.002400414               0.001590652               0.000000000               0.000000000               0.000000000               0.000000000              -0.000240797               0.006289533              -0.000730622              -0.000876489               0.002388653               0.001512164               0.000000000               0.000000000               0.000000000               0.000000000              -0.000291552               0.006104280              -0.000513392              -0.000872365               0.002325528               0.001453163               0.000000000               0.000000000               0.000000000               0.000000000              -0.000283808               0.005916563              -0.000375837              -0.000845996               0.002254167               0.001408170               0.000000000               0.000000000               0.000000000               0.000000000              -0.000252253               0.005753375              -0.000277773              -0.000813765               0.002189027               0.001375263               0.000000000               0.000000000               0.000000000               0.000000000              -0.000217166               0.005611986              -0.000195943              -0.000782934               0.002131621               0.001348688               0.000000000               0.000000000               0.000000000               0.000000000              -0.000182997               0.005471460              -0.000132120              -0.000752555               0.002074653               0.001322099               0.000000000               0.000000000               0.000000000               0.000000000              -0.000143093               0.005328403              -0.000088666              -0.000719709               0.002016020               0.001296311               0.000000000               0.000000000               0.000000000               0.000000000              -0.000105046               0.005190493              -0.000055160              -0.000688202               0.001959548               0.001271346               0.000000000               0.000000000               0.000000000               0.000000000              -0.000072197               0.005067386              -0.000026779              -0.000660495               0.001909277               0.001248782               0.000000000               0.000000000               0.000000000               0.000000000              -0.000048247               0.004961066              -0.000003786              -0.000638224               0.001866414               0.001228189               0.000000000               0.000000000               0.000000000               0.000000000              -0.000032102               0.004868491               0.000011816              -0.000620598               0.001829680               0.001209082               0.000000000               0.000000000               0.000000000               0.000000000              -0.000024069               0.004784937               0.000017827              -0.000607141               0.001797343               0.001190202               0.000000000               0.000000000               0.000000000               0.000000000              -0.000015445               0.004713280               0.000012177              -0.000594950               0.001769394               0.001174444               0.000000000               0.000000000               0.000000000               0.000000000              -0.000012017               0.004671317               0.000009848              -0.000588419               0.001753230               0.001164810               0.000000000               0.000000000               0.000000000               0.000000000               0.001473635               0.004700435              -0.002406780              -0.000034945               0.001578443               0.001543499               0.000000000               0.000000000               0.000000000               0.000000000               0.000513144               0.005219049              -0.001898224              -0.000459953               0.001892982               0.001433030               0.000000000               0.000000000               0.000000000               0.000000000              -0.000229686               0.005890269              -0.001301307              -0.000822415               0.002237541               0.001415127               0.000000000               0.000000000               0.000000000               0.000000000              -0.000385130               0.005935431              -0.000945701              -0.000886351               0.002273907               0.001387557               0.000000000               0.000000000               0.000000000               0.000000000              -0.000393383               0.005837498              -0.000713109              -0.000877204               0.002238215               0.001361011               0.000000000               0.000000000               0.000000000               0.000000000              -0.000352371               0.005706294              -0.000548683              -0.000845424               0.002183887               0.001338463               0.000000000               0.000000000               0.000000000               0.000000000              -0.000298567               0.005581068              -0.000424919              -0.000809594               0.002130202               0.001320608               0.000000000               0.000000000               0.000000000               0.000000000              -0.000246359               0.005461023              -0.000326689              -0.000775011               0.002078660               0.001303649               0.000000000               0.000000000               0.000000000               0.000000000              -0.000192186               0.005327749              -0.000248318              -0.000738037               0.002021911               0.001283874               0.000000000               0.000000000               0.000000000               0.000000000              -0.000130867               0.005184162              -0.000185387              -0.000697094               0.001960401               0.001263308               0.000000000               0.000000000               0.000000000               0.000000000              -0.000081009               0.005043374              -0.000128689              -0.000660799               0.001901374               0.001240575               0.000000000               0.000000000               0.000000000               0.000000000              -0.000049606               0.004916752              -0.000078386              -0.000633195               0.001849966               0.001216771               0.000000000               0.000000000               0.000000000               0.000000000              -0.000038545               0.004801248              -0.000038086              -0.000614609               0.001805270               0.001190661               0.000000000               0.000000000               0.000000000               0.000000000              -0.000042186               0.004693570              -0.000011140              -0.000602514               0.001765346               0.001162832               0.000000000               0.000000000               0.000000000               0.000000000              -0.000050230               0.004594437               0.000003057              -0.000593139               0.001729177               0.001136038               0.000000000               0.000000000               0.000000000               0.000000000              -0.000055545               0.004505871               0.000006084              -0.000584062               0.001696629               0.001112567               0.000000000               0.000000000               0.000000000               0.000000000              -0.000053264               0.004459445               0.000005863              -0.000577403               0.001678934               0.001101531               0.000000000               0.000000000               0.000000000               0.000000000               0.001111935               0.003525793              -0.001978662              -0.000023751               0.001183169               0.001159418               0.000000000               0.000000000               0.000000000               0.000000000               0.000363055               0.004285677              -0.001820353              -0.000399565               0.001561732               0.001162167               0.000000000               0.000000000               0.000000000               0.000000000              -0.000299460               0.005186083              -0.001516592              -0.000760557               0.001982195               0.001221639               0.000000000               0.000000000               0.000000000               0.000000000              -0.000425799               0.005424632              -0.001197976              -0.000837752               0.002087443               0.001249691               0.000000000               0.000000000               0.000000000               0.000000000              -0.000418295               0.005456126              -0.000951661              -0.000838874               0.002098315               0.001259441               0.000000000               0.000000000               0.000000000               0.000000000              -0.000370893               0.005417111              -0.000760773              -0.000816222               0.002077760               0.001261538               0.000000000               0.000000000               0.000000000               0.000000000              -0.000314897               0.005351054              -0.000610803              -0.000786966               0.002045989               0.001259022               0.000000000               0.000000000               0.000000000               0.000000000              -0.000261033               0.005272589              -0.000495233              -0.000756959               0.002009832               0.001252873               0.000000000               0.000000000               0.000000000               0.000000000              -0.000205252               0.005180915              -0.000403439              -0.000724582               0.001968482               0.001243900               0.000000000               0.000000000               0.000000000               0.000000000              -0.000144596               0.005069044              -0.000319405              -0.000687852               0.001918948               0.001231096               0.000000000               0.000000000               0.000000000               0.000000000              -0.000091799               0.004944433              -0.000237826              -0.000652477               0.001865620               0.001213143               0.000000000               0.000000000               0.000000000               0.000000000              -0.000056997               0.004825393              -0.000163666              -0.000624547               0.001816630               0.001192084               0.000000000               0.000000000               0.000000000               0.000000000              -0.000045422               0.004713803              -0.000099271              -0.000606257               0.001773338               0.001167080               0.000000000               0.000000000               0.000000000               0.000000000              -0.000057518               0.004606916              -0.000050677              -0.000597432               0.001734767               0.001137335               0.000000000               0.000000000               0.000000000               0.000000000              -0.000082809               0.004507392              -0.000017875              -0.000594476               0.001700608               0.001106132               0.000000000               0.000000000               0.000000000               0.000000000              -0.000111927               0.004413306              -0.000000902              -0.000593634               0.001668965               0.001075331               0.000000000               0.000000000               0.000000000               0.000000000              -0.000124951               0.004364258               0.000003290              -0.000592388               0.001652201               0.001059813               0.000000000               0.000000000               0.000000000               0.000000000               0.000593640               0.002441205              -0.001520926              -0.000082538               0.000841238               0.000758701               0.000000000               0.000000000               0.000000000               0.000000000               0.000196133               0.003354723              -0.001688796              -0.000345792               0.001233493               0.000887701               0.000000000               0.000000000               0.000000000               0.000000000              -0.000291090               0.004398781              -0.001684234              -0.000659006               0.001685914               0.001026908               0.000000000               0.000000000               0.000000000               0.000000000              -0.000390453               0.004822138              -0.001445362              -0.000749186               0.001857091               0.001107905               0.000000000               0.000000000               0.000000000               0.000000000              -0.000382249               0.005001630              -0.001203232              -0.000768546               0.001923375               0.001154829               0.000000000               0.000000000               0.000000000               0.000000000              -0.000340917               0.005069532              -0.000996066              -0.000761534               0.001943672               0.001182138               0.000000000               0.000000000               0.000000000               0.000000000              -0.000290189               0.005076844              -0.000827829              -0.000743425               0.001940072               0.001196648               0.000000000               0.000000000               0.000000000               0.000000000              -0.000241304               0.005057981              -0.000695533              -0.000722735               0.001926888               0.001204153               0.000000000               0.000000000               0.000000000               0.000000000              -0.000191158               0.005024597              -0.000590422              -0.000699757               0.001908101               0.001208344               0.000000000               0.000000000               0.000000000               0.000000000              -0.000140139               0.004961177              -0.000492935              -0.000672698               0.001877942               0.001205244               0.000000000               0.000000000               0.000000000               0.000000000              -0.000088686               0.004872990              -0.000395422              -0.000642380               0.001838440               0.001196061               0.000000000               0.000000000               0.000000000               0.000000000              -0.000050349               0.004773945              -0.000300302              -0.000615623               0.001796507               0.001180884               0.000000000               0.000000000               0.000000000               0.000000000              -0.000033972               0.004672954              -0.000210270              -0.000596857               0.001756588               0.001159731               0.000000000               0.000000000               0.000000000               0.000000000              -0.000044481               0.004574590              -0.000131619              -0.000588503               0.001721016               0.001132513               0.000000000               0.000000000               0.000000000               0.000000000              -0.000082560               0.004481782              -0.000067607              -0.000591181               0.001690973               0.001099792               0.000000000               0.000000000               0.000000000               0.000000000              -0.000139383               0.004396845              -0.000023638              -0.000601873               0.001666225               0.001064352               0.000000000               0.000000000               0.000000000               0.000000000              -0.000180614               0.004348481              -0.000003957              -0.000611289               0.001653242               0.001041953               0.000000000               0.000000000               0.000000000               0.000000000              -0.000040088               0.001521934              -0.001055431              -0.000205275               0.000575731               0.000370455               0.000000000               0.000000000               0.000000000               0.000000000              -0.000032450               0.002472400              -0.001474935              -0.000321219               0.000931197               0.000609978               0.000000000               0.000000000               0.000000000               0.000000000              -0.000247742               0.003534440              -0.001725679              -0.000534708               0.001356370               0.000821662               0.000000000               0.000000000               0.000000000               0.000000000              -0.000286027               0.004094340              -0.001594063              -0.000619052               0.001571117               0.000952064               0.000000000               0.000000000               0.000000000               0.000000000              -0.000272340               0.004408478              -0.001388146              -0.000653186               0.001687207               0.001034020               0.000000000               0.000000000               0.000000000               0.000000000              -0.000239417               0.004588164              -0.001187901              -0.000663301               0.001750473               0.001087172               0.000000000               0.000000000               0.000000000               0.000000000              -0.000199759               0.004687138              -0.001014704              -0.000660801               0.001782630               0.001121830               0.000000000               0.000000000               0.000000000               0.000000000              -0.000159750               0.004743084              -0.000874513              -0.000652790               0.001798609               0.001145818               0.000000000               0.000000000               0.000000000               0.000000000              -0.000120976               0.004778025              -0.000760566              -0.000642618               0.001806865               0.001164247               0.000000000               0.000000000               0.000000000               0.000000000              -0.000082449               0.004781230              -0.000656595              -0.000628571               0.001803251               0.001174680               0.000000000               0.000000000               0.000000000               0.000000000              -0.000042205               0.004746463              -0.000552515              -0.000609133               0.001785183               0.001176049               0.000000000               0.000000000               0.000000000               0.000000000              -0.000008017               0.004684483              -0.000446809              -0.000588566               0.001757667               0.001169102               0.000000000               0.000000000               0.000000000               0.000000000               0.000013142               0.004608417              -0.000343429              -0.000571123               0.001726498               0.001155375               0.000000000               0.000000000               0.000000000               0.000000000               0.000011599               0.004526799              -0.000243218              -0.000561499               0.001696084               0.001134585               0.000000000               0.000000000               0.000000000               0.000000000              -0.000020765               0.004447064              -0.000148266              -0.000563668               0.001670229               0.001106561               0.000000000               0.000000000               0.000000000               0.000000000              -0.000087692               0.004378736              -0.000066374              -0.000580225               0.001652972               0.001072747               0.000000000               0.000000000               0.000000000               0.000000000              -0.000151344               0.004334433              -0.000022453              -0.000598557               0.001644315               0.001045759               0.000000000               0.000000000               0.000000000               0.000000000              -0.000741310               0.000815236              -0.000636044              -0.000379896               0.000398374               0.000018478               0.000000000               0.000000000               0.000000000               0.000000000              -0.000307754               0.001689123              -0.001197602              -0.000326548               0.000671884               0.000345336               0.000000000               0.000000000               0.000000000               0.000000000              -0.000195431               0.002664359              -0.001619101              -0.000406332               0.001023554               0.000617222               0.000000000               0.000000000               0.000000000               0.000000000              -0.000131458               0.003297213              -0.001596214              -0.000461449               0.001252876               0.000791427               0.000000000               0.000000000               0.000000000               0.000000000              -0.000092074               0.003713847              -0.001450603              -0.000498759               0.001404189               0.000905430               0.000000000               0.000000000               0.000000000               0.000000000              -0.000064704               0.003995650              -0.001280527              -0.000523720               0.001506443               0.000982723               0.000000000               0.000000000               0.000000000               0.000000000              -0.000036950               0.004188428              -0.001122083              -0.000537409               0.001575265               0.001037856               0.000000000               0.000000000               0.000000000               0.000000000              -0.000009212               0.004325658              -0.000985914              -0.000544161               0.001623258               0.001079097               0.000000000               0.000000000               0.000000000               0.000000000               0.000014822               0.004434991              -0.000869900              -0.000548815               0.001661254               0.001112439               0.000000000               0.000000000               0.000000000               0.000000000               0.000037824               0.004512775              -0.000766314              -0.000549912               0.001687547               0.001137635               0.000000000               0.000000000               0.000000000               0.000000000               0.000064251               0.004546111              -0.000664048              -0.000544169               0.001696745               0.001152576               0.000000000               0.000000000               0.000000000               0.000000000               0.000092347               0.004540348              -0.000560476              -0.000532912               0.001691071               0.001158159               0.000000000               0.000000000               0.000000000               0.000000000               0.000116827               0.004509401              -0.000456746              -0.000519864               0.001676406               0.001156543               0.000000000               0.000000000               0.000000000               0.000000000               0.000126513               0.004459372              -0.000349736              -0.000509978               0.001656435               0.001146457               0.000000000               0.000000000               0.000000000               0.000000000               0.000112359               0.004404574              -0.000237154              -0.000508436               0.001637655               0.001129219               0.000000000               0.000000000               0.000000000               0.000000000               0.000062822               0.004359904              -0.000119416              -0.000521428               0.001627096               0.001105668               0.000000000               0.000000000               0.000000000               0.000000000               0.000002561               0.004326213              -0.000052273              -0.000539815               0.001621995               0.001082180               0.000000000               0.000000000               0.000000000               0.000000000              -0.001443611               0.000321770              -0.000313943              -0.000581575               0.000301113              -0.000280462               0.000000000               0.000000000               0.000000000               0.000000000              -0.000606985               0.001051836              -0.000889847              -0.000359099               0.000470307               0.000111208               0.000000000               0.000000000               0.000000000               0.000000000              -0.000149578               0.001871131              -0.001365247              -0.000289984               0.000720365               0.000430381               0.000000000               0.000000000               0.000000000               0.000000000               0.000046180               0.002514509              -0.001421469              -0.000296997               0.000937159               0.000640163               0.000000000               0.000000000               0.000000000               0.000000000               0.000131554               0.002991069              -0.001338042              -0.000324551               0.001105196               0.000780645               0.000000000               0.000000000               0.000000000               0.000000000               0.000167956               0.003349929              -0.001215161              -0.000355758               0.001235218               0.000879460               0.000000000               0.000000000               0.000000000               0.000000000               0.000187471               0.003625630              -0.001090360              -0.000382902               0.001336165               0.000953263               0.000000000               0.000000000               0.000000000               0.000000000               0.000199429               0.003841264              -0.000973908              -0.000405372               0.001415532               0.001010160               0.000000000               0.000000000               0.000000000               0.000000000               0.000207840               0.004021135              -0.000870134              -0.000424701               0.001481932               0.001057231               0.000000000               0.000000000               0.000000000               0.000000000               0.000213911               0.004168211              -0.000777186              -0.000440809               0.001536326               0.001095517               0.000000000               0.000000000               0.000000000               0.000000000               0.000223622               0.004273863              -0.000686332              -0.000450374               0.001574731               0.001124358               0.000000000               0.000000000               0.000000000               0.000000000               0.000241771               0.004342625              -0.000593786              -0.000452163               0.001598248               0.001146085               0.000000000               0.000000000               0.000000000               0.000000000               0.000265475               0.004377298              -0.000500401              -0.000447608               0.001608287               0.001160679               0.000000000               0.000000000               0.000000000               0.000000000               0.000291159               0.004380674              -0.000401261              -0.000438399               0.001606343               0.001167944               0.000000000               0.000000000               0.000000000               0.000000000               0.000310727               0.004364443              -0.000288913              -0.000429032               0.001597810               0.001168779               0.000000000               0.000000000               0.000000000               0.000000000               0.000313442               0.004342113              -0.000155393              -0.000425222               0.001589097               0.001163875               0.000000000               0.000000000               0.000000000               0.000000000               0.000298478               0.004324598              -0.000079249              -0.000428644               0.001584400               0.001155755               0.000000000               0.000000000               0.000000000               0.000000000              -0.002056221               0.000019924              -0.000112757              -0.000773573               0.000264497              -0.000509076               0.000000000               0.000000000               0.000000000               0.000000000              -0.000884465               0.000585649              -0.000581328              -0.000404880               0.000330174              -0.000074707               0.000000000               0.000000000               0.000000000               0.000000000              -0.000113574               0.001227615              -0.000987691              -0.000196043               0.000474548               0.000278505               0.000000000               0.000000000               0.000000000               0.000000000               0.000212409               0.001842550              -0.001068568              -0.000150666               0.000664399               0.000513732               0.000000000               0.000000000               0.000000000               0.000000000               0.000352178               0.002346708              -0.001032266              -0.000161273               0.000835985               0.000674713               0.000000000               0.000000000               0.000000000               0.000000000               0.000408373               0.002756713              -0.000958834              -0.000191450               0.000982711               0.000791262               0.000000000               0.000000000               0.000000000               0.000000000               0.000424901               0.003095108              -0.000876203              -0.000227551               0.001107542               0.000879992               0.000000000               0.000000000               0.000000000               0.000000000               0.000425611               0.003374999              -0.000794167              -0.000262270               0.001212412               0.000950141               0.000000000               0.000000000               0.000000000               0.000000000               0.000421311               0.003610893              -0.000717253              -0.000293370               0.001301409               0.001008039               0.000000000               0.000000000               0.000000000               0.000000000               0.000413538               0.003812867              -0.000647281              -0.000321531               0.001378120               0.001056589               0.000000000               0.000000000               0.000000000               0.000000000               0.000408239               0.003983305              -0.000578789              -0.000344823               0.001442696               0.001097873               0.000000000               0.000000000               0.000000000               0.000000000               0.000415722               0.004119606              -0.000507405              -0.000359054               0.001492873               0.001133819               0.000000000               0.000000000               0.000000000               0.000000000               0.000438378               0.004217455              -0.000435181              -0.000362789               0.001526734               0.001163945               0.000000000               0.000000000               0.000000000               0.000000000               0.000477560               0.004275696              -0.000357259              -0.000355376               0.001543676               0.001188300               0.000000000               0.000000000               0.000000000               0.000000000               0.000534086               0.004305017              -0.000264570              -0.000337844               0.001547606               0.001209762               0.000000000               0.000000000               0.000000000               0.000000000               0.000607640               0.004318801              -0.000146199              -0.000311984               0.001543581               0.001231596               0.000000000               0.000000000               0.000000000               0.000000000               0.000665165               0.004328137              -0.000080392              -0.000291580               0.001539891               0.001248312               0.000000000               0.000000000               0.000000000               0.000000000              -0.002476668              -0.000137469              -0.000022558              -0.000911566               0.000258031              -0.000653536               0.000000000               0.000000000               0.000000000               0.000000000              -0.001079194               0.000300000              -0.000284655              -0.000442197               0.000247397              -0.000194800               0.000000000               0.000000000               0.000000000               0.000000000              -0.000088674               0.000803251              -0.000518293              -0.000133659               0.000312300               0.000178641               0.000000000               0.000000000               0.000000000               0.000000000               0.000332284               0.001384057              -0.000573717              -0.000048401               0.000477481               0.000429080               0.000000000               0.000000000               0.000000000               0.000000000               0.000514538               0.001902818              -0.000561922              -0.000044901               0.000649233               0.000604332               0.000000000               0.000000000               0.000000000               0.000000000               0.000586469               0.002340889              -0.000529116              -0.000072686               0.000804517               0.000731831               0.000000000               0.000000000               0.000000000               0.000000000               0.000605575               0.002712537              -0.000489616              -0.000111977               0.000941495               0.000829519               0.000000000               0.000000000               0.000000000               0.000000000               0.000601039               0.003031468              -0.000449010              -0.000153544               0.001061660               0.000908117               0.000000000               0.000000000               0.000000000               0.000000000               0.000589565               0.003306962              -0.000409076              -0.000192283               0.001166404               0.000974121               0.000000000               0.000000000               0.000000000               0.000000000               0.000577217               0.003543892              -0.000370802              -0.000226530               0.001256795               0.001030266               0.000000000               0.000000000               0.000000000               0.000000000               0.000568432               0.003747882              -0.000333402              -0.000255323               0.001334389               0.001079066               0.000000000               0.000000000               0.000000000               0.000000000               0.000572657               0.003921900              -0.000294323              -0.000275490               0.001399117               0.001123627               0.000000000               0.000000000               0.000000000               0.000000000               0.000593917               0.004058435              -0.000253968              -0.000284585               0.001447660               0.001163075               0.000000000               0.000000000               0.000000000               0.000000000               0.000636818               0.004159257              -0.000209594              -0.000281100               0.001480105               0.001199005               0.000000000               0.000000000               0.000000000               0.000000000               0.000711874               0.004232927              -0.000155335              -0.000262163               0.001498349               0.001236186               0.000000000               0.000000000               0.000000000               0.000000000               0.000829925               0.004283743              -0.000085881              -0.000224246               0.001502649               0.001278403               0.000000000               0.000000000               0.000000000               0.000000000               0.000937641               0.004316824              -0.000049105              -0.000187987               0.001501590               0.001313602               0.000000000               0.000000000               0.000000000               0.000000000              -0.002625919              -0.000187114               0.000000000              -0.000961330               0.000258070              -0.000703259               0.000000000               0.000000000               0.000000000               0.000000000              -0.001148313               0.000203868               0.000000000              -0.000456100               0.000219988              -0.000236112               0.000000000               0.000000000               0.000000000               0.000000000              -0.000079753               0.000655376               0.000000000              -0.000111829               0.000255733               0.000143903               0.000000000               0.000000000               0.000000000               0.000000000               0.000376087               0.001220318              -0.000000000              -0.000011507               0.000410604               0.000399097               0.000000000               0.000000000               0.000000000               0.000000000               0.000573231               0.001743316              -0.000000000              -0.000002953               0.000582084               0.000579131               0.000000000               0.000000000               0.000000000               0.000000000               0.000653073               0.002191747               0.000000000              -0.000029066               0.000740264               0.000711198               0.000000000               0.000000000               0.000000000               0.000000000               0.000674064               0.002573839               0.000000000              -0.000068956               0.000880923               0.000811967               0.000000000               0.000000000               0.000000000               0.000000000               0.000668451               0.002906789               0.000000000              -0.000112679               0.001006480               0.000893801               0.000000000               0.000000000               0.000000000               0.000000000               0.000652969               0.003196836               0.000000000              -0.000154741               0.001117182               0.000962441               0.000000000               0.000000000               0.000000000               0.000000000               0.000639423               0.003442771               0.000000000              -0.000190562               0.001211100               0.001020537               0.000000000               0.000000000               0.000000000               0.000000000               0.000633258               0.003653517               0.000000000              -0.000219217               0.001290899               0.001071682               0.000000000               0.000000000               0.000000000               0.000000000               0.000638378               0.003837488              -0.000000000              -0.000240294               0.001359248               0.001118954               0.000000000               0.000000000               0.000000000               0.000000000               0.000658625               0.003988123               0.000000000              -0.000251530               0.001413204               0.001161674               0.000000000               0.000000000               0.000000000               0.000000000               0.000700133               0.004106204              -0.000000000              -0.000250725               0.001452296               0.001201571               0.000000000               0.000000000               0.000000000               0.000000000               0.000777656               0.004198143              -0.000000000              -0.000233146               0.001477083               0.001243936               0.000000000               0.000000000               0.000000000               0.000000000               0.000908214               0.004268233              -0.000000000              -0.000192948               0.001487046               0.001294098               0.000000000               0.000000000               0.000000000               0.000000000               0.001029640               0.004312502               0.000000000              -0.000152947               0.001488469               0.001335521               0.000000000               0.000000000               0.000000000               0.000000000               0.000000000               0.000000000               0.000000000               0.000000000               0.000000000               0.000000000               0.000000000               0.000000000               0.000000000               0.000000000               0.000000000               0.000000000               0.000000000               0.000000000               0.000000000               0.000000000               0.000000000               0.000000000               0.000000000               0.000000000               0.000000000               0.000000000               0.000000000               0.000000000               0.000000000               0.000000000               0.000000000               0.000000000               0.000000000               0.000000000               0.000000000               0.000000000               0.000000000               0.000000000               0.000000000               0.000000000               0.000000000               0.000000000               0.000000000               0.000000000               0.000000000               0.000000000               0.000000000               0.000000000               0.000000000               0.000000000               0.000000000               0.000000000               0.000000000               0.000000000               0.000000000               0.000000000               0.000000000               0.000000000               0.000000000               0.000000000               0.000000000               0.000000000               0.000000000               0.000000000               0.000000000               0.000000000               0.000000000               0.000000000               0.000000000               0.000000000               0.000000000               0.000000000               0.000000000               0.000000000               0.000000000               0.000000000               0.000000000               0.000000000               0.000000000               0.000000000               0.000000000               0.000000000               0.000000000               0.000000000               0.000000000               0.000000000               0.000000000               0.000000000               0.000000000               0.000000000               0.000000000               0.000000000               0.000000000               0.000000000               0.000000000               0.000000000               0.000000000               0.000000000               0.000000000               0.000000000               0.000000000               0.000000000               0.000000000               0.000000000               0.000000000               0.000000000               0.000000000               0.000000000               0.000000000               0.000000000               0.000000000               0.000000000               0.000000000               0.000000000               0.000000000               0.000000000               0.000000000               0.000000000               0.000000000               0.000000000               0.000000000               0.000000000               0.000000000               0.000000000               0.000000000               0.000000000               0.000000000               0.000000000               0.000000000               0.000000000               0.000000000               0.000000000               0.000000000               0.000000000               0.000000000               0.000000000               0.000000000               0.000000000               0.000000000               0.000000000               0.000000000               0.000000000               0.000000000               0.000000000               0.000000000               0.000000000               0.000000000               0.000000000               0.000000000               0.000000000               0.000000000               0.000000000               0.000000000               0.000000000               0.000000000               0.000000000               0.000000000               0.000000000               0.000000000               0.000000000               0.000000000               0.000000000               0.000000000               0.000000000               0.000000000               0.000000000               0.000000000               0.000000000               0.000000000               0.000000000               0.000000000               0.000000000               0.000000000               0.000000000               0.001294188               0.013670776               0.001022368              -0.001223524               0.004964721               0.003741197               0.000000000               0.000000000               0.000000000               0.000000000               0.001311299               0.011123887               0.000609318              -0.000898747               0.004007508               0.003108761               0.000000000               0.000000000               0.000000000               0.000000000               0.001733657               0.009080562               0.000189050              -0.000484948               0.003188473               0.002703525               0.000000000               0.000000000               0.000000000               0.000000000               0.001750224               0.007936753              -0.000001403              -0.000335759               0.002757478               0.002421718               0.000000000               0.000000000               0.000000000               0.000000000               0.001627801               0.007242877              -0.000089675              -0.000294933               0.002512579               0.002217646               0.000000000               0.000000000               0.000000000               0.000000000               0.001456055               0.006796226              -0.000129227              -0.000303507               0.002366555               0.002063048               0.000000000               0.000000000               0.000000000               0.000000000               0.001272490               0.006493598              -0.000144318              -0.000334515               0.002276016               0.001941501               0.000000000               0.000000000               0.000000000               0.000000000               0.001096878               0.006278866              -0.000144579              -0.000373528               0.002217444               0.001843916               0.000000000               0.000000000               0.000000000               0.000000000               0.000933360               0.006119534              -0.000139816              -0.000414931               0.002178134               0.001763204               0.000000000               0.000000000               0.000000000               0.000000000               0.000780773               0.006000698              -0.000137792              -0.000457296               0.002152645               0.001695348               0.000000000               0.000000000               0.000000000               0.000000000               0.000635152               0.005908692              -0.000135209              -0.000500403               0.002136345               0.001635942               0.000000000               0.000000000               0.000000000               0.000000000               0.000495601               0.005829422              -0.000127896              -0.000542826               0.002124063               0.001581237               0.000000000               0.000000000               0.000000000               0.000000000               0.000366099               0.005753861              -0.000116509              -0.000581944               0.002111916               0.001529972               0.000000000               0.000000000               0.000000000               0.000000000               0.000247348               0.005671756              -0.000100670              -0.000616212               0.002095971               0.001479758               0.000000000               0.000000000               0.000000000               0.000000000               0.000145631               0.005576402              -0.000077268              -0.000642437               0.002072928               0.001430491               0.000000000               0.000000000               0.000000000               0.000000000               0.000065234               0.005460299              -0.000043228              -0.000658073               0.002039439               0.001381366               0.000000000               0.000000000               0.000000000               0.000000000               0.000020793               0.005368970              -0.000026310              -0.000663322               0.002010746               0.001347424               0.000000000               0.000000000               0.000000000               0.000000000               0.001469426               0.012938153               0.001913143              -0.001066233               0.004668085               0.003601853               0.000000000               0.000000000               0.000000000               0.000000000               0.001322543               0.010616236               0.001136657              -0.000831074               0.003815735               0.002984660               0.000000000               0.000000000               0.000000000               0.000000000               0.001568585               0.008816352               0.000352513              -0.000513824               0.003110029               0.002596206               0.000000000               0.000000000               0.000000000               0.000000000               0.001508550               0.007807000               0.000007856              -0.000410168               0.002739030               0.002328862               0.000000000               0.000000000               0.000000000               0.000000000               0.001357583               0.007186186              -0.000147353              -0.000389179               0.002525097               0.002135919               0.000000000               0.000000000               0.000000000               0.000000000               0.001185946               0.006778663              -0.000214406              -0.000402602               0.002393733               0.001991130               0.000000000               0.000000000               0.000000000               0.000000000               0.001020441               0.006494777              -0.000238844              -0.000429181               0.002307964               0.001878784               0.000000000               0.000000000               0.000000000               0.000000000               0.000868345               0.006287675              -0.000242236              -0.000460329               0.002249314               0.001788985               0.000000000               0.000000000               0.000000000               0.000000000               0.000726334               0.006132496              -0.000239643              -0.000494186               0.002208873               0.001714688               0.000000000               0.000000000               0.000000000               0.000000000               0.000595652               0.006011343              -0.000238048              -0.000528047               0.002179777               0.001651730               0.000000000               0.000000000               0.000000000               0.000000000               0.000473863               0.005908333              -0.000232706              -0.000560841               0.002156372               0.001595530               0.000000000               0.000000000               0.000000000               0.000000000               0.000364774               0.005815066              -0.000220788              -0.000590091               0.002135033               0.001544942               0.000000000               0.000000000               0.000000000               0.000000000               0.000270504               0.005723994              -0.000201729              -0.000614059               0.002112665               0.001498607               0.000000000               0.000000000               0.000000000               0.000000000               0.000184726               0.005629421              -0.000174101              -0.000634404               0.002087923               0.001453519               0.000000000               0.000000000               0.000000000               0.000000000               0.000111166               0.005531762              -0.000134522              -0.000649781               0.002060496               0.001410715               0.000000000               0.000000000               0.000000000               0.000000000               0.000051285               0.005430496              -0.000075900              -0.000659578               0.002030007               0.001370428               0.000000000               0.000000000               0.000000000               0.000000000               0.000017534               0.005361728              -0.000044416              -0.000663639               0.002008438               0.001344799               0.000000000               0.000000000               0.000000000               0.000000000               0.001687845               0.011810697               0.002583182              -0.000843395               0.004217991               0.003374596               0.000000000               0.000000000               0.000000000               0.000000000               0.001307840               0.009851489               0.001541276              -0.000740995               0.003530795               0.002789800               0.000000000               0.000000000               0.000000000               0.000000000               0.001305018               0.008427064               0.000501995              -0.000564000               0.002996993               0.002432993               0.000000000               0.000000000               0.000000000               0.000000000               0.001152197               0.007603294               0.000063389              -0.000518337               0.002707185               0.002188848               0.000000000               0.000000000               0.000000000               0.000000000               0.000978422               0.007080470              -0.000129596              -0.000518149               0.002532849               0.002014700               0.000000000               0.000000000               0.000000000               0.000000000               0.000819286               0.006721009              -0.000214734              -0.000532893               0.002417945               0.001885052               0.000000000               0.000000000               0.000000000               0.000000000               0.000682734               0.006457569              -0.000249639              -0.000551170               0.002336225               0.001785055               0.000000000               0.000000000               0.000000000               0.000000000               0.000565938               0.006257395              -0.000260622              -0.000569946               0.002275760               0.001705813               0.000000000               0.000000000               0.000000000               0.000000000               0.000456343               0.006100558              -0.000262944              -0.000591440               0.002230645               0.001639206               0.000000000               0.000000000               0.000000000               0.000000000               0.000356118               0.005970998              -0.000262614              -0.000612829               0.002194589               0.001581760               0.000000000               0.000000000               0.000000000               0.000000000               0.000272492               0.005858397              -0.000257272              -0.000630114               0.002162817               0.001532704               0.000000000               0.000000000               0.000000000               0.000000000               0.000201781               0.005750963              -0.000241958              -0.000643201               0.002131369               0.001488168               0.000000000               0.000000000               0.000000000               0.000000000               0.000144904               0.005644679              -0.000215860              -0.000651244               0.002098622               0.001447378               0.000000000               0.000000000               0.000000000               0.000000000               0.000101437               0.005543557              -0.000182049              -0.000654904               0.002066135               0.001411231               0.000000000               0.000000000               0.000000000               0.000000000               0.000065837               0.005452389              -0.000135996              -0.000656858               0.002036398               0.001379540               0.000000000               0.000000000               0.000000000               0.000000000               0.000032015               0.005376150              -0.000072974              -0.000660011               0.002012036               0.001352024               0.000000000               0.000000000               0.000000000               0.000000000               0.000013052               0.005338448              -0.000039275              -0.000662410               0.002000268               0.001337858               0.000000000               0.000000000               0.000000000               0.000000000               0.001875094               0.010413222               0.002993441              -0.000598494               0.003670536               0.003072043               0.000000000               0.000000000               0.000000000               0.000000000               0.001243660               0.008925604               0.001813443              -0.000649328               0.003191614               0.002542286               0.000000000               0.000000000               0.000000000               0.000000000               0.000969955               0.007960445               0.000649112              -0.000631321               0.002863895               0.002232574               0.000000000               0.000000000               0.000000000               0.000000000               0.000742244               0.007343601               0.000173806              -0.000639607               0.002661045               0.002021438               0.000000000               0.000000000               0.000000000               0.000000000               0.000568729               0.006919535              -0.000036249              -0.000651667               0.002523711               0.001872044               0.000000000               0.000000000               0.000000000               0.000000000               0.000439339               0.006606016              -0.000130562              -0.000660998               0.002422316               0.001761318               0.000000000               0.000000000               0.000000000               0.000000000               0.000341434               0.006358148              -0.000172917              -0.000666729               0.002341605               0.001674875               0.000000000               0.000000000               0.000000000               0.000000000               0.000263196               0.006159584              -0.000193981              -0.000671248               0.002276923               0.001605676               0.000000000               0.000000000               0.000000000               0.000000000               0.000193129               0.006001148              -0.000205853              -0.000677718               0.002226269               0.001548551               0.000000000               0.000000000               0.000000000               0.000000000               0.000133598               0.005868442              -0.000212043              -0.000683454               0.002183946               0.001500492               0.000000000               0.000000000               0.000000000               0.000000000               0.000092375               0.005746292              -0.000208637              -0.000683644               0.002143293               0.001459649               0.000000000               0.000000000               0.000000000               0.000000000               0.000059931               0.005625807              -0.000191988              -0.000680750               0.002102167               0.001421417               0.000000000               0.000000000               0.000000000               0.000000000               0.000037237               0.005512638              -0.000166167              -0.000675114               0.002062566               0.001387452               0.000000000               0.000000000               0.000000000               0.000000000               0.000026387               0.005414785              -0.000135459              -0.000666951               0.002027227               0.001360276               0.000000000               0.000000000               0.000000000               0.000000000               0.000019643               0.005336648              -0.000095784              -0.000659713               0.001998769               0.001339056               0.000000000               0.000000000               0.000000000               0.000000000               0.000012303               0.005281980              -0.000047431              -0.000655632               0.001979187               0.001323554               0.000000000               0.000000000               0.000000000               0.000000000               0.000006949               0.005259773              -0.000023441              -0.000654864               0.001971528               0.001316664               0.000000000               0.000000000               0.000000000               0.000000000               0.001969742               0.008891614               0.003139126              -0.000372801               0.003088108               0.002715307               0.000000000               0.000000000               0.000000000               0.000000000               0.001122361               0.007935468               0.001957081              -0.000571048               0.002835479               0.002264430               0.000000000               0.000000000               0.000000000               0.000000000               0.000609002               0.007454221               0.000796052              -0.000703400               0.002719182               0.002015782               0.000000000               0.000000000               0.000000000               0.000000000               0.000343919               0.007038323               0.000332116              -0.000750819               0.002596357               0.001845538               0.000000000               0.000000000               0.000000000               0.000000000               0.000196270               0.006699323               0.000120913              -0.000763812               0.002487690               0.001723877               0.000000000               0.000000000               0.000000000               0.000000000               0.000107956               0.006420610               0.000020394              -0.000762091               0.002394212               0.001632121               0.000000000               0.000000000               0.000000000               0.000000000               0.000054328               0.006188889              -0.000031961              -0.000753236               0.002314021               0.001560785               0.000000000               0.000000000               0.000000000               0.000000000               0.000019841               0.006002406              -0.000070177              -0.000742859               0.002248401               0.001505543               0.000000000               0.000000000               0.000000000               0.000000000              -0.000005676               0.005853545              -0.000099237              -0.000733820               0.002195769               0.001461949               0.000000000               0.000000000               0.000000000               0.000000000              -0.000024591               0.005717692              -0.000114975              -0.000723931               0.002147189               0.001423257               0.000000000               0.000000000               0.000000000               0.000000000              -0.000033462               0.005584195              -0.000117189              -0.000710571               0.002098237               0.001387666               0.000000000               0.000000000               0.000000000               0.000000000              -0.000033718               0.005459368              -0.000107959              -0.000695063               0.002051459               0.001356395               0.000000000               0.000000000               0.000000000               0.000000000              -0.000026499               0.005350857              -0.000092218              -0.000678792               0.002009865               0.001331073               0.000000000               0.000000000               0.000000000               0.000000000              -0.000016292               0.005262239              -0.000074945              -0.000663888               0.001975358               0.001311470               0.000000000               0.000000000               0.000000000               0.000000000              -0.000007150               0.005193811              -0.000052591              -0.000651906               0.001948555               0.001296649               0.000000000               0.000000000               0.000000000               0.000000000              -0.000000136               0.005143864              -0.000025123              -0.000643032               0.001928948               0.001285916               0.000000000               0.000000000               0.000000000               0.000000000              -0.000001761               0.005116423              -0.000013967              -0.000640212               0.001918861               0.001278649               0.000000000               0.000000000               0.000000000               0.000000000               0.001924496               0.007370966               0.003052317              -0.000199688               0.002523526               0.002323838               0.000000000               0.000000000               0.000000000               0.000000000               0.000944770               0.006952520               0.001996542              -0.000514777               0.002489075               0.001974298               0.000000000               0.000000000               0.000000000               0.000000000               0.000264359               0.006925279               0.000949784              -0.000766524               0.002563911               0.001797387               0.000000000               0.000000000               0.000000000               0.000000000               0.000006620               0.006681144               0.000526540              -0.000832659               0.002504578               0.001671920               0.000000000               0.000000000               0.000000000               0.000000000              -0.000097564               0.006417866               0.000317619              -0.000838818               0.002418873               0.001580055               0.000000000               0.000000000               0.000000000               0.000000000              -0.000136617               0.006179931               0.000203265              -0.000823721               0.002334530               0.001510809               0.000000000               0.000000000               0.000000000               0.000000000              -0.000142462               0.005978163               0.000129941              -0.000800692               0.002259598               0.001458907               0.000000000               0.000000000               0.000000000               0.000000000              -0.000135174               0.005816122               0.000068497              -0.000777704               0.002197922               0.001420219               0.000000000               0.000000000               0.000000000               0.000000000              -0.000126218               0.005674066               0.000021620              -0.000756588               0.002143532               0.001386944               0.000000000               0.000000000               0.000000000               0.000000000              -0.000113868               0.005533219              -0.000005147              -0.000734351               0.002089172               0.001354821               0.000000000               0.000000000               0.000000000               0.000000000              -0.000094395               0.005396561              -0.000020032              -0.000709966               0.002035491               0.001325525               0.000000000               0.000000000               0.000000000               0.000000000              -0.000070876               0.005272789              -0.000028251              -0.000685675               0.001986137               0.001300462               0.000000000               0.000000000               0.000000000               0.000000000              -0.000048660               0.005168436              -0.000031371              -0.000664300               0.001944228               0.001279928               0.000000000               0.000000000               0.000000000               0.000000000              -0.000029311               0.005083510              -0.000032137              -0.000646429               0.001909963               0.001263534               0.000000000               0.000000000               0.000000000               0.000000000              -0.000015154               0.005012830              -0.000027656              -0.000632285               0.001881688               0.001249403               0.000000000               0.000000000               0.000000000               0.000000000              -0.000005062               0.004953902              -0.000014459              -0.000621135               0.001858329               0.001237194               0.000000000               0.000000000               0.000000000               0.000000000              -0.000006772               0.004916514              -0.000009991              -0.000617102               0.001844522               0.001227420               0.000000000               0.000000000               0.000000000               0.000000000               0.001739190               0.005937723               0.002786422              -0.000090023               0.002009228               0.001919205               0.000000000               0.000000000               0.000000000               0.000000000               0.000721968               0.006035111               0.001962539              -0.000483652               0.002172900               0.001689248               0.000000000               0.000000000               0.000000000               0.000000000              -0.000028853               0.006391544               0.001112235              -0.000809762               0.002400414               0.001590652               0.000000000               0.000000000               0.000000000               0.000000000              -0.000240797               0.006289533               0.000730622              -0.000876489               0.002388653               0.001512164               0.000000000               0.000000000               0.000000000               0.000000000              -0.000291552               0.006104280               0.000513392              -0.000872365               0.002325528               0.001453163               0.000000000               0.000000000               0.000000000               0.000000000              -0.000283808               0.005916563               0.000375837              -0.000845996               0.002254167               0.001408170               0.000000000               0.000000000               0.000000000               0.000000000              -0.000252253               0.005753375               0.000277773              -0.000813765               0.002189027               0.001375263               0.000000000               0.000000000               0.000000000               0.000000000              -0.000217166               0.005611986               0.000195943              -0.000782934               0.002131621               0.001348688               0.000000000               0.000000000               0.000000000               0.000000000              -0.000182997               0.005471460               0.000132120              -0.000752555               0.002074653               0.001322099               0.000000000               0.000000000               0.000000000               0.000000000              -0.000143093               0.005328403               0.000088666              -0.000719709               0.002016020               0.001296311               0.000000000               0.000000000               0.000000000               0.000000000              -0.000105046               0.005190493               0.000055160              -0.000688202               0.001959548               0.001271346               0.000000000               0.000000000               0.000000000               0.000000000              -0.000072197               0.005067386               0.000026779              -0.000660495               0.001909277               0.001248782               0.000000000               0.000000000               0.000000000               0.000000000              -0.000048247               0.004961066               0.000003786              -0.000638224               0.001866414               0.001228189               0.000000000               0.000000000               0.000000000               0.000000000              -0.000032102               0.004868491              -0.000011816              -0.000620598               0.001829680               0.001209082               0.000000000               0.000000000               0.000000000               0.000000000              -0.000024069               0.004784937              -0.000017827              -0.000607141               0.001797343               0.001190202               0.000000000               0.000000000               0.000000000               0.000000000              -0.000015445               0.004713280              -0.000012177              -0.000594950               0.001769394               0.001174444               0.000000000               0.000000000               0.000000000               0.000000000              -0.000012017               0.004671317              -0.000009848              -0.000588419               0.001753230               0.001164810               0.000000000               0.000000000               0.000000000               0.000000000               0.001473635               0.004700435               0.002406780              -0.000034945               0.001578443               0.001543499               0.000000000               0.000000000               0.000000000               0.000000000               0.000513144               0.005219049               0.001898224              -0.000459953               0.001892982               0.001433030               0.000000000               0.000000000               0.000000000               0.000000000              -0.000229686               0.005890269               0.001301307              -0.000822415               0.002237541               0.001415127               0.000000000               0.000000000               0.000000000               0.000000000              -0.000385130               0.005935431               0.000945701              -0.000886351               0.002273907               0.001387557               0.000000000               0.000000000               0.000000000               0.000000000              -0.000393383               0.005837498               0.000713109              -0.000877204               0.002238215               0.001361011               0.000000000               0.000000000               0.000000000               0.000000000              -0.000352371               0.005706294               0.000548683              -0.000845424               0.002183887               0.001338463               0.000000000               0.000000000               0.000000000               0.000000000              -0.000298567               0.005581068               0.000424919              -0.000809594               0.002130202               0.001320608               0.000000000               0.000000000               0.000000000               0.000000000              -0.000246359               0.005461023               0.000326689              -0.000775011               0.002078660               0.001303649               0.000000000               0.000000000               0.000000000               0.000000000              -0.000192186               0.005327749               0.000248318              -0.000738037               0.002021911               0.001283874               0.000000000               0.000000000               0.000000000               0.000000000              -0.000130867               0.005184162               0.000185387              -0.000697094               0.001960401               0.001263308               0.000000000               0.000000000               0.000000000               0.000000000              -0.000081009               0.005043374               0.000128689              -0.000660799               0.001901374               0.001240575               0.000000000               0.000000000               0.000000000               0.000000000              -0.000049606               0.004916752               0.000078386              -0.000633195               0.001849966               0.001216771               0.000000000               0.000000000               0.000000000               0.000000000              -0.000038545               0.004801248               0.000038086              -0.000614609               0.001805270               0.001190661               0.000000000               0.000000000               0.000000000               0.000000000              -0.000042186               0.004693570               0.000011140              -0.000602514               0.001765346               0.001162832               0.000000000               0.000000000               0.000000000               0.000000000              -0.000050230               0.004594437              -0.000003057              -0.000593139               0.001729177               0.001136038               0.000000000               0.000000000               0.000000000               0.000000000              -0.000055545               0.004505871              -0.000006084              -0.000584062               0.001696629               0.001112567               0.000000000               0.000000000               0.000000000               0.000000000              -0.000053264               0.004459445              -0.000005863              -0.000577403               0.001678934               0.001101531               0.000000000               0.000000000               0.000000000               0.000000000               0.001111935               0.003525793               0.001978662              -0.000023751               0.001183169               0.001159418               0.000000000               0.000000000               0.000000000               0.000000000               0.000363055               0.004285677               0.001820353              -0.000399565               0.001561732               0.001162167               0.000000000               0.000000000               0.000000000               0.000000000              -0.000299460               0.005186083               0.001516592              -0.000760557               0.001982195               0.001221639               0.000000000               0.000000000               0.000000000               0.000000000              -0.000425799               0.005424632               0.001197976              -0.000837752               0.002087443               0.001249691               0.000000000               0.000000000               0.000000000               0.000000000              -0.000418295               0.005456126               0.000951661              -0.000838874               0.002098315               0.001259441               0.000000000               0.000000000               0.000000000               0.000000000              -0.000370893               0.005417111               0.000760773              -0.000816222               0.002077760               0.001261538               0.000000000               0.000000000               0.000000000               0.000000000              -0.000314897               0.005351054               0.000610803              -0.000786966               0.002045989               0.001259022               0.000000000               0.000000000               0.000000000               0.000000000              -0.000261033               0.005272589               0.000495233              -0.000756959               0.002009832               0.001252873               0.000000000               0.000000000               0.000000000               0.000000000              -0.000205252               0.005180915               0.000403439              -0.000724582               0.001968482               0.001243900               0.000000000               0.000000000               0.000000000               0.000000000              -0.000144596               0.005069044               0.000319405              -0.000687852               0.001918948               0.001231096               0.000000000               0.000000000               0.000000000               0.000000000              -0.000091799               0.004944433               0.000237826              -0.000652477               0.001865620               0.001213143               0.000000000               0.000000000               0.000000000               0.000000000              -0.000056997               0.004825393               0.000163666              -0.000624547               0.001816630               0.001192084               0.000000000               0.000000000               0.000000000               0.000000000              -0.000045422               0.004713803               0.000099271              -0.000606257               0.001773338               0.001167080               0.000000000               0.000000000               0.000000000               0.000000000              -0.000057518               0.004606916               0.000050677              -0.000597432               0.001734767               0.001137335               0.000000000               0.000000000               0.000000000               0.000000000              -0.000082809               0.004507392               0.000017875              -0.000594476               0.001700608               0.001106132               0.000000000               0.000000000               0.000000000               0.000000000              -0.000111927               0.004413306               0.000000902              -0.000593634               0.001668965               0.001075331               0.000000000               0.000000000               0.000000000               0.000000000              -0.000124951               0.004364258              -0.000003290              -0.000592388               0.001652201               0.001059813               0.000000000               0.000000000               0.000000000               0.000000000               0.000593640               0.002441205               0.001520926              -0.000082538               0.000841238               0.000758701               0.000000000               0.000000000               0.000000000               0.000000000               0.000196133               0.003354723               0.001688796              -0.000345792               0.001233493               0.000887701               0.000000000               0.000000000               0.000000000               0.000000000              -0.000291090               0.004398781               0.001684234              -0.000659006               0.001685914               0.001026908               0.000000000               0.000000000               0.000000000               0.000000000              -0.000390453               0.004822138               0.001445362              -0.000749186               0.001857091               0.001107905               0.000000000               0.000000000               0.000000000               0.000000000              -0.000382249               0.005001630               0.001203232              -0.000768546               0.001923375               0.001154829               0.000000000               0.000000000               0.000000000               0.000000000              -0.000340917               0.005069532               0.000996066              -0.000761534               0.001943672               0.001182138               0.000000000               0.000000000               0.000000000               0.000000000              -0.000290189               0.005076844               0.000827829              -0.000743425               0.001940072               0.001196648               0.000000000               0.000000000               0.000000000               0.000000000              -0.000241304               0.005057981               0.000695533              -0.000722735               0.001926888               0.001204153               0.000000000               0.000000000               0.000000000               0.000000000              -0.000191158               0.005024597               0.000590422              -0.000699757               0.001908101               0.001208344               0.000000000               0.000000000               0.000000000               0.000000000              -0.000140139               0.004961177               0.000492935              -0.000672698               0.001877942               0.001205244               0.000000000               0.000000000               0.000000000               0.000000000              -0.000088686               0.004872990               0.000395422              -0.000642380               0.001838440               0.001196061               0.000000000               0.000000000               0.000000000               0.000000000              -0.000050349               0.004773945               0.000300302              -0.000615623               0.001796507               0.001180884               0.000000000               0.000000000               0.000000000               0.000000000              -0.000033972               0.004672954               0.000210270              -0.000596857               0.001756588               0.001159731               0.000000000               0.000000000               0.000000000               0.000000000              -0.000044481               0.004574590               0.000131619              -0.000588503               0.001721016               0.001132513               0.000000000               0.000000000               0.000000000               0.000000000              -0.000082560               0.004481782               0.000067607              -0.000591181               0.001690973               0.001099792               0.000000000               0.000000000               0.000000000               0.000000000              -0.000139383               0.004396845               0.000023638              -0.000601873               0.001666225               0.001064352               0.000000000               0.000000000               0.000000000               0.000000000              -0.000180614               0.004348481               0.000003957              -0.000611289               0.001653242               0.001041953               0.000000000               0.000000000               0.000000000               0.000000000              -0.000040088               0.001521934               0.001055431              -0.000205275               0.000575731               0.000370455               0.000000000               0.000000000               0.000000000               0.000000000              -0.000032450               0.002472400               0.001474935              -0.000321219               0.000931197               0.000609978               0.000000000               0.000000000               0.000000000               0.000000000              -0.000247742               0.003534440               0.001725679              -0.000534708               0.001356370               0.000821662               0.000000000               0.000000000               0.000000000               0.000000000              -0.000286027               0.004094340               0.001594063              -0.000619052               0.001571117               0.000952064               0.000000000               0.000000000               0.000000000               0.000000000              -0.000272340               0.004408478               0.001388146              -0.000653186               0.001687207               0.001034020               0.000000000               0.000000000               0.000000000               0.000000000              -0.000239417               0.004588164               0.001187901              -0.000663301               0.001750473               0.001087172               0.000000000               0.000000000               0.000000000               0.000000000              -0.000199759               0.004687138               0.001014704              -0.000660801               0.001782630               0.001121830               0.000000000               0.000000000               0.000000000               0.000000000              -0.000159750               0.004743084               0.000874513              -0.000652790               0.001798609               0.001145818               0.000000000               0.000000000               0.000000000               0.000000000              -0.000120976               0.004778025               0.000760566              -0.000642618               0.001806865               0.001164247               0.000000000               0.000000000               0.000000000               0.000000000              -0.000082449               0.004781230               0.000656595              -0.000628571               0.001803251               0.001174680               0.000000000               0.000000000               0.000000000               0.000000000              -0.000042205               0.004746463               0.000552515              -0.000609133               0.001785183               0.001176049               0.000000000               0.000000000               0.000000000               0.000000000              -0.000008017               0.004684483               0.000446809              -0.000588566               0.001757667               0.001169102               0.000000000               0.000000000               0.000000000               0.000000000               0.000013142               0.004608417               0.000343429              -0.000571123               0.001726498               0.001155375               0.000000000               0.000000000               0.000000000               0.000000000               0.000011599               0.004526799               0.000243218              -0.000561499               0.001696084               0.001134585               0.000000000               0.000000000               0.000000000               0.000000000              -0.000020765               0.004447064               0.000148266              -0.000563668               0.001670229               0.001106561               0.000000000               0.000000000               0.000000000               0.000000000              -0.000087692               0.004378736               0.000066374              -0.000580225               0.001652972               0.001072747               0.000000000               0.000000000               0.000000000               0.000000000              -0.000151344               0.004334433               0.000022453              -0.000598557               0.001644315               0.001045759               0.000000000               0.000000000               0.000000000               0.000000000              -0.000741310               0.000815236               0.000636044              -0.000379896               0.000398374               0.000018478               0.000000000               0.000000000               0.000000000               0.000000000              -0.000307754               0.001689123               0.001197602              -0.000326548               0.000671884               0.000345336               0.000000000               0.000000000               0.000000000               0.000000000              -0.000195431               0.002664359               0.001619101              -0.000406332               0.001023554               0.000617222               0.000000000               0.000000000               0.000000000               0.000000000              -0.000131458               0.003297213               0.001596214              -0.000461449               0.001252876               0.000791427               0.000000000               0.000000000               0.000000000               0.000000000              -0.000092074               0.003713847               0.001450603              -0.000498759               0.001404189               0.000905430               0.000000000               0.000000000               0.000000000               0.000000000              -0.000064704               0.003995650               0.001280527              -0.000523720               0.001506443               0.000982723               0.000000000               0.000000000               0.000000000               0.000000000              -0.000036950               0.004188428               0.001122083              -0.000537409               0.001575265               0.001037856               0.000000000               0.000000000               0.000000000               0.000000000              -0.000009212               0.004325658               0.000985914              -0.000544161               0.001623258               0.001079097               0.000000000               0.000000000               0.000000000               0.000000000               0.000014822               0.004434991               0.000869900              -0.000548815               0.001661254               0.001112439               0.000000000               0.000000000               0.000000000               0.000000000               0.000037824               0.004512775               0.000766314              -0.000549912               0.001687547               0.001137635               0.000000000               0.000000000               0.000000000               0.000000000               0.000064251               0.004546111               0.000664048              -0.000544169               0.001696745               0.001152576               0.000000000               0.000000000               0.000000000               0.000000000               0.000092347               0.004540348               0.000560476              -0.000532912               0.001691071               0.001158159               0.000000000               0.000000000               0.000000000               0.000000000               0.000116827               0.004509401               0.000456746              -0.000519864               0.001676406               0.001156543               0.000000000               0.000000000               0.000000000               0.000000000               0.000126513               0.004459372               0.000349736              -0.000509978               0.001656435               0.001146457               0.000000000               0.000000000               0.000000000               0.000000000               0.000112359               0.004404574               0.000237154              -0.000508436               0.001637655               0.001129219               0.000000000               0.000000000               0.000000000               0.000000000               0.000062822               0.004359904               0.000119416              -0.000521428               0.001627096               0.001105668               0.000000000               0.000000000               0.000000000               0.000000000               0.000002561               0.004326213               0.000052273              -0.000539815               0.001621995               0.001082180               0.000000000               0.000000000               0.000000000               0.000000000              -0.001443611               0.000321770               0.000313943              -0.000581575               0.000301113              -0.000280462               0.000000000               0.000000000               0.000000000               0.000000000              -0.000606985               0.001051836               0.000889847              -0.000359099               0.000470307               0.000111208               0.000000000               0.000000000               0.000000000               0.000000000              -0.000149578               0.001871131               0.001365247              -0.000289984               0.000720365               0.000430381               0.000000000               0.000000000               0.000000000               0.000000000               0.000046180               0.002514509               0.001421469              -0.000296997               0.000937159               0.000640163               0.000000000               0.000000000               0.000000000               0.000000000               0.000131554               0.002991069               0.001338042              -0.000324551               0.001105196               0.000780645               0.000000000               0.000000000               0.000000000               0.000000000               0.000167956               0.003349929               0.001215161              -0.000355758               0.001235218               0.000879460               0.000000000               0.000000000               0.000000000               0.000000000               0.000187471               0.003625630               0.001090360              -0.000382902               0.001336165               0.000953263               0.000000000               0.000000000               0.000000000               0.000000000               0.000199429               0.003841264               0.000973908              -0.000405372               0.001415532               0.001010160               0.000000000               0.000000000               0.000000000               0.000000000               0.000207840               0.004021135               0.000870134              -0.000424701               0.001481932               0.001057231               0.000000000               0.000000000               0.000000000               0.000000000               0.000213911               0.004168211               0.000777186              -0.000440809               0.001536326               0.001095517               0.000000000               0.000000000               0.000000000               0.000000000               0.000223622               0.004273863               0.000686332              -0.000450374               0.001574731               0.001124358               0.000000000               0.000000000               0.000000000               0.000000000               0.000241771               0.004342625               0.000593786              -0.000452163               0.001598248               0.001146085               0.000000000               0.000000000               0.000000000               0.000000000               0.000265475               0.004377298               0.000500401              -0.000447608               0.001608287               0.001160679               0.000000000               0.000000000               0.000000000               0.000000000               0.000291159               0.004380674               0.000401261              -0.000438399               0.001606343               0.001167944               0.000000000               0.000000000               0.000000000               0.000000000               0.000310727               0.004364443               0.000288913              -0.000429032               0.001597810               0.001168779               0.000000000               0.000000000               0.000000000               0.000000000               0.000313442               0.004342113               0.000155393              -0.000425222               0.001589097               0.001163875               0.000000000               0.000000000               0.000000000               0.000000000               0.000298478               0.004324598               0.000079249              -0.000428644               0.001584400               0.001155755               0.000000000               0.000000000               0.000000000               0.000000000              -0.002056221               0.000019924               0.000112757              -0.000773573               0.000264497              -0.000509076               0.000000000               0.000000000               0.000000000               0.000000000              -0.000884465               0.000585649               0.000581328              -0.000404880               0.000330174              -0.000074707               0.000000000               0.000000000               0.000000000               0.000000000              -0.000113574               0.001227615               0.000987691              -0.000196043               0.000474548               0.000278505               0.000000000               0.000000000               0.000000000               0.000000000               0.000212409               0.001842550               0.001068568              -0.000150666               0.000664399               0.000513732               0.000000000               0.000000000               0.000000000               0.000000000               0.000352178               0.002346708               0.001032266              -0.000161273               0.000835985               0.000674713               0.000000000               0.000000000               0.000000000               0.000000000               0.000408373               0.002756713               0.000958834              -0.000191450               0.000982711               0.000791262               0.000000000               0.000000000               0.000000000               0.000000000               0.000424901               0.003095108               0.000876203              -0.000227551               0.001107542               0.000879992               0.000000000               0.000000000               0.000000000               0.000000000               0.000425611               0.003374999               0.000794167              -0.000262270               0.001212412               0.000950141               0.000000000               0.000000000               0.000000000               0.000000000               0.000421311               0.003610893               0.000717253              -0.000293370               0.001301409               0.001008039               0.000000000               0.000000000               0.000000000               0.000000000               0.000413538               0.003812867               0.000647281              -0.000321531               0.001378120               0.001056589               0.000000000               0.000000000               0.000000000               0.000000000               0.000408239               0.003983305               0.000578789              -0.000344823               0.001442696               0.001097873               0.000000000               0.000000000               0.000000000               0.000000000               0.000415722               0.004119606               0.000507405              -0.000359054               0.001492873               0.001133819               0.000000000               0.000000000               0.000000000               0.000000000               0.000438378               0.004217455               0.000435181              -0.000362789               0.001526734               0.001163945               0.000000000               0.000000000               0.000000000               0.000000000               0.000477560               0.004275696               0.000357259              -0.000355376               0.001543676               0.001188300               0.000000000               0.000000000               0.000000000               0.000000000               0.000534086               0.004305017               0.000264570              -0.000337844               0.001547606               0.001209762               0.000000000               0.000000000               0.000000000               0.000000000               0.000607640               0.004318801               0.000146199              -0.000311984               0.001543581               0.001231596               0.000000000               0.000000000               0.000000000               0.000000000               0.000665165               0.004328137               0.000080392              -0.000291580               0.001539891               0.001248312               0.000000000               0.000000000               0.000000000               0.000000000              -0.002476668              -0.000137469               0.000022558              -0.000911566               0.000258031              -0.000653536               0.000000000               0.000000000               0.000000000               0.000000000              -0.001079194               0.000300000               0.000284655              -0.000442197               0.000247397              -0.000194800               0.000000000               0.000000000               0.000000000               0.000000000              -0.000088674               0.000803251               0.000518293              -0.000133659               0.000312300               0.000178641               0.000000000               0.000000000               0.000000000               0.000000000               0.000332284               0.001384057               0.000573717              -0.000048401               0.000477481               0.000429080               0.000000000               0.000000000               0.000000000               0.000000000               0.000514538               0.001902818               0.000561922              -0.000044901               0.000649233               0.000604332               0.000000000               0.000000000               0.000000000               0.000000000               0.000586469               0.002340889               0.000529116              -0.000072686               0.000804517               0.000731831               0.000000000               0.000000000               0.000000000               0.000000000               0.000605575               0.002712537               0.000489616              -0.000111977               0.000941495               0.000829519               0.000000000               0.000000000               0.000000000               0.000000000               0.000601039               0.003031468               0.000449010              -0.000153544               0.001061660               0.000908117               0.000000000               0.000000000               0.000000000               0.000000000               0.000589565               0.003306962               0.000409076              -0.000192283               0.001166404               0.000974121               0.000000000               0.000000000               0.000000000               0.000000000               0.000577217               0.003543892               0.000370802              -0.000226530               0.001256795               0.001030266               0.000000000               0.000000000               0.000000000               0.000000000               0.000568432               0.003747882               0.000333402              -0.000255323               0.001334389               0.001079066               0.000000000               0.000000000               0.000000000               0.000000000               0.000572657               0.003921900               0.000294323              -0.000275490               0.001399117               0.001123627               0.000000000               0.000000000               0.000000000               0.000000000               0.000593917               0.004058435               0.000253968              -0.000284585               0.001447660               0.001163075               0.000000000               0.000000000               0.000000000               0.000000000               0.000636818               0.004159257               0.000209594              -0.000281100               0.001480105               0.001199005               0.000000000               0.000000000               0.000000000               0.000000000               0.000711874               0.004232927               0.000155335              -0.000262163               0.001498349               0.001236186               0.000000000               0.000000000               0.000000000               0.000000000               0.000829925               0.004283743               0.000085881              -0.000224246               0.001502649               0.001278403               0.000000000               0.000000000               0.000000000               0.000000000               0.000937641               0.004316824               0.000049105              -0.000187987               0.001501590               0.001313602               0.000000000               0.000000000               0.000000000               0.000000000              -0.002625919              -0.000187114               0.000000000              -0.000961330               0.000258070              -0.000703259               0.000000000               0.000000000               0.000000000               0.000000000              -0.001148313               0.000203868              -0.000000000              -0.000456100               0.000219988              -0.000236112               0.000000000               0.000000000               0.000000000               0.000000000              -0.000079753               0.000655376              -0.000000000              -0.000111829               0.000255733               0.000143903               0.000000000               0.000000000               0.000000000               0.000000000               0.000376087               0.001220318               0.000000000              -0.000011507               0.000410604               0.000399097               0.000000000               0.000000000               0.000000000               0.000000000               0.000573231               0.001743316              -0.000000000              -0.000002953               0.000582084               0.000579131               0.000000000               0.000000000               0.000000000               0.000000000               0.000653073               0.002191747              -0.000000000              -0.000029066               0.000740264               0.000711198               0.000000000               0.000000000               0.000000000               0.000000000               0.000674064               0.002573839               0.000000000              -0.000068956               0.000880923               0.000811967               0.000000000               0.000000000               0.000000000               0.000000000               0.000668451               0.002906789              -0.000000000              -0.000112679               0.001006480               0.000893801               0.000000000               0.000000000               0.000000000               0.000000000               0.000652969               0.003196836              -0.000000000              -0.000154741               0.001117182               0.000962441               0.000000000               0.000000000               0.000000000               0.000000000               0.000639423               0.003442771              -0.000000000              -0.000190562               0.001211100               0.001020537               0.000000000               0.000000000               0.000000000               0.000000000               0.000633258               0.003653517              -0.000000000              -0.000219217               0.001290899               0.001071682               0.000000000               0.000000000               0.000000000               0.000000000               0.000638378               0.003837488               0.000000000              -0.000240294               0.001359248               0.001118954               0.000000000               0.000000000               0.000000000               0.000000000               0.000658625               0.003988123              -0.000000000              -0.000251530               0.001413204               0.001161674               0.000000000               0.000000000               0.000000000               0.000000000               0.000700133               0.004106204               0.000000000              -0.000250725               0.001452296               0.001201571               0.000000000               0.000000000               0.000000000               0.000000000               0.000777656               0.004198143               0.000000000              -0.000233146               0.001477083               0.001243936               0.000000000               0.000000000               0.000000000               0.000000000               0.000908214               0.004268233              -0.000000000              -0.000192948               0.001487046               0.001294098               0.000000000               0.000000000               0.000000000               0.000000000               0.001029640               0.004312502              -0.000000000              -0.000152947               0.001488469               0.001335521               0.000000000               0.000000000               0.000000000               0.000000000               0.001227191               0.013924549               0.000000000              -0.001280369               0.005068260               0.003787891               0.000000000               0.000000000               0.000000000               0.000000000               0.001303189               0.011302263               0.000000000              -0.000924085               0.004075412               0.003151327               0.000000000               0.000000000               0.000000000               0.000000000               0.001791299               0.009176630              -0.000000000              -0.000475340               0.003217293               0.002741953               0.000000000               0.000000000               0.000000000               0.000000000               0.001837232               0.007983789              -0.000000000              -0.000309011               0.002764240               0.002455229               0.000000000               0.000000000               0.000000000               0.000000000               0.001723385               0.007261870               0.000000000              -0.000261464               0.002507754               0.002246290               0.000000000               0.000000000               0.000000000               0.000000000               0.001549697               0.006796362               0.000000000              -0.000268408               0.002354901               0.002086492               0.000000000               0.000000000               0.000000000               0.000000000               0.001361540               0.006486592              -0.000000000              -0.000300246               0.002262258               0.001962012               0.000000000               0.000000000               0.000000000               0.000000000               0.001182478               0.006270469               0.000000000              -0.000340379               0.002203595               0.001863216               0.000000000               0.000000000               0.000000000               0.000000000               0.001013703               0.006108802               0.000000000              -0.000383461               0.002164067               0.001780606               0.000000000               0.000000000               0.000000000               0.000000000               0.000851860               0.005987290               0.000000000              -0.000428963               0.002138731               0.001709768               0.000000000               0.000000000               0.000000000               0.000000000               0.000697449               0.005899545               0.000000000              -0.000475899               0.002125128               0.001649230               0.000000000               0.000000000               0.000000000               0.000000000               0.000546351               0.005828750               0.000000000              -0.000523711               0.002117468               0.001593757               0.000000000               0.000000000               0.000000000               0.000000000               0.000403288               0.005760459               0.000000000              -0.000568823               0.002109742               0.001540919               0.000000000               0.000000000               0.000000000               0.000000000               0.000273427               0.005684397               0.000000000              -0.000608013               0.002097451               0.001489438               0.000000000               0.000000000               0.000000000               0.000000000               0.000162792               0.005592202              -0.000000000              -0.000637977               0.002076708               0.001438731               0.000000000               0.000000000               0.000000000               0.000000000               0.000073709               0.005472834               0.000000000              -0.000656462               0.002043080               0.001386619               0.000000000               0.000000000               0.000000000               0.000000000               0.000024662               0.005376570               0.000000000              -0.000662821               0.002013112               0.001350291               0.000000000               0.000000000               0.000000000               0.000000000               0.001294188               0.013670776              -0.001022368              -0.001223524               0.004964721               0.003741197               0.000000000               0.000000000               0.000000000               0.000000000               0.001311299               0.011123887              -0.000609318              -0.000898747               0.004007508               0.003108761               0.000000000               0.000000000               0.000000000               0.000000000               0.001733657               0.009080562              -0.000189050              -0.000484948               0.003188473               0.002703525               0.000000000               0.000000000               0.000000000               0.000000000               0.001750224               0.007936753               0.000001403              -0.000335759               0.002757478               0.002421718               0.000000000               0.000000000               0.000000000               0.000000000               0.001627801               0.007242877               0.000089675              -0.000294933               0.002512579               0.002217646               0.000000000               0.000000000               0.000000000               0.000000000               0.001456055               0.006796226               0.000129227              -0.000303507               0.002366555               0.002063048               0.000000000               0.000000000               0.000000000               0.000000000               0.001272490               0.006493598               0.000144318              -0.000334515               0.002276016               0.001941501               0.000000000               0.000000000               0.000000000               0.000000000               0.001096878               0.006278866               0.000144579              -0.000373528               0.002217444               0.001843916               0.000000000               0.000000000               0.000000000               0.000000000               0.000933360               0.006119534               0.000139816              -0.000414931               0.002178134               0.001763204               0.000000000               0.000000000               0.000000000               0.000000000               0.000780773               0.006000698               0.000137792              -0.000457296               0.002152645               0.001695348               0.000000000               0.000000000               0.000000000               0.000000000               0.000635152               0.005908692               0.000135209              -0.000500403               0.002136345               0.001635942               0.000000000               0.000000000               0.000000000               0.000000000               0.000495601               0.005829422               0.000127896              -0.000542826               0.002124063               0.001581237               0.000000000               0.000000000               0.000000000               0.000000000               0.000366099               0.005753861               0.000116509              -0.000581944               0.002111916               0.001529972               0.000000000               0.000000000               0.000000000               0.000000000               0.000247348               0.005671756               0.000100670              -0.000616212               0.002095971               0.001479758               0.000000000               0.000000000               0.000000000               0.000000000               0.000145631               0.005576402               0.000077268              -0.000642437               0.002072928               0.001430491               0.000000000               0.000000000               0.000000000               0.000000000               0.000065234               0.005460299               0.000043228              -0.000658073               0.002039439               0.001381366               0.000000000               0.000000000               0.000000000               0.000000000               0.000020793               0.005368970               0.000026310              -0.000663322               0.002010746               0.001347424               0.000000000               0.000000000               0.000000000               0.000000000               0.001469426               0.012938153              -0.001913143              -0.001066233               0.004668085               0.003601853               0.000000000               0.000000000               0.000000000               0.000000000               0.001322543               0.010616236              -0.001136657              -0.000831074               0.003815735               0.002984660               0.000000000               0.000000000               0.000000000               0.000000000               0.001568585               0.008816352              -0.000352513              -0.000513824               0.003110029               0.002596206               0.000000000               0.000000000               0.000000000               0.000000000               0.001508550               0.007807000              -0.000007856              -0.000410168               0.002739030               0.002328862               0.000000000               0.000000000               0.000000000               0.000000000               0.001357583               0.007186186               0.000147353              -0.000389179               0.002525097               0.002135919               0.000000000               0.000000000               0.000000000               0.000000000               0.001185946               0.006778663               0.000214406              -0.000402602               0.002393733               0.001991130               0.000000000               0.000000000               0.000000000               0.000000000               0.001020441               0.006494777               0.000238844              -0.000429181               0.002307964               0.001878784               0.000000000               0.000000000               0.000000000               0.000000000               0.000868345               0.006287675               0.000242236              -0.000460329               0.002249314               0.001788985               0.000000000               0.000000000               0.000000000               0.000000000               0.000726334               0.006132496               0.000239643              -0.000494186               0.002208873               0.001714688               0.000000000               0.000000000               0.000000000               0.000000000               0.000595652               0.006011343               0.000238048              -0.000528047               0.002179777               0.001651730               0.000000000               0.000000000               0.000000000               0.000000000               0.000473863               0.005908333               0.000232706              -0.000560841               0.002156372               0.001595530               0.000000000               0.000000000               0.000000000               0.000000000               0.000364774               0.005815066               0.000220788              -0.000590091               0.002135033               0.001544942               0.000000000               0.000000000               0.000000000               0.000000000               0.000270504               0.005723994               0.000201729              -0.000614059               0.002112665               0.001498607               0.000000000               0.000000000               0.000000000               0.000000000               0.000184726               0.005629421               0.000174101              -0.000634404               0.002087923               0.001453519               0.000000000               0.000000000               0.000000000               0.000000000               0.000111166               0.005531762               0.000134522              -0.000649781               0.002060496               0.001410715               0.000000000               0.000000000               0.000000000               0.000000000               0.000051285               0.005430496               0.000075900              -0.000659578               0.002030007               0.001370428               0.000000000               0.000000000               0.000000000               0.000000000               0.000017534               0.005361728               0.000044416              -0.000663639               0.002008438               0.001344799               0.000000000               0.000000000               0.000000000               0.000000000               0.001687845               0.011810697              -0.002583182              -0.000843395               0.004217991               0.003374596               0.000000000               0.000000000               0.000000000               0.000000000               0.001307840               0.009851489              -0.001541276              -0.000740995               0.003530795               0.002789800               0.000000000               0.000000000               0.000000000               0.000000000               0.001305018               0.008427064              -0.000501995              -0.000564000               0.002996993               0.002432993               0.000000000               0.000000000               0.000000000               0.000000000               0.001152197               0.007603294              -0.000063389              -0.000518337               0.002707185               0.002188848               0.000000000               0.000000000               0.000000000               0.000000000               0.000978422               0.007080470               0.000129596              -0.000518149               0.002532849               0.002014700               0.000000000               0.000000000               0.000000000               0.000000000               0.000819286               0.006721009               0.000214734              -0.000532893               0.002417945               0.001885052               0.000000000               0.000000000               0.000000000               0.000000000               0.000682734               0.006457569               0.000249639              -0.000551170               0.002336225               0.001785055               0.000000000               0.000000000               0.000000000               0.000000000               0.000565938               0.006257395               0.000260622              -0.000569946               0.002275760               0.001705813               0.000000000               0.000000000               0.000000000               0.000000000               0.000456343               0.006100558               0.000262944              -0.000591440               0.002230645               0.001639206               0.000000000               0.000000000               0.000000000               0.000000000               0.000356118               0.005970998               0.000262614              -0.000612829               0.002194589               0.001581760               0.000000000               0.000000000               0.000000000               0.000000000               0.000272492               0.005858397               0.000257272              -0.000630114               0.002162817               0.001532704               0.000000000               0.000000000               0.000000000               0.000000000               0.000201781               0.005750963               0.000241958              -0.000643201               0.002131369               0.001488168               0.000000000               0.000000000               0.000000000               0.000000000               0.000144904               0.005644679               0.000215860              -0.000651244               0.002098622               0.001447378               0.000000000               0.000000000               0.000000000               0.000000000               0.000101437               0.005543557               0.000182049              -0.000654904               0.002066135               0.001411231               0.000000000               0.000000000               0.000000000               0.000000000               0.000065837               0.005452389               0.000135996              -0.000656858               0.002036398               0.001379540               0.000000000               0.000000000               0.000000000               0.000000000               0.000032015               0.005376150               0.000072974              -0.000660011               0.002012036               0.001352024               0.000000000               0.000000000               0.000000000               0.000000000               0.000013052               0.005338448               0.000039275              -0.000662410               0.002000268               0.001337858               0.000000000               0.000000000               0.000000000               0.000000000               0.001875094               0.010413222              -0.002993441              -0.000598494               0.003670536               0.003072043               0.000000000               0.000000000               0.000000000               0.000000000               0.001243660               0.008925604              -0.001813443              -0.000649328               0.003191614               0.002542286               0.000000000               0.000000000               0.000000000               0.000000000               0.000969955               0.007960445              -0.000649112              -0.000631321               0.002863895               0.002232574               0.000000000               0.000000000               0.000000000               0.000000000               0.000742244               0.007343601              -0.000173806              -0.000639607               0.002661045               0.002021438               0.000000000               0.000000000               0.000000000               0.000000000               0.000568729               0.006919535               0.000036249              -0.000651667               0.002523711               0.001872044               0.000000000               0.000000000               0.000000000               0.000000000               0.000439339               0.006606016               0.000130562              -0.000660998               0.002422316               0.001761318               0.000000000               0.000000000               0.000000000               0.000000000               0.000341434               0.006358148               0.000172917              -0.000666729               0.002341605               0.001674875               0.000000000               0.000000000               0.000000000               0.000000000               0.000263196               0.006159584               0.000193981              -0.000671248               0.002276923               0.001605676               0.000000000               0.000000000               0.000000000               0.000000000               0.000193129               0.006001148               0.000205853              -0.000677718               0.002226269               0.001548551               0.000000000               0.000000000               0.000000000               0.000000000               0.000133598               0.005868442               0.000212043              -0.000683454               0.002183946               0.001500492               0.000000000               0.000000000               0.000000000               0.000000000               0.000092375               0.005746292               0.000208637              -0.000683644               0.002143293               0.001459649               0.000000000               0.000000000               0.000000000               0.000000000               0.000059931               0.005625807               0.000191988              -0.000680750               0.002102167               0.001421417               0.000000000               0.000000000               0.000000000               0.000000000               0.000037237               0.005512638               0.000166167              -0.000675114               0.002062566               0.001387452               0.000000000               0.000000000               0.000000000               0.000000000               0.000026387               0.005414785               0.000135459              -0.000666951               0.002027227               0.001360276               0.000000000               0.000000000               0.000000000               0.000000000               0.000019643               0.005336648               0.000095784              -0.000659713               0.001998769               0.001339056               0.000000000               0.000000000               0.000000000               0.000000000               0.000012303               0.005281980               0.000047431              -0.000655632               0.001979187               0.001323554               0.000000000               0.000000000               0.000000000               0.000000000               0.000006949               0.005259773               0.000023441              -0.000654864               0.001971528               0.001316664               0.000000000               0.000000000               0.000000000               0.000000000               0.001969742               0.008891614              -0.003139126              -0.000372801               0.003088108               0.002715307               0.000000000               0.000000000               0.000000000               0.000000000               0.001122361               0.007935468              -0.001957081              -0.000571048               0.002835479               0.002264430               0.000000000               0.000000000               0.000000000               0.000000000               0.000609002               0.007454221              -0.000796052              -0.000703400               0.002719182               0.002015782               0.000000000               0.000000000               0.000000000               0.000000000               0.000343919               0.007038323              -0.000332116              -0.000750819               0.002596357               0.001845538               0.000000000               0.000000000               0.000000000               0.000000000               0.000196270               0.006699323              -0.000120913              -0.000763812               0.002487690               0.001723877               0.000000000               0.000000000               0.000000000               0.000000000               0.000107956               0.006420610              -0.000020394              -0.000762091               0.002394212               0.001632121               0.000000000               0.000000000               0.000000000               0.000000000               0.000054328               0.006188889               0.000031961              -0.000753236               0.002314021               0.001560785               0.000000000               0.000000000               0.000000000               0.000000000               0.000019841               0.006002406               0.000070177              -0.000742859               0.002248401               0.001505543               0.000000000               0.000000000               0.000000000               0.000000000              -0.000005676               0.005853545               0.000099237              -0.000733820               0.002195769               0.001461949               0.000000000               0.000000000               0.000000000               0.000000000              -0.000024591               0.005717692               0.000114975              -0.000723931               0.002147189               0.001423257               0.000000000               0.000000000               0.000000000               0.000000000              -0.000033462               0.005584195               0.000117189              -0.000710571               0.002098237               0.001387666               0.000000000               0.000000000               0.000000000               0.000000000              -0.000033718               0.005459368               0.000107959              -0.000695063               0.002051459               0.001356395               0.000000000               0.000000000               0.000000000               0.000000000              -0.000026499               0.005350857               0.000092218              -0.000678792               0.002009865               0.001331073               0.000000000               0.000000000               0.000000000               0.000000000              -0.000016292               0.005262239               0.000074945              -0.000663888               0.001975358               0.001311470               0.000000000               0.000000000               0.000000000               0.000000000              -0.000007150               0.005193811               0.000052591              -0.000651906               0.001948555               0.001296649               0.000000000               0.000000000               0.000000000               0.000000000              -0.000000136               0.005143864               0.000025123              -0.000643032               0.001928948               0.001285916               0.000000000               0.000000000               0.000000000               0.000000000              -0.000001761               0.005116423               0.000013967              -0.000640212               0.001918861               0.001278649               0.000000000               0.000000000               0.000000000               0.000000000               0.001924496               0.007370966              -0.003052317              -0.000199688               0.002523526               0.002323838               0.000000000               0.000000000               0.000000000               0.000000000               0.000944770               0.006952520              -0.001996542              -0.000514777               0.002489075               0.001974298               0.000000000               0.000000000               0.000000000               0.000000000               0.000264359               0.006925279              -0.000949784              -0.000766524               0.002563911               0.001797387               0.000000000               0.000000000               0.000000000               0.000000000               0.000006620               0.006681144              -0.000526540              -0.000832659               0.002504578               0.001671920               0.000000000               0.000000000               0.000000000               0.000000000              -0.000097564               0.006417866              -0.000317619              -0.000838818               0.002418873               0.001580055               0.000000000               0.000000000               0.000000000               0.000000000              -0.000136617               0.006179931              -0.000203265              -0.000823721               0.002334530               0.001510809               0.000000000               0.000000000               0.000000000               0.000000000              -0.000142462               0.005978163              -0.000129941              -0.000800692               0.002259598               0.001458907               0.000000000               0.000000000               0.000000000               0.000000000              -0.000135174               0.005816122              -0.000068497              -0.000777704               0.002197922               0.001420219               0.000000000               0.000000000               0.000000000               0.000000000              -0.000126218               0.005674066              -0.000021620              -0.000756588               0.002143532               0.001386944               0.000000000               0.000000000               0.000000000               0.000000000              -0.000113868               0.005533219               0.000005147              -0.000734351               0.002089172               0.001354821               0.000000000               0.000000000               0.000000000               0.000000000              -0.000094395               0.005396561               0.000020032              -0.000709966               0.002035491               0.001325525               0.000000000               0.000000000               0.000000000               0.000000000              -0.000070876               0.005272789               0.000028251              -0.000685675               0.001986137               0.001300462               0.000000000               0.000000000               0.000000000               0.000000000              -0.000048660               0.005168436               0.000031371              -0.000664300               0.001944228               0.001279928               0.000000000               0.000000000               0.000000000               0.000000000              -0.000029311               0.005083510               0.000032137              -0.000646429               0.001909963               0.001263534               0.000000000               0.000000000               0.000000000               0.000000000              -0.000015154               0.005012830               0.000027656              -0.000632285               0.001881688               0.001249403               0.000000000               0.000000000               0.000000000               0.000000000              -0.000005062               0.004953902               0.000014459              -0.000621135               0.001858329               0.001237194               0.000000000               0.000000000               0.000000000               0.000000000              -0.000006772               0.004916514               0.000009991              -0.000617102               0.001844522               0.001227420               0.000000000               0.000000000               0.000000000               0.000000000               0.001739190               0.005937723              -0.002786422              -0.000090023               0.002009228               0.001919205               0.000000000               0.000000000               0.000000000               0.000000000               0.000721968               0.006035111              -0.001962539              -0.000483652               0.002172900               0.001689248               0.000000000               0.000000000               0.000000000               0.000000000              -0.000028853               0.006391544              -0.001112235              -0.000809762               0.002400414               0.001590652               0.000000000               0.000000000               0.000000000               0.000000000              -0.000240797               0.006289533              -0.000730622              -0.000876489               0.002388653               0.001512164               0.000000000               0.000000000               0.000000000               0.000000000              -0.000291552               0.006104280              -0.000513392              -0.000872365               0.002325528               0.001453163               0.000000000               0.000000000               0.000000000               0.000000000              -0.000283808               0.005916563              -0.000375837              -0.000845996               0.002254167               0.001408170               0.000000000               0.000000000               0.000000000               0.000000000              -0.000252253               0.005753375              -0.000277773              -0.000813765               0.002189027               0.001375263               0.000000000               0.000000000               0.000000000               0.000000000              -0.000217166               0.005611986              -0.000195943              -0.000782934               0.002131621               0.001348688               0.000000000               0.000000000               0.000000000               0.000000000              -0.000182997               0.005471460              -0.000132120              -0.000752555               0.002074653               0.001322099               0.000000000               0.000000000               0.000000000               0.000000000              -0.000143093               0.005328403              -0.000088666              -0.000719709               0.002016020               0.001296311               0.000000000               0.000000000               0.000000000               0.000000000              -0.000105046               0.005190493              -0.000055160              -0.000688202               0.001959548               0.001271346               0.000000000               0.000000000               0.000000000               0.000000000              -0.000072197               0.005067386              -0.000026779              -0.000660495               0.001909277               0.001248782               0.000000000               0.000000000               0.000000000               0.000000000              -0.000048247               0.004961066              -0.000003786              -0.000638224               0.001866414               0.001228189               0.000000000               0.000000000               0.000000000               0.000000000              -0.000032102               0.004868491               0.000011816              -0.000620598               0.001829680               0.001209082               0.000000000               0.000000000               0.000000000               0.000000000              -0.000024069               0.004784937               0.000017827              -0.000607141               0.001797343               0.001190202               0.000000000               0.000000000               0.000000000               0.000000000              -0.000015445               0.004713280               0.000012177              -0.000594950               0.001769394               0.001174444               0.000000000               0.000000000               0.000000000               0.000000000              -0.000012017               0.004671317               0.000009848              -0.000588419               0.001753230               0.001164810               0.000000000               0.000000000               0.000000000               0.000000000               0.001473635               0.004700435              -0.002406780              -0.000034945               0.001578443               0.001543499               0.000000000               0.000000000               0.000000000               0.000000000               0.000513144               0.005219049              -0.001898224              -0.000459953               0.001892982               0.001433030               0.000000000               0.000000000               0.000000000               0.000000000              -0.000229686               0.005890269              -0.001301307              -0.000822415               0.002237541               0.001415127               0.000000000               0.000000000               0.000000000               0.000000000              -0.000385130               0.005935431              -0.000945701              -0.000886351               0.002273907               0.001387557               0.000000000               0.000000000               0.000000000               0.000000000              -0.000393383               0.005837498              -0.000713109              -0.000877204               0.002238215               0.001361011               0.000000000               0.000000000               0.000000000               0.000000000              -0.000352371               0.005706294              -0.000548683              -0.000845424               0.002183887               0.001338463               0.000000000               0.000000000               0.000000000               0.000000000              -0.000298567               0.005581068              -0.000424919              -0.000809594               0.002130202               0.001320608               0.000000000               0.000000000               0.000000000               0.000000000              -0.000246359               0.005461023              -0.000326689              -0.000775011               0.002078660               0.001303649               0.000000000               0.000000000               0.000000000               0.000000000              -0.000192186               0.005327749              -0.000248318              -0.000738037               0.002021911               0.001283874               0.000000000               0.000000000               0.000000000               0.000000000              -0.000130867               0.005184162              -0.000185387              -0.000697094               0.001960401               0.001263308               0.000000000               0.000000000               0.000000000               0.000000000              -0.000081009               0.005043374              -0.000128689              -0.000660799               0.001901374               0.001240575               0.000000000               0.000000000               0.000000000               0.000000000              -0.000049606               0.004916752              -0.000078386              -0.000633195               0.001849966               0.001216771               0.000000000               0.000000000               0.000000000               0.000000000              -0.000038545               0.004801248              -0.000038086              -0.000614609               0.001805270               0.001190661               0.000000000               0.000000000               0.000000000               0.000000000              -0.000042186               0.004693570              -0.000011140              -0.000602514               0.001765346               0.001162832               0.000000000               0.000000000               0.000000000               0.000000000              -0.000050230               0.004594437               0.000003057              -0.000593139               0.001729177               0.001136038               0.000000000               0.000000000               0.000000000               0.000000000              -0.000055545               0.004505871               0.000006084              -0.000584062               0.001696629               0.001112567               0.000000000               0.000000000               0.000000000               0.000000000              -0.000053264               0.004459445               0.000005863              -0.000577403               0.001678934               0.001101531               0.000000000               0.000000000               0.000000000               0.000000000               0.001111935               0.003525793              -0.001978662              -0.000023751               0.001183169               0.001159418               0.000000000               0.000000000               0.000000000               0.000000000               0.000363055               0.004285677              -0.001820353              -0.000399565               0.001561732               0.001162167               0.000000000               0.000000000               0.000000000               0.000000000              -0.000299460               0.005186083              -0.001516592              -0.000760557               0.001982195               0.001221639               0.000000000               0.000000000               0.000000000               0.000000000              -0.000425799               0.005424632              -0.001197976              -0.000837752               0.002087443               0.001249691               0.000000000               0.000000000               0.000000000               0.000000000              -0.000418295               0.005456126              -0.000951661              -0.000838874               0.002098315               0.001259441               0.000000000               0.000000000               0.000000000               0.000000000              -0.000370893               0.005417111              -0.000760773              -0.000816222               0.002077760               0.001261538               0.000000000               0.000000000               0.000000000               0.000000000              -0.000314897               0.005351054              -0.000610803              -0.000786966               0.002045989               0.001259022               0.000000000               0.000000000               0.000000000               0.000000000              -0.000261033               0.005272589              -0.000495233              -0.000756959               0.002009832               0.001252873               0.000000000               0.000000000               0.000000000               0.000000000              -0.000205252               0.005180915              -0.000403439              -0.000724582               0.001968482               0.001243900               0.000000000               0.000000000               0.000000000               0.000000000              -0.000144596               0.005069044              -0.000319405              -0.000687852               0.001918948               0.001231096               0.000000000               0.000000000               0.000000000               0.000000000              -0.000091799               0.004944433              -0.000237826              -0.000652477               0.001865620               0.001213143               0.000000000               0.000000000               0.000000000               0.000000000              -0.000056997               0.004825393              -0.000163666              -0.000624547               0.001816630               0.001192084               0.000000000               0.000000000               0.000000000               0.000000000              -0.000045422               0.004713803              -0.000099271              -0.000606257               0.001773338               0.001167080               0.000000000               0.000000000               0.000000000               0.000000000              -0.000057518               0.004606916              -0.000050677              -0.000597432               0.001734767               0.001137335               0.000000000               0.000000000               0.000000000               0.000000000              -0.000082809               0.004507392              -0.000017875              -0.000594476               0.001700608               0.001106132               0.000000000               0.000000000               0.000000000               0.000000000              -0.000111927               0.004413306              -0.000000902              -0.000593634               0.001668965               0.001075331               0.000000000               0.000000000               0.000000000               0.000000000              -0.000124951               0.004364258               0.000003290              -0.000592388               0.001652201               0.001059813               0.000000000               0.000000000               0.000000000               0.000000000               0.000593640               0.002441205              -0.001520926              -0.000082538               0.000841238               0.000758701               0.000000000               0.000000000               0.000000000               0.000000000               0.000196133               0.003354723              -0.001688796              -0.000345792               0.001233493               0.000887701               0.000000000               0.000000000               0.000000000               0.000000000              -0.000291090               0.004398781              -0.001684234              -0.000659006               0.001685914               0.001026908               0.000000000               0.000000000               0.000000000               0.000000000              -0.000390453               0.004822138              -0.001445362              -0.000749186               0.001857091               0.001107905               0.000000000               0.000000000               0.000000000               0.000000000              -0.000382249               0.005001630              -0.001203232              -0.000768546               0.001923375               0.001154829               0.000000000               0.000000000               0.000000000               0.000000000              -0.000340917               0.005069532              -0.000996066              -0.000761534               0.001943672               0.001182138               0.000000000               0.000000000               0.000000000               0.000000000              -0.000290189               0.005076844              -0.000827829              -0.000743425               0.001940072               0.001196648               0.000000000               0.000000000               0.000000000               0.000000000              -0.000241304               0.005057981              -0.000695533              -0.000722735               0.001926888               0.001204153               0.000000000               0.000000000               0.000000000               0.000000000              -0.000191158               0.005024597              -0.000590422              -0.000699757               0.001908101               0.001208344               0.000000000               0.000000000               0.000000000               0.000000000              -0.000140139               0.004961177              -0.000492935              -0.000672698               0.001877942               0.001205244               0.000000000               0.000000000               0.000000000               0.000000000              -0.000088686               0.004872990              -0.000395422              -0.000642380               0.001838440               0.001196061               0.000000000               0.000000000               0.000000000               0.000000000              -0.000050349               0.004773945              -0.000300302              -0.000615623               0.001796507               0.001180884               0.000000000               0.000000000               0.000000000               0.000000000              -0.000033972               0.004672954              -0.000210270              -0.000596857               0.001756588               0.001159731               0.000000000               0.000000000               0.000000000               0.000000000              -0.000044481               0.004574590              -0.000131619              -0.000588503               0.001721016               0.001132513               0.000000000               0.000000000               0.000000000               0.000000000              -0.000082560               0.004481782              -0.000067607              -0.000591181               0.001690973               0.001099792               0.000000000               0.000000000               0.000000000               0.000000000              -0.000139383               0.004396845              -0.000023638              -0.000601873               0.001666225               0.001064352               0.000000000               0.000000000               0.000000000               0.000000000              -0.000180614               0.004348481              -0.000003957              -0.000611289               0.001653242               0.001041953               0.000000000               0.000000000               0.000000000               0.000000000              -0.000040088               0.001521934              -0.001055431              -0.000205275               0.000575731               0.000370455               0.000000000               0.000000000               0.000000000               0.000000000              -0.000032450               0.002472400              -0.001474935              -0.000321219               0.000931197               0.000609978               0.000000000               0.000000000               0.000000000               0.000000000              -0.000247742               0.003534440              -0.001725679              -0.000534708               0.001356370               0.000821662               0.000000000               0.000000000               0.000000000               0.000000000              -0.000286027               0.004094340              -0.001594063              -0.000619052               0.001571117               0.000952064               0.000000000               0.000000000               0.000000000               0.000000000              -0.000272340               0.004408478              -0.001388146              -0.000653186               0.001687207               0.001034020               0.000000000               0.000000000               0.000000000               0.000000000              -0.000239417               0.004588164              -0.001187901              -0.000663301               0.001750473               0.001087172               0.000000000               0.000000000               0.000000000               0.000000000              -0.000199759               0.004687138              -0.001014704              -0.000660801               0.001782630               0.001121830               0.000000000               0.000000000               0.000000000               0.000000000              -0.000159750               0.004743084              -0.000874513              -0.000652790               0.001798609               0.001145818               0.000000000               0.000000000               0.000000000               0.000000000              -0.000120976               0.004778025              -0.000760566              -0.000642618               0.001806865               0.001164247               0.000000000               0.000000000               0.000000000               0.000000000              -0.000082449               0.004781230              -0.000656595              -0.000628571               0.001803251               0.001174680               0.000000000               0.000000000               0.000000000               0.000000000              -0.000042205               0.004746463              -0.000552515              -0.000609133               0.001785183               0.001176049               0.000000000               0.000000000               0.000000000               0.000000000              -0.000008017               0.004684483              -0.000446809              -0.000588566               0.001757667               0.001169102               0.000000000               0.000000000               0.000000000               0.000000000               0.000013142               0.004608417              -0.000343429              -0.000571123               0.001726498               0.001155375               0.000000000               0.000000000               0.000000000               0.000000000               0.000011599               0.004526799              -0.000243218              -0.000561499               0.001696084               0.001134585               0.000000000               0.000000000               0.000000000               0.000000000              -0.000020765               0.004447064              -0.000148266              -0.000563668               0.001670229               0.001106561               0.000000000               0.000000000               0.000000000               0.000000000              -0.000087692               0.004378736              -0.000066374              -0.000580225               0.001652972               0.001072747               0.000000000               0.000000000               0.000000000               0.000000000              -0.000151344               0.004334433              -0.000022453              -0.000598557               0.001644315               0.001045759               0.000000000               0.000000000               0.000000000               0.000000000              -0.000741310               0.000815236              -0.000636044              -0.000379896               0.000398374               0.000018478               0.000000000               0.000000000               0.000000000               0.000000000              -0.000307754               0.001689123              -0.001197602              -0.000326548               0.000671884               0.000345336               0.000000000               0.000000000               0.000000000               0.000000000              -0.000195431               0.002664359              -0.001619101              -0.000406332               0.001023554               0.000617222               0.000000000               0.000000000               0.000000000               0.000000000              -0.000131458               0.003297213              -0.001596214              -0.000461449               0.001252876               0.000791427               0.000000000               0.000000000               0.000000000               0.000000000              -0.000092074               0.003713847              -0.001450603              -0.000498759               0.001404189               0.000905430               0.000000000               0.000000000               0.000000000               0.000000000              -0.000064704               0.003995650              -0.001280527              -0.000523720               0.001506443               0.000982723               0.000000000               0.000000000               0.000000000               0.000000000              -0.000036950               0.004188428              -0.001122083              -0.000537409               0.001575265               0.001037856               0.000000000               0.000000000               0.000000000               0.000000000              -0.000009212               0.004325658              -0.000985914              -0.000544161               0.001623258               0.001079097               0.000000000               0.000000000               0.000000000               0.000000000               0.000014822               0.004434991              -0.000869900              -0.000548815               0.001661254               0.001112439               0.000000000               0.000000000               0.000000000               0.000000000               0.000037824               0.004512775              -0.000766314              -0.000549912               0.001687547               0.001137635               0.000000000               0.000000000               0.000000000               0.000000000               0.000064251               0.004546111              -0.000664048              -0.000544169               0.001696745               0.001152576               0.000000000               0.000000000               0.000000000               0.000000000               0.000092347               0.004540348              -0.000560476              -0.000532912               0.001691071               0.001158159               0.000000000               0.000000000               0.000000000               0.000000000               0.000116827               0.004509401              -0.000456746              -0.000519864               0.001676406               0.001156543               0.000000000               0.000000000               0.000000000               0.000000000               0.000126513               0.004459372              -0.000349736              -0.000509978               0.001656435               0.001146457               0.000000000               0.000000000               0.000000000               0.000000000               0.000112359               0.004404574              -0.000237154              -0.000508436               0.001637655               0.001129219               0.000000000               0.000000000               0.000000000               0.000000000               0.000062822               0.004359904              -0.000119416              -0.000521428               0.001627096               0.001105668               0.000000000               0.000000000               0.000000000               0.000000000               0.000002561               0.004326213              -0.000052273              -0.000539815               0.001621995               0.001082180               0.000000000               0.000000000               0.000000000               0.000000000              -0.001443611               0.000321770              -0.000313943              -0.000581575               0.000301113              -0.000280462               0.000000000               0.000000000               0.000000000               0.000000000              -0.000606985               0.001051836              -0.000889847              -0.000359099               0.000470307               0.000111208               0.000000000               0.000000000               0.000000000               0.000000000              -0.000149578               0.001871131              -0.001365247              -0.000289984               0.000720365               0.000430381               0.000000000               0.000000000               0.000000000               0.000000000               0.000046180               0.002514509              -0.001421469              -0.000296997               0.000937159               0.000640163               0.000000000               0.000000000               0.000000000               0.000000000               0.000131554               0.002991069              -0.001338042              -0.000324551               0.001105196               0.000780645               0.000000000               0.000000000               0.000000000               0.000000000               0.000167956               0.003349929              -0.001215161              -0.000355758               0.001235218               0.000879460               0.000000000               0.000000000               0.000000000               0.000000000               0.000187471               0.003625630              -0.001090360              -0.000382902               0.001336165               0.000953263               0.000000000               0.000000000               0.000000000               0.000000000               0.000199429               0.003841264              -0.000973908              -0.000405372               0.001415532               0.001010160               0.000000000               0.000000000               0.000000000               0.000000000               0.000207840               0.004021135              -0.000870134              -0.000424701               0.001481932               0.001057231               0.000000000               0.000000000               0.000000000               0.000000000               0.000213911               0.004168211              -0.000777186              -0.000440809               0.001536326               0.001095517               0.000000000               0.000000000               0.000000000               0.000000000               0.000223622               0.004273863              -0.000686332              -0.000450374               0.001574731               0.001124358               0.000000000               0.000000000               0.000000000               0.000000000               0.000241771               0.004342625              -0.000593786              -0.000452163               0.001598248               0.001146085               0.000000000               0.000000000               0.000000000               0.000000000               0.000265475               0.004377298              -0.000500401              -0.000447608               0.001608287               0.001160679               0.000000000               0.000000000               0.000000000               0.000000000               0.000291159               0.004380674              -0.000401261              -0.000438399               0.001606343               0.001167944               0.000000000               0.000000000               0.000000000               0.000000000               0.000310727               0.004364443              -0.000288913              -0.000429032               0.001597810               0.001168779               0.000000000               0.000000000               0.000000000               0.000000000               0.000313442               0.004342113              -0.000155393              -0.000425222               0.001589097               0.001163875               0.000000000               0.000000000               0.000000000               0.000000000               0.000298478               0.004324598              -0.000079249              -0.000428644               0.001584400               0.001155755               0.000000000               0.000000000               0.000000000               0.000000000              -0.002056221               0.000019924              -0.000112757              -0.000773573               0.000264497              -0.000509076               0.000000000               0.000000000               0.000000000               0.000000000              -0.000884465               0.000585649              -0.000581328              -0.000404880               0.000330174              -0.000074707               0.000000000               0.000000000               0.000000000               0.000000000              -0.000113574               0.001227615              -0.000987691              -0.000196043               0.000474548               0.000278505               0.000000000               0.000000000               0.000000000               0.000000000               0.000212409               0.001842550              -0.001068568              -0.000150666               0.000664399               0.000513732               0.000000000               0.000000000               0.000000000               0.000000000               0.000352178               0.002346708              -0.001032266              -0.000161273               0.000835985               0.000674713               0.000000000               0.000000000               0.000000000               0.000000000               0.000408373               0.002756713              -0.000958834              -0.000191450               0.000982711               0.000791262               0.000000000               0.000000000               0.000000000               0.000000000               0.000424901               0.003095108              -0.000876203              -0.000227551               0.001107542               0.000879992               0.000000000               0.000000000               0.000000000               0.000000000               0.000425611               0.003374999              -0.000794167              -0.000262270               0.001212412               0.000950141               0.000000000               0.000000000               0.000000000               0.000000000               0.000421311               0.003610893              -0.000717253              -0.000293370               0.001301409               0.001008039               0.000000000               0.000000000               0.000000000               0.000000000               0.000413538               0.003812867              -0.000647281              -0.000321531               0.001378120               0.001056589               0.000000000               0.000000000               0.000000000               0.000000000               0.000408239               0.003983305              -0.000578789              -0.000344823               0.001442696               0.001097873               0.000000000               0.000000000               0.000000000               0.000000000               0.000415722               0.004119606              -0.000507405              -0.000359054               0.001492873               0.001133819               0.000000000               0.000000000               0.000000000               0.000000000               0.000438378               0.004217455              -0.000435181              -0.000362789               0.001526734               0.001163945               0.000000000               0.000000000               0.000000000               0.000000000               0.000477560               0.004275696              -0.000357259              -0.000355376               0.001543676               0.001188300               0.000000000               0.000000000               0.000000000               0.000000000               0.000534086               0.004305017              -0.000264570              -0.000337844               0.001547606               0.001209762               0.000000000               0.000000000               0.000000000               0.000000000               0.000607640               0.004318801              -0.000146199              -0.000311984               0.001543581               0.001231596               0.000000000               0.000000000               0.000000000               0.000000000               0.000665165               0.004328137              -0.000080392              -0.000291580               0.001539891               0.001248312               0.000000000               0.000000000               0.000000000               0.000000000              -0.002476668              -0.000137469              -0.000022558              -0.000911566               0.000258031              -0.000653536               0.000000000               0.000000000               0.000000000               0.000000000              -0.001079194               0.000300000              -0.000284655              -0.000442197               0.000247397              -0.000194800               0.000000000               0.000000000               0.000000000               0.000000000              -0.000088674               0.000803251              -0.000518293              -0.000133659               0.000312300               0.000178641               0.000000000               0.000000000               0.000000000               0.000000000               0.000332284               0.001384057              -0.000573717              -0.000048401               0.000477481               0.000429080               0.000000000               0.000000000               0.000000000               0.000000000               0.000514538               0.001902818              -0.000561922              -0.000044901               0.000649233               0.000604332               0.000000000               0.000000000               0.000000000               0.000000000               0.000586469               0.002340889              -0.000529116              -0.000072686               0.000804517               0.000731831               0.000000000               0.000000000               0.000000000               0.000000000               0.000605575               0.002712537              -0.000489616              -0.000111977               0.000941495               0.000829519               0.000000000               0.000000000               0.000000000               0.000000000               0.000601039               0.003031468              -0.000449010              -0.000153544               0.001061660               0.000908117               0.000000000               0.000000000               0.000000000               0.000000000               0.000589565               0.003306962              -0.000409076              -0.000192283               0.001166404               0.000974121               0.000000000               0.000000000               0.000000000               0.000000000               0.000577217               0.003543892              -0.000370802              -0.000226530               0.001256795               0.001030266               0.000000000               0.000000000               0.000000000               0.000000000               0.000568432               0.003747882              -0.000333402              -0.000255323               0.001334389               0.001079066               0.000000000               0.000000000               0.000000000               0.000000000               0.000572657               0.003921900              -0.000294323              -0.000275490               0.001399117               0.001123627               0.000000000               0.000000000               0.000000000               0.000000000               0.000593917               0.004058435              -0.000253968              -0.000284585               0.001447660               0.001163075               0.000000000               0.000000000               0.000000000               0.000000000               0.000636818               0.004159257              -0.000209594              -0.000281100               0.001480105               0.001199005               0.000000000               0.000000000               0.000000000               0.000000000               0.000711874               0.004232927              -0.000155335              -0.000262163               0.001498349               0.001236186               0.000000000               0.000000000               0.000000000               0.000000000               0.000829925               0.004283743              -0.000085881              -0.000224246               0.001502649               0.001278403               0.000000000               0.000000000               0.000000000               0.000000000               0.000937641               0.004316824              -0.000049105              -0.000187987               0.001501590               0.001313602               0.000000000               0.000000000               0.000000000               0.000000000               0.000000000               0.000000000               0.000000000               0.000000000               0.000000000               0.000000000               0.000000000               0.000000000               0.000000000               0.000000000               0.000000000               0.000000000               0.000000000               0.000000000               0.000000000               0.000000000               0.000000000               0.000000000               0.000000000               0.000000000               0.000000000               0.000000000               0.000000000               0.000000000               0.000000000               0.000000000               0.000000000               0.000000000               0.000000000               0.000000000               0.000000000               0.000000000               0.000000000               0.000000000               0.000000000               0.000000000               0.000000000               0.000000000               0.000000000               0.000000000               0.000000000               0.000000000               0.000000000               0.000000000               0.000000000               0.000000000               0.000000000               0.000000000               0.000000000               0.000000000               0.000000000               0.000000000               0.000000000               0.000000000               0.000000000               0.000000000               0.000000000               0.000000000               0.000000000               0.000000000               0.000000000               0.000000000               0.000000000               0.000000000               0.000000000               0.000000000               0.000000000               0.000000000               0.000000000               0.000000000               0.000000000               0.000000000               0.000000000               0.000000000               0.000000000               0.000000000               0.000000000               0.000000000               0.000000000               0.000000000               0.000000000               0.000000000               0.000000000               0.000000000               0.000000000               0.000000000               0.000000000               0.000000000               0.000000000               0.000000000               0.000000000               0.000000000               0.000000000               0.000000000               0.000000000               0.000000000               0.000000000               0.000000000               0.000000000               0.000000000               0.000000000               0.000000000               0.000000000               0.000000000               0.000000000               0.000000000               0.000000000               0.000000000               0.000000000               0.000000000               0.000000000               0.000000000               0.000000000               0.000000000               0.000000000               0.000000000               0.000000000               0.000000000               0.000000000               0.000000000               0.000000000               0.000000000               0.000000000               0.000000000               0.000000000               0.000000000               0.000000000               0.000000000               0.000000000               0.000000000               0.000000000               0.000000000               0.000000000               0.000000000               0.000000000               0.000000000               0.000000000               0.000000000               0.000000000               0.000000000               0.000000000               0.000000000               0.000000000               0.000000000               0.000000000               0.000000000               0.000000000               0.000000000               0.000000000               0.000000000               0.000000000               0.000000000               0.000000000               0.000000000               0.000000000               0.000000000               0.000000000               0.000000000               0.000000000               0.000000000               0.000000000               0.000000000               0.000000000               0.000000000               0.000000000               0.000000000               0.000000000               0.000000000               0.000000000               0.000000000               0.000000000               0.000000000               0.000000000               0.000000000               0.000000000               0.000000000               0.000000000               0.000000000               0.000000000               0.000000000               0.000000000               0.000000000               0.000000000               0.000000000               0.000000000               0.000000000               0.000000000               0.000000000               0.000000000               0.000000000               0.000000000               0.000000000               0.000000000               0.000000000               0.000000000               0.000000000               0.000000000               0.000000000               0.000000000               0.000000000               0.000000000               0.000000000               0.000000000               0.000000000               0.000000000               0.000000000               0.000000000               0.000000000               0.000000000               0.000000000               0.000000000               0.000000000               0.000000000               0.000000000               0.000000000               0.000000000               0.000000000               0.000000000               0.000000000               0.000000000               0.000000000               0.000000000               0.000000000               0.000000000               0.000000000               0.000000000               0.000000000               0.000000000               0.000000000               0.000000000               0.000000000               0.000000000               0.000000000               0.000000000               0.000000000               0.000000000               0.000000000               0.000000000               0.000000000               0.000000000               0.000000000               0.000000000               0.000000000               0.000000000               0.000000000               0.000000000               0.000000000               0.000000000               0.000000000               0.000000000               0.000000000               0.000000000               0.000000000               0.000000000               0.000000000               0.000000000               0.000000000               0.000000000               0.000000000               0.000000000               0.000000000               0.000000000               0.000000000               0.000000000               0.000000000               0.000000000               0.000000000               0.000000000               0.000000000               0.000000000               0.000000000               0.000000000               0.000000000               0.000000000               0.000000000               0.000000000               0.000000000               0.000000000               0.000000000               0.000000000               0.000000000               0.000000000               0.000000000               0.000000000               0.000000000               0.000000000               0.000000000               0.000000000               0.000000000               0.000000000               0.000000000               0.000000000               0.000000000               0.000000000               0.000000000               0.000000000               0.000000000               0.000000000               0.000000000               0.000000000               0.000000000               0.000000000               0.000000000               0.000000000               0.000000000               0.000000000               0.000000000               0.000000000               0.000000000               0.000000000               0.000000000               0.000000000               0.000000000               0.000000000               0.000000000               0.000000000               0.000000000               0.000000000               0.000000000               0.000000000               0.000000000               0.000000000               0.000000000               0.000000000               0.000000000               0.000000000               0.000000000               0.000000000               0.000000000               0.000000000               0.000000000               0.000000000               0.000000000               0.000000000               0.000000000               0.000000000               0.000000000               0.000000000               0.000000000               0.000000000               0.001294188               0.013670776               0.001022368              -0.001223524               0.004964721               0.003741197               0.000000000               0.000000000               0.000000000               0.000000000               0.001311299               0.011123887               0.000609318              -0.000898747               0.004007508               0.003108761               0.000000000               0.000000000               0.000000000               0.000000000               0.001733657               0.009080562               0.000189050              -0.000484948               0.003188473               0.002703525               0.000000000               0.000000000               0.000000000               0.000000000               0.001750224               0.007936753              -0.000001403              -0.000335759               0.002757478               0.002421718               0.000000000               0.000000000               0.000000000               0.000000000               0.001627801               0.007242877              -0.000089675              -0.000294933               0.002512579               0.002217646               0.000000000               0.000000000               0.000000000               0.000000000               0.001456055               0.006796226              -0.000129227              -0.000303507               0.002366555               0.002063048               0.000000000               0.000000000               0.000000000               0.000000000               0.001272490               0.006493598              -0.000144318              -0.000334515               0.002276016               0.001941501               0.000000000               0.000000000               0.000000000               0.000000000               0.001096878               0.006278866              -0.000144579              -0.000373528               0.002217444               0.001843916               0.000000000               0.000000000               0.000000000               0.000000000               0.000933360               0.006119534              -0.000139816              -0.000414931               0.002178134               0.001763204               0.000000000               0.000000000               0.000000000               0.000000000               0.000780773               0.006000698              -0.000137792              -0.000457296               0.002152645               0.001695348               0.000000000               0.000000000               0.000000000               0.000000000               0.000635152               0.005908692              -0.000135209              -0.000500403               0.002136345               0.001635942               0.000000000               0.000000000               0.000000000               0.000000000               0.000495601               0.005829422              -0.000127896              -0.000542826               0.002124063               0.001581237               0.000000000               0.000000000               0.000000000               0.000000000               0.000366099               0.005753861              -0.000116509              -0.000581944               0.002111916               0.001529972               0.000000000               0.000000000               0.000000000               0.000000000               0.000247348               0.005671756              -0.000100670              -0.000616212               0.002095971               0.001479758               0.000000000               0.000000000               0.000000000               0.000000000               0.000145631               0.005576402              -0.000077268              -0.000642437               0.002072928               0.001430491               0.000000000               0.000000000               0.000000000               0.000000000               0.000065234               0.005460299              -0.000043228              -0.000658073               0.002039439               0.001381366               0.000000000               0.000000000               0.000000000               0.000000000               0.000020793               0.005368970              -0.000026310              -0.000663322               0.002010746               0.001347424               0.000000000               0.000000000               0.000000000               0.000000000               0.001469426               0.012938153               0.001913143              -0.001066233               0.004668085               0.003601853               0.000000000               0.000000000               0.000000000               0.000000000               0.001322543               0.010616236               0.001136657              -0.000831074               0.003815735               0.002984660               0.000000000               0.000000000               0.000000000               0.000000000               0.001568585               0.008816352               0.000352513              -0.000513824               0.003110029               0.002596206               0.000000000               0.000000000               0.000000000               0.000000000               0.001508550               0.007807000               0.000007856              -0.000410168               0.002739030               0.002328862               0.000000000               0.000000000               0.000000000               0.000000000               0.001357583               0.007186186              -0.000147353              -0.000389179               0.002525097               0.002135919               0.000000000               0.000000000               0.000000000               0.000000000               0.001185946               0.006778663              -0.000214406              -0.000402602               0.002393733               0.001991130               0.000000000               0.000000000               0.000000000               0.000000000               0.001020441               0.006494777              -0.000238844              -0.000429181               0.002307964               0.001878784               0.000000000               0.000000000               0.000000000               0.000000000               0.000868345               0.006287675              -0.000242236              -0.000460329               0.002249314               0.001788985               0.000000000               0.000000000               0.000000000               0.000000000               0.000726334               0.006132496              -0.000239643              -0.000494186               0.002208873               0.001714688               0.000000000               0.000000000               0.000000000               0.000000000               0.000595652               0.006011343              -0.000238048              -0.000528047               0.002179777               0.001651730               0.000000000               0.000000000               0.000000000               0.000000000               0.000473863               0.005908333              -0.000232706              -0.000560841               0.002156372               0.001595530               0.000000000               0.000000000               0.000000000               0.000000000               0.000364774               0.005815066              -0.000220788              -0.000590091               0.002135033               0.001544942               0.000000000               0.000000000               0.000000000               0.000000000               0.000270504               0.005723994              -0.000201729              -0.000614059               0.002112665               0.001498607               0.000000000               0.000000000               0.000000000               0.000000000               0.000184726               0.005629421              -0.000174101              -0.000634404               0.002087923               0.001453519               0.000000000               0.000000000               0.000000000               0.000000000               0.000111166               0.005531762              -0.000134522              -0.000649781               0.002060496               0.001410715               0.000000000               0.000000000               0.000000000               0.000000000               0.000051285               0.005430496              -0.000075900              -0.000659578               0.002030007               0.001370428               0.000000000               0.000000000               0.000000000               0.000000000               0.000017534               0.005361728              -0.000044416              -0.000663639               0.002008438               0.001344799               0.000000000               0.000000000               0.000000000               0.000000000               0.001687845               0.011810697               0.002583182              -0.000843395               0.004217991               0.003374596               0.000000000               0.000000000               0.000000000               0.000000000               0.001307840               0.009851489               0.001541276              -0.000740995               0.003530795               0.002789800               0.000000000               0.000000000               0.000000000               0.000000000               0.001305018               0.008427064               0.000501995              -0.000564000               0.002996993               0.002432993               0.000000000               0.000000000               0.000000000               0.000000000               0.001152197               0.007603294               0.000063389              -0.000518337               0.002707185               0.002188848               0.000000000               0.000000000               0.000000000               0.000000000               0.000978422               0.007080470              -0.000129596              -0.000518149               0.002532849               0.002014700               0.000000000               0.000000000               0.000000000               0.000000000               0.000819286               0.006721009              -0.000214734              -0.000532893               0.002417945               0.001885052               0.000000000               0.000000000               0.000000000               0.000000000               0.000682734               0.006457569              -0.000249639              -0.000551170               0.002336225               0.001785055               0.000000000               0.000000000               0.000000000               0.000000000               0.000565938               0.006257395              -0.000260622              -0.000569946               0.002275760               0.001705813               0.000000000               0.000000000               0.000000000               0.000000000               0.000456343               0.006100558              -0.000262944              -0.000591440               0.002230645               0.001639206               0.000000000               0.000000000               0.000000000               0.000000000               0.000356118               0.005970998              -0.000262614              -0.000612829               0.002194589               0.001581760               0.000000000               0.000000000               0.000000000               0.000000000               0.000272492               0.005858397              -0.000257272              -0.000630114               0.002162817               0.001532704               0.000000000               0.000000000               0.000000000               0.000000000               0.000201781               0.005750963              -0.000241958              -0.000643201               0.002131369               0.001488168               0.000000000               0.000000000               0.000000000               0.000000000               0.000144904               0.005644679              -0.000215860              -0.000651244               0.002098622               0.001447378               0.000000000               0.000000000               0.000000000               0.000000000               0.000101437               0.005543557              -0.000182049              -0.000654904               0.002066135               0.001411231               0.000000000               0.000000000               0.000000000               0.000000000               0.000065837               0.005452389              -0.000135996              -0.000656858               0.002036398               0.001379540               0.000000000               0.000000000               0.000000000               0.000000000               0.000032015               0.005376150              -0.000072974              -0.000660011               0.002012036               0.001352024               0.000000000               0.000000000               0.000000000               0.000000000               0.000013052               0.005338448              -0.000039275              -0.000662410               0.002000268               0.001337858               0.000000000               0.000000000               0.000000000               0.000000000               0.001875094               0.010413222               0.002993441              -0.000598494               0.003670536               0.003072043               0.000000000               0.000000000               0.000000000               0.000000000               0.001243660               0.008925604               0.001813443              -0.000649328               0.003191614               0.002542286               0.000000000               0.000000000               0.000000000               0.000000000               0.000969955               0.007960445               0.000649112              -0.000631321               0.002863895               0.002232574               0.000000000               0.000000000               0.000000000               0.000000000               0.000742244               0.007343601               0.000173806              -0.000639607               0.002661045               0.002021438               0.000000000               0.000000000               0.000000000               0.000000000               0.000568729               0.006919535              -0.000036249              -0.000651667               0.002523711               0.001872044               0.000000000               0.000000000               0.000000000               0.000000000               0.000439339               0.006606016              -0.000130562              -0.000660998               0.002422316               0.001761318               0.000000000               0.000000000               0.000000000               0.000000000               0.000341434               0.006358148              -0.000172917              -0.000666729               0.002341605               0.001674875               0.000000000               0.000000000               0.000000000               0.000000000               0.000263196               0.006159584              -0.000193981              -0.000671248               0.002276923               0.001605676               0.000000000               0.000000000               0.000000000               0.000000000               0.000193129               0.006001148              -0.000205853              -0.000677718               0.002226269               0.001548551               0.000000000               0.000000000               0.000000000               0.000000000               0.000133598               0.005868442              -0.000212043              -0.000683454               0.002183946               0.001500492               0.000000000               0.000000000               0.000000000               0.000000000               0.000092375               0.005746292              -0.000208637              -0.000683644               0.002143293               0.001459649               0.000000000               0.000000000               0.000000000               0.000000000               0.000059931               0.005625807              -0.000191988              -0.000680750               0.002102167               0.001421417               0.000000000               0.000000000               0.000000000               0.000000000               0.000037237               0.005512638              -0.000166167              -0.000675114               0.002062566               0.001387452               0.000000000               0.000000000               0.000000000               0.000000000               0.000026387               0.005414785              -0.000135459              -0.000666951               0.002027227               0.001360276               0.000000000               0.000000000               0.000000000               0.000000000               0.000019643               0.005336648              -0.000095784              -0.000659713               0.001998769               0.001339056               0.000000000               0.000000000               0.000000000               0.000000000               0.000012303               0.005281980              -0.000047431              -0.000655632               0.001979187               0.001323554               0.000000000               0.000000000               0.000000000               0.000000000               0.000006949               0.005259773              -0.000023441              -0.000654864               0.001971528               0.001316664               0.000000000               0.000000000               0.000000000               0.000000000               0.001969742               0.008891614               0.003139126              -0.000372801               0.003088108               0.002715307               0.000000000               0.000000000               0.000000000               0.000000000               0.001122361               0.007935468               0.001957081              -0.000571048               0.002835479               0.002264430               0.000000000               0.000000000               0.000000000               0.000000000               0.000609002               0.007454221               0.000796052              -0.000703400               0.002719182               0.002015782               0.000000000               0.000000000               0.000000000               0.000000000               0.000343919               0.007038323               0.000332116              -0.000750819               0.002596357               0.001845538               0.000000000               0.000000000               0.000000000               0.000000000               0.000196270               0.006699323               0.000120913              -0.000763812               0.002487690               0.001723877               0.000000000               0.000000000               0.000000000               0.000000000               0.000107956               0.006420610               0.000020394              -0.000762091               0.002394212               0.001632121               0.000000000               0.000000000               0.000000000               0.000000000               0.000054328               0.006188889              -0.000031961              -0.000753236               0.002314021               0.001560785               0.000000000               0.000000000               0.000000000               0.000000000               0.000019841               0.006002406              -0.000070177              -0.000742859               0.002248401               0.001505543               0.000000000               0.000000000               0.000000000               0.000000000              -0.000005676               0.005853545              -0.000099237              -0.000733820               0.002195769               0.001461949               0.000000000               0.000000000               0.000000000               0.000000000              -0.000024591               0.005717692              -0.000114975              -0.000723931               0.002147189               0.001423257               0.000000000               0.000000000               0.000000000               0.000000000              -0.000033462               0.005584195              -0.000117189              -0.000710571               0.002098237               0.001387666               0.000000000               0.000000000               0.000000000               0.000000000              -0.000033718               0.005459368              -0.000107959              -0.000695063               0.002051459               0.001356395               0.000000000               0.000000000               0.000000000               0.000000000              -0.000026499               0.005350857              -0.000092218              -0.000678792               0.002009865               0.001331073               0.000000000               0.000000000               0.000000000               0.000000000              -0.000016292               0.005262239              -0.000074945              -0.000663888               0.001975358               0.001311470               0.000000000               0.000000000               0.000000000               0.000000000              -0.000007150               0.005193811              -0.000052591              -0.000651906               0.001948555               0.001296649               0.000000000               0.000000000               0.000000000               0.000000000              -0.000000136               0.005143864              -0.000025123              -0.000643032               0.001928948               0.001285916               0.000000000               0.000000000               0.000000000               0.000000000              -0.000001761               0.005116423              -0.000013967              -0.000640212               0.001918861               0.001278649               0.000000000               0.000000000               0.000000000               0.000000000               0.001924496               0.007370966               0.003052317              -0.000199688               0.002523526               0.002323838               0.000000000               0.000000000               0.000000000               0.000000000               0.000944770               0.006952520               0.001996542              -0.000514777               0.002489075               0.001974298               0.000000000               0.000000000               0.000000000               0.000000000               0.000264359               0.006925279               0.000949784              -0.000766524               0.002563911               0.001797387               0.000000000               0.000000000               0.000000000               0.000000000               0.000006620               0.006681144               0.000526540              -0.000832659               0.002504578               0.001671920               0.000000000               0.000000000               0.000000000               0.000000000              -0.000097564               0.006417866               0.000317619              -0.000838818               0.002418873               0.001580055               0.000000000               0.000000000               0.000000000               0.000000000              -0.000136617               0.006179931               0.000203265              -0.000823721               0.002334530               0.001510809               0.000000000               0.000000000               0.000000000               0.000000000              -0.000142462               0.005978163               0.000129941              -0.000800692               0.002259598               0.001458907               0.000000000               0.000000000               0.000000000               0.000000000              -0.000135174               0.005816122               0.000068497              -0.000777704               0.002197922               0.001420219               0.000000000               0.000000000               0.000000000               0.000000000              -0.000126218               0.005674066               0.000021620              -0.000756588               0.002143532               0.001386944               0.000000000               0.000000000               0.000000000               0.000000000              -0.000113868               0.005533219              -0.000005147              -0.000734351               0.002089172               0.001354821               0.000000000               0.000000000               0.000000000               0.000000000              -0.000094395               0.005396561              -0.000020032              -0.000709966               0.002035491               0.001325525               0.000000000               0.000000000               0.000000000               0.000000000              -0.000070876               0.005272789              -0.000028251              -0.000685675               0.001986137               0.001300462               0.000000000               0.000000000               0.000000000               0.000000000              -0.000048660               0.005168436              -0.000031371              -0.000664300               0.001944228               0.001279928               0.000000000               0.000000000               0.000000000               0.000000000              -0.000029311               0.005083510              -0.000032137              -0.000646429               0.001909963               0.001263534               0.000000000               0.000000000               0.000000000               0.000000000              -0.000015154               0.005012830              -0.000027656              -0.000632285               0.001881688               0.001249403               0.000000000               0.000000000               0.000000000               0.000000000              -0.000005062               0.004953902              -0.000014459              -0.000621135               0.001858329               0.001237194               0.000000000               0.000000000               0.000000000               0.000000000              -0.000006772               0.004916514              -0.000009991              -0.000617102               0.001844522               0.001227420               0.000000000               0.000000000               0.000000000               0.000000000               0.001739190               0.005937723               0.002786422              -0.000090023               0.002009228               0.001919205               0.000000000               0.000000000               0.000000000               0.000000000               0.000721968               0.006035111               0.001962539              -0.000483652               0.002172900               0.001689248               0.000000000               0.000000000               0.000000000               0.000000000              -0.000028853               0.006391544               0.001112235              -0.000809762               0.002400414               0.001590652               0.000000000               0.000000000               0.000000000               0.000000000              -0.000240797               0.006289533               0.000730622              -0.000876489               0.002388653               0.001512164               0.000000000               0.000000000               0.000000000               0.000000000              -0.000291552               0.006104280               0.000513392              -0.000872365               0.002325528               0.001453163               0.000000000               0.000000000               0.000000000               0.000000000              -0.000283808               0.005916563               0.000375837              -0.000845996               0.002254167               0.001408170               0.000000000               0.000000000               0.000000000               0.000000000              -0.000252253               0.005753375               0.000277773              -0.000813765               0.002189027               0.001375263               0.000000000               0.000000000               0.000000000               0.000000000              -0.000217166               0.005611986               0.000195943              -0.000782934               0.002131621               0.001348688               0.000000000               0.000000000               0.000000000               0.000000000              -0.000182997               0.005471460               0.000132120              -0.000752555               0.002074653               0.001322099               0.000000000               0.000000000               0.000000000               0.000000000              -0.000143093               0.005328403               0.000088666              -0.000719709               0.002016020               0.001296311               0.000000000               0.000000000               0.000000000               0.000000000              -0.000105046               0.005190493               0.000055160              -0.000688202               0.001959548               0.001271346               0.000000000               0.000000000               0.000000000               0.000000000              -0.000072197               0.005067386               0.000026779              -0.000660495               0.001909277               0.001248782               0.000000000               0.000000000               0.000000000               0.000000000              -0.000048247               0.004961066               0.000003786              -0.000638224               0.001866414               0.001228189               0.000000000               0.000000000               0.000000000               0.000000000              -0.000032102               0.004868491              -0.000011816              -0.000620598               0.001829680               0.001209082               0.000000000               0.000000000               0.000000000               0.000000000              -0.000024069               0.004784937              -0.000017827              -0.000607141               0.001797343               0.001190202               0.000000000               0.000000000               0.000000000               0.000000000              -0.000015445               0.004713280              -0.000012177              -0.000594950               0.001769394               0.001174444               0.000000000               0.000000000               0.000000000               0.000000000              -0.000012017               0.004671317              -0.000009848              -0.000588419               0.001753230               0.001164810               0.000000000               0.000000000               0.000000000               0.000000000               0.001473635               0.004700435               0.002406780              -0.000034945               0.001578443               0.001543499               0.000000000               0.000000000               0.000000000               0.000000000               0.000513144               0.005219049               0.001898224              -0.000459953               0.001892982               0.001433030               0.000000000               0.000000000               0.000000000               0.000000000              -0.000229686               0.005890269               0.001301307              -0.000822415               0.002237541               0.001415127               0.000000000               0.000000000               0.000000000               0.000000000              -0.000385130               0.005935431               0.000945701              -0.000886351               0.002273907               0.001387557               0.000000000               0.000000000               0.000000000               0.000000000              -0.000393383               0.005837498               0.000713109              -0.000877204               0.002238215               0.001361011               0.000000000               0.000000000               0.000000000               0.000000000              -0.000352371               0.005706294               0.000548683              -0.000845424               0.002183887               0.001338463               0.000000000               0.000000000               0.000000000               0.000000000              -0.000298567               0.005581068               0.000424919              -0.000809594               0.002130202               0.001320608               0.000000000               0.000000000               0.000000000               0.000000000              -0.000246359               0.005461023               0.000326689              -0.000775011               0.002078660               0.001303649               0.000000000               0.000000000               0.000000000               0.000000000              -0.000192186               0.005327749               0.000248318              -0.000738037               0.002021911               0.001283874               0.000000000               0.000000000               0.000000000               0.000000000              -0.000130867               0.005184162               0.000185387              -0.000697094               0.001960401               0.001263308               0.000000000               0.000000000               0.000000000               0.000000000              -0.000081009               0.005043374               0.000128689              -0.000660799               0.001901374               0.001240575               0.000000000               0.000000000               0.000000000               0.000000000              -0.000049606               0.004916752               0.000078386              -0.000633195               0.001849966               0.001216771               0.000000000               0.000000000               0.000000000               0.000000000              -0.000038545               0.004801248               0.000038086              -0.000614609               0.001805270               0.001190661               0.000000000               0.000000000               0.000000000               0.000000000              -0.000042186               0.004693570               0.000011140              -0.000602514               0.001765346               0.001162832               0.000000000               0.000000000               0.000000000               0.000000000              -0.000050230               0.004594437              -0.000003057              -0.000593139               0.001729177               0.001136038               0.000000000               0.000000000               0.000000000               0.000000000              -0.000055545               0.004505871              -0.000006084              -0.000584062               0.001696629               0.001112567               0.000000000               0.000000000               0.000000000               0.000000000              -0.000053264               0.004459445              -0.000005863              -0.000577403               0.001678934               0.001101531               0.000000000               0.000000000               0.000000000               0.000000000               0.001111935               0.003525793               0.001978662              -0.000023751               0.001183169               0.001159418               0.000000000               0.000000000               0.000000000               0.000000000               0.000363055               0.004285677               0.001820353              -0.000399565               0.001561732               0.001162167               0.000000000               0.000000000               0.000000000               0.000000000              -0.000299460               0.005186083               0.001516592              -0.000760557               0.001982195               0.001221639               0.000000000               0.000000000               0.000000000               0.000000000              -0.000425799               0.005424632               0.001197976              -0.000837752               0.002087443               0.001249691               0.000000000               0.000000000               0.000000000               0.000000000              -0.000418295               0.005456126               0.000951661              -0.000838874               0.002098315               0.001259441               0.000000000               0.000000000               0.000000000               0.000000000              -0.000370893               0.005417111               0.000760773              -0.000816222               0.002077760               0.001261538               0.000000000               0.000000000               0.000000000               0.000000000              -0.000314897               0.005351054               0.000610803              -0.000786966               0.002045989               0.001259022               0.000000000               0.000000000               0.000000000               0.000000000              -0.000261033               0.005272589               0.000495233              -0.000756959               0.002009832               0.001252873               0.000000000               0.000000000               0.000000000               0.000000000              -0.000205252               0.005180915               0.000403439              -0.000724582               0.001968482               0.001243900               0.000000000               0.000000000               0.000000000               0.000000000              -0.000144596               0.005069044               0.000319405              -0.000687852               0.001918948               0.001231096               0.000000000               0.000000000               0.000000000               0.000000000              -0.000091799               0.004944433               0.000237826              -0.000652477               0.001865620               0.001213143               0.000000000               0.000000000               0.000000000               0.000000000              -0.000056997               0.004825393               0.000163666              -0.000624547               0.001816630               0.001192084               0.000000000               0.000000000               0.000000000               0.000000000              -0.000045422               0.004713803               0.000099271              -0.000606257               0.001773338               0.001167080               0.000000000               0.000000000               0.000000000               0.000000000              -0.000057518               0.004606916               0.000050677              -0.000597432               0.001734767               0.001137335               0.000000000               0.000000000               0.000000000               0.000000000              -0.000082809               0.004507392               0.000017875              -0.000594476               0.001700608               0.001106132               0.000000000               0.000000000               0.000000000               0.000000000              -0.000111927               0.004413306               0.000000902              -0.000593634               0.001668965               0.001075331               0.000000000               0.000000000               0.000000000               0.000000000              -0.000124951               0.004364258              -0.000003290              -0.000592388               0.001652201               0.001059813               0.000000000               0.000000000               0.000000000               0.000000000               0.000593640               0.002441205               0.001520926              -0.000082538               0.000841238               0.000758701               0.000000000               0.000000000               0.000000000               0.000000000               0.000196133               0.003354723               0.001688796              -0.000345792               0.001233493               0.000887701               0.000000000               0.000000000               0.000000000               0.000000000              -0.000291090               0.004398781               0.001684234              -0.000659006               0.001685914               0.001026908               0.000000000               0.000000000               0.000000000               0.000000000              -0.000390453               0.004822138               0.001445362              -0.000749186               0.001857091               0.001107905               0.000000000               0.000000000               0.000000000               0.000000000              -0.000382249               0.005001630               0.001203232              -0.000768546               0.001923375               0.001154829               0.000000000               0.000000000               0.000000000               0.000000000              -0.000340917               0.005069532               0.000996066              -0.000761534               0.001943672               0.001182138               0.000000000               0.000000000               0.000000000               0.000000000              -0.000290189               0.005076844               0.000827829              -0.000743425               0.001940072               0.001196648               0.000000000               0.000000000               0.000000000               0.000000000              -0.000241304               0.005057981               0.000695533              -0.000722735               0.001926888               0.001204153               0.000000000               0.000000000               0.000000000               0.000000000              -0.000191158               0.005024597               0.000590422              -0.000699757               0.001908101               0.001208344               0.000000000               0.000000000               0.000000000               0.000000000              -0.000140139               0.004961177               0.000492935              -0.000672698               0.001877942               0.001205244               0.000000000               0.000000000               0.000000000               0.000000000              -0.000088686               0.004872990               0.000395422              -0.000642380               0.001838440               0.001196061               0.000000000               0.000000000               0.000000000               0.000000000              -0.000050349               0.004773945               0.000300302              -0.000615623               0.001796507               0.001180884               0.000000000               0.000000000               0.000000000               0.000000000              -0.000033972               0.004672954               0.000210270              -0.000596857               0.001756588               0.001159731               0.000000000               0.000000000               0.000000000               0.000000000              -0.000044481               0.004574590               0.000131619              -0.000588503               0.001721016               0.001132513               0.000000000               0.000000000               0.000000000               0.000000000              -0.000082560               0.004481782               0.000067607              -0.000591181               0.001690973               0.001099792               0.000000000               0.000000000               0.000000000               0.000000000              -0.000139383               0.004396845               0.000023638              -0.000601873               0.001666225               0.001064352               0.000000000               0.000000000               0.000000000               0.000000000              -0.000180614               0.004348481               0.000003957              -0.000611289               0.001653242               0.001041953               0.000000000               0.000000000               0.000000000               0.000000000              -0.000040088               0.001521934               0.001055431              -0.000205275               0.000575731               0.000370455               0.000000000               0.000000000               0.000000000               0.000000000              -0.000032450               0.002472400               0.001474935              -0.000321219               0.000931197               0.000609978               0.000000000               0.000000000               0.000000000               0.000000000              -0.000247742               0.003534440               0.001725679              -0.000534708               0.001356370               0.000821662               0.000000000               0.000000000               0.000000000               0.000000000              -0.000286027               0.004094340               0.001594063              -0.000619052               0.001571117               0.000952064               0.000000000               0.000000000               0.000000000               0.000000000              -0.000272340               0.004408478               0.001388146              -0.000653186               0.001687207               0.001034020               0.000000000               0.000000000               0.000000000               0.000000000              -0.000239417               0.004588164               0.001187901              -0.000663301               0.001750473               0.001087172               0.000000000               0.000000000               0.000000000               0.000000000              -0.000199759               0.004687138               0.001014704              -0.000660801               0.001782630               0.001121830               0.000000000               0.000000000               0.000000000               0.000000000              -0.000159750               0.004743084               0.000874513              -0.000652790               0.001798609               0.001145818               0.000000000               0.000000000               0.000000000               0.000000000              -0.000120976               0.004778025               0.000760566              -0.000642618               0.001806865               0.001164247               0.000000000               0.000000000               0.000000000               0.000000000              -0.000082449               0.004781230               0.000656595              -0.000628571               0.001803251               0.001174680               0.000000000               0.000000000               0.000000000               0.000000000              -0.000042205               0.004746463               0.000552515              -0.000609133               0.001785183               0.001176049               0.000000000               0.000000000               0.000000000               0.000000000              -0.000008017               0.004684483               0.000446809              -0.000588566               0.001757667               0.001169102               0.000000000               0.000000000               0.000000000               0.000000000               0.000013142               0.004608417               0.000343429              -0.000571123               0.001726498               0.001155375               0.000000000               0.000000000               0.000000000               0.000000000               0.000011599               0.004526799               0.000243218              -0.000561499               0.001696084               0.001134585               0.000000000               0.000000000               0.000000000               0.000000000              -0.000020765               0.004447064               0.000148266              -0.000563668               0.001670229               0.001106561               0.000000000               0.000000000               0.000000000               0.000000000              -0.000087692               0.004378736               0.000066374              -0.000580225               0.001652972               0.001072747               0.000000000               0.000000000               0.000000000               0.000000000              -0.000151344               0.004334433               0.000022453              -0.000598557               0.001644315               0.001045759               0.000000000               0.000000000               0.000000000               0.000000000              -0.000741310               0.000815236               0.000636044              -0.000379896               0.000398374               0.000018478               0.000000000               0.000000000               0.000000000               0.000000000              -0.000307754               0.001689123               0.001197602              -0.000326548               0.000671884               0.000345336               0.000000000               0.000000000               0.000000000               0.000000000              -0.000195431               0.002664359               0.001619101              -0.000406332               0.001023554               0.000617222               0.000000000               0.000000000               0.000000000               0.000000000              -0.000131458               0.003297213               0.001596214              -0.000461449               0.001252876               0.000791427               0.000000000               0.000000000               0.000000000               0.000000000              -0.000092074               0.003713847               0.001450603              -0.000498759               0.001404189               0.000905430               0.000000000               0.000000000               0.000000000               0.000000000              -0.000064704               0.003995650               0.001280527              -0.000523720               0.001506443               0.000982723               0.000000000               0.000000000               0.000000000               0.000000000              -0.000036950               0.004188428               0.001122083              -0.000537409               0.001575265               0.001037856               0.000000000               0.000000000               0.000000000               0.000000000              -0.000009212               0.004325658               0.000985914              -0.000544161               0.001623258               0.001079097               0.000000000               0.000000000               0.000000000               0.000000000               0.000014822               0.004434991               0.000869900              -0.000548815               0.001661254               0.001112439               0.000000000               0.000000000               0.000000000               0.000000000               0.000037824               0.004512775               0.000766314              -0.000549912               0.001687547               0.001137635               0.000000000               0.000000000               0.000000000               0.000000000               0.000064251               0.004546111               0.000664048              -0.000544169               0.001696745               0.001152576               0.000000000               0.000000000               0.000000000               0.000000000               0.000092347               0.004540348               0.000560476              -0.000532912               0.001691071               0.001158159               0.000000000               0.000000000               0.000000000               0.000000000               0.000116827               0.004509401               0.000456746              -0.000519864               0.001676406               0.001156543               0.000000000               0.000000000               0.000000000               0.000000000               0.000126513               0.004459372               0.000349736              -0.000509978               0.001656435               0.001146457               0.000000000               0.000000000               0.000000000               0.000000000               0.000112359               0.004404574               0.000237154              -0.000508436               0.001637655               0.001129219               0.000000000               0.000000000               0.000000000               0.000000000               0.000062822               0.004359904               0.000119416              -0.000521428               0.001627096               0.001105668               0.000000000               0.000000000               0.000000000               0.000000000               0.000002561               0.004326213               0.000052273              -0.000539815               0.001621995               0.001082180               0.000000000               0.000000000               0.000000000               0.000000000              -0.001443611               0.000321770               0.000313943              -0.000581575               0.000301113              -0.000280462               0.000000000               0.000000000               0.000000000               0.000000000              -0.000606985               0.001051836               0.000889847              -0.000359099               0.000470307               0.000111208               0.000000000               0.000000000               0.000000000               0.000000000              -0.000149578               0.001871131               0.001365247              -0.000289984               0.000720365               0.000430381               0.000000000               0.000000000               0.000000000               0.000000000               0.000046180               0.002514509               0.001421469              -0.000296997               0.000937159               0.000640163               0.000000000               0.000000000               0.000000000               0.000000000               0.000131554               0.002991069               0.001338042              -0.000324551               0.001105196               0.000780645               0.000000000               0.000000000               0.000000000               0.000000000               0.000167956               0.003349929               0.001215161              -0.000355758               0.001235218               0.000879460               0.000000000               0.000000000               0.000000000               0.000000000               0.000187471               0.003625630               0.001090360              -0.000382902               0.001336165               0.000953263               0.000000000               0.000000000               0.000000000               0.000000000               0.000199429               0.003841264               0.000973908              -0.000405372               0.001415532               0.001010160               0.000000000               0.000000000               0.000000000               0.000000000               0.000207840               0.004021135               0.000870134              -0.000424701               0.001481932               0.001057231               0.000000000               0.000000000               0.000000000               0.000000000               0.000213911               0.004168211               0.000777186              -0.000440809               0.001536326               0.001095517               0.000000000               0.000000000               0.000000000               0.000000000               0.000223622               0.004273863               0.000686332              -0.000450374               0.001574731               0.001124358               0.000000000               0.000000000               0.000000000               0.000000000               0.000241771               0.004342625               0.000593786              -0.000452163               0.001598248               0.001146085               0.000000000               0.000000000               0.000000000               0.000000000               0.000265475               0.004377298               0.000500401              -0.000447608               0.001608287               0.001160679               0.000000000               0.000000000               0.000000000               0.000000000               0.000291159               0.004380674               0.000401261              -0.000438399               0.001606343               0.001167944               0.000000000               0.000000000               0.000000000               0.000000000               0.000310727               0.004364443               0.000288913              -0.000429032               0.001597810               0.001168779               0.000000000               0.000000000               0.000000000               0.000000000               0.000313442               0.004342113               0.000155393              -0.000425222               0.001589097               0.001163875               0.000000000               0.000000000               0.000000000               0.000000000               0.000298478               0.004324598               0.000079249              -0.000428644               0.001584400               0.001155755               0.000000000               0.000000000               0.000000000               0.000000000              -0.002056221               0.000019924               0.000112757              -0.000773573               0.000264497              -0.000509076               0.000000000               0.000000000               0.000000000               0.000000000              -0.000884465               0.000585649               0.000581328              -0.000404880               0.000330174              -0.000074707               0.000000000               0.000000000               0.000000000               0.000000000              -0.000113574               0.001227615               0.000987691              -0.000196043               0.000474548               0.000278505               0.000000000               0.000000000               0.000000000               0.000000000               0.000212409               0.001842550               0.001068568              -0.000150666               0.000664399               0.000513732               0.000000000               0.000000000               0.000000000               0.000000000               0.000352178               0.002346708               0.001032266              -0.000161273               0.000835985               0.000674713               0.000000000               0.000000000               0.000000000               0.000000000               0.000408373               0.002756713               0.000958834              -0.000191450               0.000982711               0.000791262               0.000000000               0.000000000               0.000000000               0.000000000               0.000424901               0.003095108               0.000876203              -0.000227551               0.001107542               0.000879992               0.000000000               0.000000000               0.000000000               0.000000000               0.000425611               0.003374999               0.000794167              -0.000262270               0.001212412               0.000950141               0.000000000               0.000000000               0.000000000               0.000000000               0.000421311               0.003610893               0.000717253              -0.000293370               0.001301409               0.001008039               0.000000000               0.000000000               0.000000000               0.000000000               0.000413538               0.003812867               0.000647281              -0.000321531               0.001378120               0.001056589               0.000000000               0.000000000               0.000000000               0.000000000               0.000408239               0.003983305               0.000578789              -0.000344823               0.001442696               0.001097873               0.000000000               0.000000000               0.000000000               0.000000000               0.000415722               0.004119606               0.000507405              -0.000359054               0.001492873               0.001133819               0.000000000               0.000000000               0.000000000               0.000000000               0.000438378               0.004217455               0.000435181              -0.000362789               0.001526734               0.001163945               0.000000000               0.000000000               0.000000000               0.000000000               0.000477560               0.004275696               0.000357259              -0.000355376               0.001543676               0.001188300               0.000000000               0.000000000               0.000000000               0.000000000               0.000534086               0.004305017               0.000264570              -0.000337844               0.001547606               0.001209762               0.000000000               0.000000000               0.000000000               0.000000000               0.000607640               0.004318801               0.000146199              -0.000311984               0.001543581               0.001231596               0.000000000               0.000000000               0.000000000               0.000000000               0.000665165               0.004328137               0.000080392              -0.000291580               0.001539891               0.001248312               0.000000000               0.000000000               0.000000000               0.000000000              -0.002476668              -0.000137469               0.000022558              -0.000911566               0.000258031              -0.000653536               0.000000000               0.000000000               0.000000000               0.000000000              -0.001079194               0.000300000               0.000284655              -0.000442197               0.000247397              -0.000194800               0.000000000               0.000000000               0.000000000               0.000000000              -0.000088674               0.000803251               0.000518293              -0.000133659               0.000312300               0.000178641               0.000000000               0.000000000               0.000000000               0.000000000               0.000332284               0.001384057               0.000573717              -0.000048401               0.000477481               0.000429080               0.000000000               0.000000000               0.000000000               0.000000000               0.000514538               0.001902818               0.000561922              -0.000044901               0.000649233               0.000604332               0.000000000               0.000000000               0.000000000               0.000000000               0.000586469               0.002340889               0.000529116              -0.000072686               0.000804517               0.000731831               0.000000000               0.000000000               0.000000000               0.000000000               0.000605575               0.002712537               0.000489616              -0.000111977               0.000941495               0.000829519               0.000000000               0.000000000               0.000000000               0.000000000               0.000601039               0.003031468               0.000449010              -0.000153544               0.001061660               0.000908117               0.000000000               0.000000000               0.000000000               0.000000000               0.000589565               0.003306962               0.000409076              -0.000192283               0.001166404               0.000974121               0.000000000               0.000000000               0.000000000               0.000000000               0.000577217               0.003543892               0.000370802              -0.000226530               0.001256795               0.001030266               0.000000000               0.000000000               0.000000000               0.000000000               0.000568432               0.003747882               0.000333402              -0.000255323               0.001334389               0.001079066               0.000000000               0.000000000               0.000000000               0.000000000               0.000572657               0.003921900               0.000294323              -0.000275490               0.001399117               0.001123627               0.000000000               0.000000000               0.000000000               0.000000000               0.000593917               0.004058435               0.000253968              -0.000284585               0.001447660               0.001163075               0.000000000               0.000000000               0.000000000               0.000000000               0.000636818               0.004159257               0.000209594              -0.000281100               0.001480105               0.001199005               0.000000000               0.000000000               0.000000000               0.000000000               0.000711874               0.004232927               0.000155335              -0.000262163               0.001498349               0.001236186               0.000000000               0.000000000               0.000000000               0.000000000               0.000829925               0.004283743               0.000085881              -0.000224246               0.001502649               0.001278403               0.000000000               0.000000000               0.000000000               0.000000000               0.000937641               0.004316824               0.000049105              -0.000187987               0.001501590               0.001313602               0.000000000               0.000000000               0.000000000               0.000000000               0.000000000               0.000000000               0.000000000               0.000000000               0.000000000               0.000000000               0.000000000               0.000000000               0.000000000               0.000000000               0.000000000               0.000000000               0.000000000               0.000000000               0.000000000               0.000000000               0.000000000               0.000000000               0.000000000               0.000000000               0.000000000               0.000000000               0.000000000               0.000000000               0.000000000               0.000000000               0.000000000               0.000000000               0.000000000               0.000000000               0.000000000               0.000000000               0.000000000               0.000000000               0.000000000               0.000000000               0.000000000               0.000000000               0.000000000               0.000000000               0.000000000               0.000000000               0.000000000               0.000000000               0.000000000               0.000000000               0.000000000               0.000000000               0.000000000               0.000000000               0.000000000               0.000000000               0.000000000               0.000000000               0.000000000               0.000000000               0.000000000               0.000000000               0.000000000               0.000000000               0.000000000               0.000000000               0.000000000               0.000000000               0.000000000               0.000000000               0.000000000               0.000000000               0.000000000               0.000000000               0.000000000               0.000000000               0.000000000               0.000000000               0.000000000               0.000000000               0.000000000               0.000000000               0.000000000               0.000000000               0.000000000               0.000000000               0.000000000               0.000000000               0.000000000               0.000000000               0.000000000               0.000000000               0.000000000               0.000000000               0.000000000               0.000000000               0.000000000               0.000000000               0.000000000               0.000000000               0.000000000               0.000000000               0.000000000               0.000000000               0.000000000               0.000000000               0.000000000               0.000000000               0.000000000               0.000000000               0.000000000               0.000000000               0.000000000               0.000000000               0.000000000               0.000000000               0.000000000               0.000000000               0.000000000               0.000000000               0.000000000               0.000000000               0.000000000               0.000000000               0.000000000               0.000000000               0.000000000               0.000000000               0.000000000               0.000000000               0.000000000               0.000000000               0.000000000               0.000000000               0.000000000               0.000000000               0.000000000               0.000000000               0.000000000               0.000000000               0.000000000               0.000000000               0.000000000               0.000000000               0.000000000               0.000000000               0.000000000               0.000000000               0.000000000               0.000000000               0.000000000               0.000000000               0.000000000               0.000000000               0.000000000               0.000000000               0.000000000               0.000000000               0.000000000               0.000000000               0.000000000               0.000000000               0.000000000               0.000000000               0.000000000               0.000000000               0.000000000               0.000000000               0.000000000               0.000000000               0.000000000               0.000000000               0.000000000               0.000000000 </DataArray>
</PointData>
</Piece>
</UnstructuredGrid> </VTKFile>
