<?xml version="1.0"?>
<VTKFile type="UnstructuredGrid" version="0.1">
<UnstructuredGrid>
<Piece NumberOfPoints="      1156" NumberOfCells="      1024">
<Points>
<DataArray type="Float64"                                    Name="coordinates"                                                      NumberOfComponents=" 3" format="ascii">
              0.133000000               0.000000000               0.000000000               0.155937500               0.000000000               0.000000000               0.178875000               0.000000000               0.000000000               0.201812500               0.000000000               0.000000000               0.224750000               0.000000000               0.000000000               0.247687500               0.000000000               0.000000000               0.270625000               0.000000000               0.000000000               0.293562500               0.000000000               0.000000000               0.316500000               0.000000000               0.000000000               0.339437500               0.000000000               0.000000000               0.362375000               0.000000000               0.000000000               0.385312500               0.000000000               0.000000000               0.408250000               0.000000000               0.000000000               0.431187500               0.000000000               0.000000000               0.454125000               0.000000000               0.000000000               0.477062500               0.000000000               0.000000000               0.500000000               0.000000000               0.000000000               0.132359569               0.013036280               0.000000000               0.155337096               0.016127762               0.000000000               0.178314623               0.019219245               0.000000000               0.201292150               0.022310727               0.000000000               0.224269676               0.025402210               0.000000000               0.247247203               0.028493692               0.000000000               0.270224730               0.031585175               0.000000000               0.293202257               0.034676657               0.000000000               0.316179784               0.037768140               0.000000000               0.339157311               0.040859622               0.000000000               0.362134838               0.043951105               0.000000000               0.385112365               0.047042587               0.000000000               0.408089892               0.050134070               0.000000000               0.431067419               0.053225552               0.000000000               0.454044946               0.056317035               0.000000000               0.477022473               0.059408517               0.000000000               0.500000000               0.062500000               0.000000000               0.130444442               0.025947013               0.000000000               0.153541665               0.032137825               0.000000000               0.176638887               0.038328636               0.000000000               0.199736109               0.044519448               0.000000000               0.222833332               0.050710260               0.000000000               0.245930554               0.056901071               0.000000000               0.269027776               0.063091883               0.000000000               0.292124999               0.069282695               0.000000000               0.315222221               0.075473506               0.000000000               0.338319444               0.081664318               0.000000000               0.361416666               0.087855130               0.000000000               0.384513888               0.094045942               0.000000000               0.407611111               0.100236753               0.000000000               0.430708333               0.106427565               0.000000000               0.453805555               0.112618377               0.000000000               0.476902778               0.118809188               0.000000000               0.500000000               0.125000000               0.000000000               0.127273065               0.038607862               0.000000000               0.150568498               0.047913621               0.000000000               0.173863932               0.057219379               0.000000000               0.197159365               0.066525138               0.000000000               0.220454798               0.075830897               0.000000000               0.243750232               0.085136655               0.000000000               0.267045665               0.094442414               0.000000000               0.290341099               0.103748172               0.000000000               0.313636532               0.113053931               0.000000000               0.336931966               0.122359690               0.000000000               0.360227399               0.131665448               0.000000000               0.383522833               0.140971207               0.000000000               0.406818266               0.150276966               0.000000000               0.430113700               0.159582724               0.000000000               0.453409133               0.168888483               0.000000000               0.476704567               0.178194241               0.000000000               0.500000000               0.187500000               0.000000000               0.122875978               0.050896897               0.000000000               0.146446229               0.063340840               0.000000000               0.170016481               0.075784784               0.000000000               0.193586732               0.088228728               0.000000000               0.217156983               0.100672672               0.000000000               0.240727235               0.113116616               0.000000000               0.264297486               0.125560560               0.000000000               0.287867738               0.138004504               0.000000000               0.311437989               0.150448448               0.000000000               0.335008240               0.162892392               0.000000000               0.358578492               0.175336336               0.000000000               0.382148743               0.187780280               0.000000000               0.405718994               0.200224224               0.000000000               0.429289246               0.212668168               0.000000000               0.452859497               0.225112112               0.000000000               0.476429749               0.237556056               0.000000000               0.500000000               0.250000000               0.000000000               0.117295528               0.062695766               0.000000000               0.141214558               0.078308531               0.000000000               0.165133587               0.093921295               0.000000000               0.189052617               0.109534060               0.000000000               0.212971646               0.125146824               0.000000000               0.236890676               0.140759589               0.000000000               0.260809705               0.156372354               0.000000000               0.284728735               0.171985118               0.000000000               0.308647764               0.187597883               0.000000000               0.332566794               0.203210648               0.000000000               0.356485823               0.218823412               0.000000000               0.380404853               0.234436177               0.000000000               0.404323882               0.250048941               0.000000000               0.428242912               0.265661706               0.000000000               0.452161941               0.281274471               0.000000000               0.476080971               0.296887235               0.000000000               0.500000000               0.312500000               0.000000000               0.110585458               0.073890841               0.000000000               0.134923867               0.092710163               0.000000000               0.159262276               0.111529486               0.000000000               0.183600685               0.130348808               0.000000000               0.207939094               0.149168131               0.000000000               0.232277503               0.167987453               0.000000000               0.256615912               0.186806776               0.000000000               0.280954320               0.205626098               0.000000000               0.305292729               0.224445420               0.000000000               0.329631138               0.243264743               0.000000000               0.353969547               0.262084065               0.000000000               0.378307956               0.280903388               0.000000000               0.402646365               0.299722710               0.000000000               0.426984773               0.318542033               0.000000000               0.451323182               0.337361355               0.000000000               0.475661591               0.356180678               0.000000000               0.500000000               0.375000000               0.000000000               0.102810390               0.084374307               0.000000000               0.127634741               0.106444663               0.000000000               0.152459092               0.128515018               0.000000000               0.177283442               0.150585374               0.000000000               0.202107793               0.172655730               0.000000000               0.226932143               0.194726086               0.000000000               0.251756494               0.216796442               0.000000000               0.276580845               0.238866798               0.000000000               0.301405195               0.260937153               0.000000000               0.326229546               0.283007509               0.000000000               0.351053896               0.305077865               0.000000000               0.375878247               0.327148221               0.000000000               0.400702598               0.349218577               0.000000000               0.425526948               0.371288933               0.000000000               0.450351299               0.393359288               0.000000000               0.475175649               0.415429644               0.000000000               0.500000000               0.437500000               0.000000000               0.094045202               0.094045202               0.000000000               0.119417377               0.119417377               0.000000000               0.144789552               0.144789552               0.000000000               0.170161727               0.170161727               0.000000000               0.195533901               0.195533901               0.000000000               0.220906076               0.220906076               0.000000000               0.246278251               0.246278251               0.000000000               0.271650426               0.271650426               0.000000000               0.297022601               0.297022601               0.000000000               0.322394776               0.322394776               0.000000000               0.347766951               0.347766951               0.000000000               0.373139126               0.373139126               0.000000000               0.398511300               0.398511300               0.000000000               0.423883475               0.423883475               0.000000000               0.449255650               0.449255650               0.000000000               0.474627825               0.474627825               0.000000000               0.500000000               0.500000000               0.000000000               0.084374307               0.102810390               0.000000000               0.106444663               0.127634741               0.000000000               0.128515018               0.152459092               0.000000000               0.150585374               0.177283442               0.000000000               0.172655730               0.202107793               0.000000000               0.194726086               0.226932143               0.000000000               0.216796442               0.251756494               0.000000000               0.238866798               0.276580845               0.000000000               0.260937153               0.301405195               0.000000000               0.283007509               0.326229546               0.000000000               0.305077865               0.351053896               0.000000000               0.327148221               0.375878247               0.000000000               0.349218577               0.400702598               0.000000000               0.371288933               0.425526948               0.000000000               0.393359288               0.450351299               0.000000000               0.415429644               0.475175649               0.000000000               0.437500000               0.500000000               0.000000000               0.073890841               0.110585458               0.000000000               0.092710163               0.134923867               0.000000000               0.111529486               0.159262276               0.000000000               0.130348808               0.183600685               0.000000000               0.149168131               0.207939094               0.000000000               0.167987453               0.232277503               0.000000000               0.186806776               0.256615912               0.000000000               0.205626098               0.280954320               0.000000000               0.224445420               0.305292729               0.000000000               0.243264743               0.329631138               0.000000000               0.262084065               0.353969547               0.000000000               0.280903388               0.378307956               0.000000000               0.299722710               0.402646365               0.000000000               0.318542033               0.426984773               0.000000000               0.337361355               0.451323182               0.000000000               0.356180678               0.475661591               0.000000000               0.375000000               0.500000000               0.000000000               0.062695766               0.117295528               0.000000000               0.078308531               0.141214558               0.000000000               0.093921295               0.165133587               0.000000000               0.109534060               0.189052617               0.000000000               0.125146824               0.212971646               0.000000000               0.140759589               0.236890676               0.000000000               0.156372354               0.260809705               0.000000000               0.171985118               0.284728735               0.000000000               0.187597883               0.308647764               0.000000000               0.203210648               0.332566794               0.000000000               0.218823412               0.356485823               0.000000000               0.234436177               0.380404853               0.000000000               0.250048941               0.404323882               0.000000000               0.265661706               0.428242912               0.000000000               0.281274471               0.452161941               0.000000000               0.296887235               0.476080971               0.000000000               0.312500000               0.500000000               0.000000000               0.050896897               0.122875978               0.000000000               0.063340840               0.146446229               0.000000000               0.075784784               0.170016481               0.000000000               0.088228728               0.193586732               0.000000000               0.100672672               0.217156983               0.000000000               0.113116616               0.240727235               0.000000000               0.125560560               0.264297486               0.000000000               0.138004504               0.287867738               0.000000000               0.150448448               0.311437989               0.000000000               0.162892392               0.335008240               0.000000000               0.175336336               0.358578492               0.000000000               0.187780280               0.382148743               0.000000000               0.200224224               0.405718994               0.000000000               0.212668168               0.429289246               0.000000000               0.225112112               0.452859497               0.000000000               0.237556056               0.476429749               0.000000000               0.250000000               0.500000000               0.000000000               0.038607862               0.127273065               0.000000000               0.047913621               0.150568498               0.000000000               0.057219379               0.173863932               0.000000000               0.066525138               0.197159365               0.000000000               0.075830897               0.220454798               0.000000000               0.085136655               0.243750232               0.000000000               0.094442414               0.267045665               0.000000000               0.103748172               0.290341099               0.000000000               0.113053931               0.313636532               0.000000000               0.122359690               0.336931966               0.000000000               0.131665448               0.360227399               0.000000000               0.140971207               0.383522833               0.000000000               0.150276966               0.406818266               0.000000000               0.159582724               0.430113700               0.000000000               0.168888483               0.453409133               0.000000000               0.178194241               0.476704567               0.000000000               0.187500000               0.500000000               0.000000000               0.025947013               0.130444442               0.000000000               0.032137825               0.153541665               0.000000000               0.038328636               0.176638887               0.000000000               0.044519448               0.199736109               0.000000000               0.050710260               0.222833332               0.000000000               0.056901071               0.245930554               0.000000000               0.063091883               0.269027776               0.000000000               0.069282695               0.292124999               0.000000000               0.075473506               0.315222221               0.000000000               0.081664318               0.338319444               0.000000000               0.087855130               0.361416666               0.000000000               0.094045942               0.384513888               0.000000000               0.100236753               0.407611111               0.000000000               0.106427565               0.430708333               0.000000000               0.112618377               0.453805555               0.000000000               0.118809188               0.476902778               0.000000000               0.125000000               0.500000000               0.000000000               0.013036280               0.132359569               0.000000000               0.016127762               0.155337096               0.000000000               0.019219245               0.178314623               0.000000000               0.022310727               0.201292150               0.000000000               0.025402210               0.224269676               0.000000000               0.028493692               0.247247203               0.000000000               0.031585175               0.270224730               0.000000000               0.034676657               0.293202257               0.000000000               0.037768140               0.316179784               0.000000000               0.040859622               0.339157311               0.000000000               0.043951105               0.362134838               0.000000000               0.047042587               0.385112365               0.000000000               0.050134070               0.408089892               0.000000000               0.053225552               0.431067419               0.000000000               0.056317035               0.454044946               0.000000000               0.059408517               0.477022473               0.000000000               0.062500000               0.500000000               0.000000000               0.000000000               0.133000000               0.000000000               0.000000000               0.155937500               0.000000000               0.000000000               0.178875000               0.000000000               0.000000000               0.201812500               0.000000000               0.000000000               0.224750000               0.000000000               0.000000000               0.247687500               0.000000000               0.000000000               0.270625000               0.000000000               0.000000000               0.293562500               0.000000000               0.000000000               0.316500000               0.000000000               0.000000000               0.339437500               0.000000000               0.000000000               0.362375000               0.000000000               0.000000000               0.385312500               0.000000000               0.000000000               0.408250000               0.000000000               0.000000000               0.431187500               0.000000000               0.000000000               0.454125000               0.000000000               0.000000000               0.477062500               0.000000000               0.000000000               0.500000000               0.000000000               0.133000000               0.000000000               0.000000000               0.155937500               0.000000000               0.000000000               0.178875000               0.000000000               0.000000000               0.201812500               0.000000000               0.000000000               0.224750000               0.000000000               0.000000000               0.247687500               0.000000000               0.000000000               0.270625000               0.000000000               0.000000000               0.293562500               0.000000000               0.000000000               0.316500000               0.000000000               0.000000000               0.339437500               0.000000000               0.000000000               0.362375000               0.000000000               0.000000000               0.385312500               0.000000000               0.000000000               0.408250000               0.000000000               0.000000000               0.431187500               0.000000000               0.000000000               0.454125000               0.000000000               0.000000000               0.477062500               0.000000000               0.000000000               0.500000000               0.000000000               0.000000000               0.132359569              -0.013036280               0.000000000               0.155337096              -0.016127762               0.000000000               0.178314623              -0.019219245               0.000000000               0.201292150              -0.022310727               0.000000000               0.224269676              -0.025402210               0.000000000               0.247247203              -0.028493692               0.000000000               0.270224730              -0.031585175               0.000000000               0.293202257              -0.034676657               0.000000000               0.316179784              -0.037768140               0.000000000               0.339157311              -0.040859622               0.000000000               0.362134838              -0.043951105               0.000000000               0.385112365              -0.047042587               0.000000000               0.408089892              -0.050134070               0.000000000               0.431067419              -0.053225552               0.000000000               0.454044946              -0.056317035               0.000000000               0.477022473              -0.059408517               0.000000000               0.500000000              -0.062500000               0.000000000               0.130444442              -0.025947013               0.000000000               0.153541665              -0.032137825               0.000000000               0.176638887              -0.038328636               0.000000000               0.199736109              -0.044519448               0.000000000               0.222833332              -0.050710260               0.000000000               0.245930554              -0.056901071               0.000000000               0.269027776              -0.063091883               0.000000000               0.292124999              -0.069282695               0.000000000               0.315222221              -0.075473506               0.000000000               0.338319444              -0.081664318               0.000000000               0.361416666              -0.087855130               0.000000000               0.384513888              -0.094045942               0.000000000               0.407611111              -0.100236753               0.000000000               0.430708333              -0.106427565               0.000000000               0.453805555              -0.112618377               0.000000000               0.476902778              -0.118809188               0.000000000               0.500000000              -0.125000000               0.000000000               0.127273065              -0.038607862               0.000000000               0.150568498              -0.047913621               0.000000000               0.173863932              -0.057219379               0.000000000               0.197159365              -0.066525138               0.000000000               0.220454798              -0.075830897               0.000000000               0.243750232              -0.085136655               0.000000000               0.267045665              -0.094442414               0.000000000               0.290341099              -0.103748172               0.000000000               0.313636532              -0.113053931               0.000000000               0.336931966              -0.122359690               0.000000000               0.360227399              -0.131665448               0.000000000               0.383522833              -0.140971207               0.000000000               0.406818266              -0.150276966               0.000000000               0.430113700              -0.159582724               0.000000000               0.453409133              -0.168888483               0.000000000               0.476704567              -0.178194241               0.000000000               0.500000000              -0.187500000               0.000000000               0.122875978              -0.050896897               0.000000000               0.146446229              -0.063340840               0.000000000               0.170016481              -0.075784784               0.000000000               0.193586732              -0.088228728               0.000000000               0.217156983              -0.100672672               0.000000000               0.240727235              -0.113116616               0.000000000               0.264297486              -0.125560560               0.000000000               0.287867738              -0.138004504               0.000000000               0.311437989              -0.150448448               0.000000000               0.335008240              -0.162892392               0.000000000               0.358578492              -0.175336336               0.000000000               0.382148743              -0.187780280               0.000000000               0.405718994              -0.200224224               0.000000000               0.429289246              -0.212668168               0.000000000               0.452859497              -0.225112112               0.000000000               0.476429749              -0.237556056               0.000000000               0.500000000              -0.250000000               0.000000000               0.117295528              -0.062695766               0.000000000               0.141214558              -0.078308531               0.000000000               0.165133587              -0.093921295               0.000000000               0.189052617              -0.109534060               0.000000000               0.212971646              -0.125146824               0.000000000               0.236890676              -0.140759589               0.000000000               0.260809705              -0.156372354               0.000000000               0.284728735              -0.171985118               0.000000000               0.308647764              -0.187597883               0.000000000               0.332566794              -0.203210648               0.000000000               0.356485823              -0.218823412               0.000000000               0.380404853              -0.234436177               0.000000000               0.404323882              -0.250048941               0.000000000               0.428242912              -0.265661706               0.000000000               0.452161941              -0.281274471               0.000000000               0.476080971              -0.296887235               0.000000000               0.500000000              -0.312500000               0.000000000               0.110585458              -0.073890841               0.000000000               0.134923867              -0.092710163               0.000000000               0.159262276              -0.111529486               0.000000000               0.183600685              -0.130348808               0.000000000               0.207939094              -0.149168131               0.000000000               0.232277503              -0.167987453               0.000000000               0.256615912              -0.186806776               0.000000000               0.280954320              -0.205626098               0.000000000               0.305292729              -0.224445420               0.000000000               0.329631138              -0.243264743               0.000000000               0.353969547              -0.262084065               0.000000000               0.378307956              -0.280903388               0.000000000               0.402646365              -0.299722710               0.000000000               0.426984773              -0.318542033               0.000000000               0.451323182              -0.337361355               0.000000000               0.475661591              -0.356180678               0.000000000               0.500000000              -0.375000000               0.000000000               0.102810390              -0.084374307               0.000000000               0.127634741              -0.106444663               0.000000000               0.152459092              -0.128515018               0.000000000               0.177283442              -0.150585374               0.000000000               0.202107793              -0.172655730               0.000000000               0.226932143              -0.194726086               0.000000000               0.251756494              -0.216796442               0.000000000               0.276580845              -0.238866798               0.000000000               0.301405195              -0.260937153               0.000000000               0.326229546              -0.283007509               0.000000000               0.351053896              -0.305077865               0.000000000               0.375878247              -0.327148221               0.000000000               0.400702598              -0.349218577               0.000000000               0.425526948              -0.371288933               0.000000000               0.450351299              -0.393359288               0.000000000               0.475175649              -0.415429644               0.000000000               0.500000000              -0.437500000               0.000000000               0.094045202              -0.094045202               0.000000000               0.119417377              -0.119417377               0.000000000               0.144789552              -0.144789552               0.000000000               0.170161727              -0.170161727               0.000000000               0.195533901              -0.195533901               0.000000000               0.220906076              -0.220906076               0.000000000               0.246278251              -0.246278251               0.000000000               0.271650426              -0.271650426               0.000000000               0.297022601              -0.297022601               0.000000000               0.322394776              -0.322394776               0.000000000               0.347766951              -0.347766951               0.000000000               0.373139126              -0.373139126               0.000000000               0.398511300              -0.398511300               0.000000000               0.423883475              -0.423883475               0.000000000               0.449255650              -0.449255650               0.000000000               0.474627825              -0.474627825               0.000000000               0.500000000              -0.500000000               0.000000000               0.084374307              -0.102810390               0.000000000               0.106444663              -0.127634741               0.000000000               0.128515018              -0.152459092               0.000000000               0.150585374              -0.177283442               0.000000000               0.172655730              -0.202107793               0.000000000               0.194726086              -0.226932143               0.000000000               0.216796442              -0.251756494               0.000000000               0.238866798              -0.276580845               0.000000000               0.260937153              -0.301405195               0.000000000               0.283007509              -0.326229546               0.000000000               0.305077865              -0.351053896               0.000000000               0.327148221              -0.375878247               0.000000000               0.349218577              -0.400702598               0.000000000               0.371288933              -0.425526948               0.000000000               0.393359288              -0.450351299               0.000000000               0.415429644              -0.475175649               0.000000000               0.437500000              -0.500000000               0.000000000               0.073890841              -0.110585458               0.000000000               0.092710163              -0.134923867               0.000000000               0.111529486              -0.159262276               0.000000000               0.130348808              -0.183600685               0.000000000               0.149168131              -0.207939094               0.000000000               0.167987453              -0.232277503               0.000000000               0.186806776              -0.256615912               0.000000000               0.205626098              -0.280954320               0.000000000               0.224445420              -0.305292729               0.000000000               0.243264743              -0.329631138               0.000000000               0.262084065              -0.353969547               0.000000000               0.280903388              -0.378307956               0.000000000               0.299722710              -0.402646365               0.000000000               0.318542033              -0.426984773               0.000000000               0.337361355              -0.451323182               0.000000000               0.356180678              -0.475661591               0.000000000               0.375000000              -0.500000000               0.000000000               0.062695766              -0.117295528               0.000000000               0.078308531              -0.141214558               0.000000000               0.093921295              -0.165133587               0.000000000               0.109534060              -0.189052617               0.000000000               0.125146824              -0.212971646               0.000000000               0.140759589              -0.236890676               0.000000000               0.156372354              -0.260809705               0.000000000               0.171985118              -0.284728735               0.000000000               0.187597883              -0.308647764               0.000000000               0.203210648              -0.332566794               0.000000000               0.218823412              -0.356485823               0.000000000               0.234436177              -0.380404853               0.000000000               0.250048941              -0.404323882               0.000000000               0.265661706              -0.428242912               0.000000000               0.281274471              -0.452161941               0.000000000               0.296887235              -0.476080971               0.000000000               0.312500000              -0.500000000               0.000000000               0.050896897              -0.122875978               0.000000000               0.063340840              -0.146446229               0.000000000               0.075784784              -0.170016481               0.000000000               0.088228728              -0.193586732               0.000000000               0.100672672              -0.217156983               0.000000000               0.113116616              -0.240727235               0.000000000               0.125560560              -0.264297486               0.000000000               0.138004504              -0.287867738               0.000000000               0.150448448              -0.311437989               0.000000000               0.162892392              -0.335008240               0.000000000               0.175336336              -0.358578492               0.000000000               0.187780280              -0.382148743               0.000000000               0.200224224              -0.405718994               0.000000000               0.212668168              -0.429289246               0.000000000               0.225112112              -0.452859497               0.000000000               0.237556056              -0.476429749               0.000000000               0.250000000              -0.500000000               0.000000000               0.038607862              -0.127273065               0.000000000               0.047913621              -0.150568498               0.000000000               0.057219379              -0.173863932               0.000000000               0.066525138              -0.197159365               0.000000000               0.075830897              -0.220454798               0.000000000               0.085136655              -0.243750232               0.000000000               0.094442414              -0.267045665               0.000000000               0.103748172              -0.290341099               0.000000000               0.113053931              -0.313636532               0.000000000               0.122359690              -0.336931966               0.000000000               0.131665448              -0.360227399               0.000000000               0.140971207              -0.383522833               0.000000000               0.150276966              -0.406818266               0.000000000               0.159582724              -0.430113700               0.000000000               0.168888483              -0.453409133               0.000000000               0.178194241              -0.476704567               0.000000000               0.187500000              -0.500000000               0.000000000               0.025947013              -0.130444442               0.000000000               0.032137825              -0.153541665               0.000000000               0.038328636              -0.176638887               0.000000000               0.044519448              -0.199736109               0.000000000               0.050710260              -0.222833332               0.000000000               0.056901071              -0.245930554               0.000000000               0.063091883              -0.269027776               0.000000000               0.069282695              -0.292124999               0.000000000               0.075473506              -0.315222221               0.000000000               0.081664318              -0.338319444               0.000000000               0.087855130              -0.361416666               0.000000000               0.094045942              -0.384513888               0.000000000               0.100236753              -0.407611111               0.000000000               0.106427565              -0.430708333               0.000000000               0.112618377              -0.453805555               0.000000000               0.118809188              -0.476902778               0.000000000               0.125000000              -0.500000000               0.000000000               0.013036280              -0.132359569               0.000000000               0.016127762              -0.155337096               0.000000000               0.019219245              -0.178314623               0.000000000               0.022310727              -0.201292150               0.000000000               0.025402210              -0.224269676               0.000000000               0.028493692              -0.247247203               0.000000000               0.031585175              -0.270224730               0.000000000               0.034676657              -0.293202257               0.000000000               0.037768140              -0.316179784               0.000000000               0.040859622              -0.339157311               0.000000000               0.043951105              -0.362134838               0.000000000               0.047042587              -0.385112365               0.000000000               0.050134070              -0.408089892               0.000000000               0.053225552              -0.431067419               0.000000000               0.056317035              -0.454044946               0.000000000               0.059408517              -0.477022473               0.000000000               0.062500000              -0.500000000               0.000000000               0.000000000              -0.133000000               0.000000000               0.000000000              -0.155937500               0.000000000               0.000000000              -0.178875000               0.000000000               0.000000000              -0.201812500               0.000000000               0.000000000              -0.224750000               0.000000000               0.000000000              -0.247687500               0.000000000               0.000000000              -0.270625000               0.000000000               0.000000000              -0.293562500               0.000000000               0.000000000              -0.316500000               0.000000000               0.000000000              -0.339437500               0.000000000               0.000000000              -0.362375000               0.000000000               0.000000000              -0.385312500               0.000000000               0.000000000              -0.408250000               0.000000000               0.000000000              -0.431187500               0.000000000               0.000000000              -0.454125000               0.000000000               0.000000000              -0.477062500               0.000000000               0.000000000              -0.500000000               0.000000000              -0.133000000               0.000000000               0.000000000              -0.155937500               0.000000000               0.000000000              -0.178875000               0.000000000               0.000000000              -0.201812500               0.000000000               0.000000000              -0.224750000               0.000000000               0.000000000              -0.247687500               0.000000000               0.000000000              -0.270625000               0.000000000               0.000000000              -0.293562500               0.000000000               0.000000000              -0.316500000               0.000000000               0.000000000              -0.339437500               0.000000000               0.000000000              -0.362375000               0.000000000               0.000000000              -0.385312500               0.000000000               0.000000000              -0.408250000               0.000000000               0.000000000              -0.431187500               0.000000000               0.000000000              -0.454125000               0.000000000               0.000000000              -0.477062500               0.000000000               0.000000000              -0.500000000               0.000000000               0.000000000              -0.132359569              -0.013036280               0.000000000              -0.155337096              -0.016127762               0.000000000              -0.178314623              -0.019219245               0.000000000              -0.201292150              -0.022310727               0.000000000              -0.224269676              -0.025402210               0.000000000              -0.247247203              -0.028493692               0.000000000              -0.270224730              -0.031585175               0.000000000              -0.293202257              -0.034676657               0.000000000              -0.316179784              -0.037768140               0.000000000              -0.339157311              -0.040859622               0.000000000              -0.362134838              -0.043951105               0.000000000              -0.385112365              -0.047042587               0.000000000              -0.408089892              -0.050134070               0.000000000              -0.431067419              -0.053225552               0.000000000              -0.454044946              -0.056317035               0.000000000              -0.477022473              -0.059408517               0.000000000              -0.500000000              -0.062500000               0.000000000              -0.130444442              -0.025947013               0.000000000              -0.153541665              -0.032137825               0.000000000              -0.176638887              -0.038328636               0.000000000              -0.199736109              -0.044519448               0.000000000              -0.222833332              -0.050710260               0.000000000              -0.245930554              -0.056901071               0.000000000              -0.269027776              -0.063091883               0.000000000              -0.292124999              -0.069282695               0.000000000              -0.315222221              -0.075473506               0.000000000              -0.338319444              -0.081664318               0.000000000              -0.361416666              -0.087855130               0.000000000              -0.384513888              -0.094045942               0.000000000              -0.407611111              -0.100236753               0.000000000              -0.430708333              -0.106427565               0.000000000              -0.453805555              -0.112618377               0.000000000              -0.476902778              -0.118809188               0.000000000              -0.500000000              -0.125000000               0.000000000              -0.127273065              -0.038607862               0.000000000              -0.150568498              -0.047913621               0.000000000              -0.173863932              -0.057219379               0.000000000              -0.197159365              -0.066525138               0.000000000              -0.220454798              -0.075830897               0.000000000              -0.243750232              -0.085136655               0.000000000              -0.267045665              -0.094442414               0.000000000              -0.290341099              -0.103748172               0.000000000              -0.313636532              -0.113053931               0.000000000              -0.336931966              -0.122359690               0.000000000              -0.360227399              -0.131665448               0.000000000              -0.383522833              -0.140971207               0.000000000              -0.406818266              -0.150276966               0.000000000              -0.430113700              -0.159582724               0.000000000              -0.453409133              -0.168888483               0.000000000              -0.476704567              -0.178194241               0.000000000              -0.500000000              -0.187500000               0.000000000              -0.122875978              -0.050896897               0.000000000              -0.146446229              -0.063340840               0.000000000              -0.170016481              -0.075784784               0.000000000              -0.193586732              -0.088228728               0.000000000              -0.217156983              -0.100672672               0.000000000              -0.240727235              -0.113116616               0.000000000              -0.264297486              -0.125560560               0.000000000              -0.287867738              -0.138004504               0.000000000              -0.311437989              -0.150448448               0.000000000              -0.335008240              -0.162892392               0.000000000              -0.358578492              -0.175336336               0.000000000              -0.382148743              -0.187780280               0.000000000              -0.405718994              -0.200224224               0.000000000              -0.429289246              -0.212668168               0.000000000              -0.452859497              -0.225112112               0.000000000              -0.476429749              -0.237556056               0.000000000              -0.500000000              -0.250000000               0.000000000              -0.117295528              -0.062695766               0.000000000              -0.141214558              -0.078308531               0.000000000              -0.165133587              -0.093921295               0.000000000              -0.189052617              -0.109534060               0.000000000              -0.212971646              -0.125146824               0.000000000              -0.236890676              -0.140759589               0.000000000              -0.260809705              -0.156372354               0.000000000              -0.284728735              -0.171985118               0.000000000              -0.308647764              -0.187597883               0.000000000              -0.332566794              -0.203210648               0.000000000              -0.356485823              -0.218823412               0.000000000              -0.380404853              -0.234436177               0.000000000              -0.404323882              -0.250048941               0.000000000              -0.428242912              -0.265661706               0.000000000              -0.452161941              -0.281274471               0.000000000              -0.476080971              -0.296887235               0.000000000              -0.500000000              -0.312500000               0.000000000              -0.110585458              -0.073890841               0.000000000              -0.134923867              -0.092710163               0.000000000              -0.159262276              -0.111529486               0.000000000              -0.183600685              -0.130348808               0.000000000              -0.207939094              -0.149168131               0.000000000              -0.232277503              -0.167987453               0.000000000              -0.256615912              -0.186806776               0.000000000              -0.280954320              -0.205626098               0.000000000              -0.305292729              -0.224445420               0.000000000              -0.329631138              -0.243264743               0.000000000              -0.353969547              -0.262084065               0.000000000              -0.378307956              -0.280903388               0.000000000              -0.402646365              -0.299722710               0.000000000              -0.426984773              -0.318542033               0.000000000              -0.451323182              -0.337361355               0.000000000              -0.475661591              -0.356180678               0.000000000              -0.500000000              -0.375000000               0.000000000              -0.102810390              -0.084374307               0.000000000              -0.127634741              -0.106444663               0.000000000              -0.152459092              -0.128515018               0.000000000              -0.177283442              -0.150585374               0.000000000              -0.202107793              -0.172655730               0.000000000              -0.226932143              -0.194726086               0.000000000              -0.251756494              -0.216796442               0.000000000              -0.276580845              -0.238866798               0.000000000              -0.301405195              -0.260937153               0.000000000              -0.326229546              -0.283007509               0.000000000              -0.351053896              -0.305077865               0.000000000              -0.375878247              -0.327148221               0.000000000              -0.400702598              -0.349218577               0.000000000              -0.425526948              -0.371288933               0.000000000              -0.450351299              -0.393359288               0.000000000              -0.475175649              -0.415429644               0.000000000              -0.500000000              -0.437500000               0.000000000              -0.094045202              -0.094045202               0.000000000              -0.119417377              -0.119417377               0.000000000              -0.144789552              -0.144789552               0.000000000              -0.170161727              -0.170161727               0.000000000              -0.195533901              -0.195533901               0.000000000              -0.220906076              -0.220906076               0.000000000              -0.246278251              -0.246278251               0.000000000              -0.271650426              -0.271650426               0.000000000              -0.297022601              -0.297022601               0.000000000              -0.322394776              -0.322394776               0.000000000              -0.347766951              -0.347766951               0.000000000              -0.373139126              -0.373139126               0.000000000              -0.398511300              -0.398511300               0.000000000              -0.423883475              -0.423883475               0.000000000              -0.449255650              -0.449255650               0.000000000              -0.474627825              -0.474627825               0.000000000              -0.500000000              -0.500000000               0.000000000              -0.084374307              -0.102810390               0.000000000              -0.106444663              -0.127634741               0.000000000              -0.128515018              -0.152459092               0.000000000              -0.150585374              -0.177283442               0.000000000              -0.172655730              -0.202107793               0.000000000              -0.194726086              -0.226932143               0.000000000              -0.216796442              -0.251756494               0.000000000              -0.238866798              -0.276580845               0.000000000              -0.260937153              -0.301405195               0.000000000              -0.283007509              -0.326229546               0.000000000              -0.305077865              -0.351053896               0.000000000              -0.327148221              -0.375878247               0.000000000              -0.349218577              -0.400702598               0.000000000              -0.371288933              -0.425526948               0.000000000              -0.393359288              -0.450351299               0.000000000              -0.415429644              -0.475175649               0.000000000              -0.437500000              -0.500000000               0.000000000              -0.073890841              -0.110585458               0.000000000              -0.092710163              -0.134923867               0.000000000              -0.111529486              -0.159262276               0.000000000              -0.130348808              -0.183600685               0.000000000              -0.149168131              -0.207939094               0.000000000              -0.167987453              -0.232277503               0.000000000              -0.186806776              -0.256615912               0.000000000              -0.205626098              -0.280954320               0.000000000              -0.224445420              -0.305292729               0.000000000              -0.243264743              -0.329631138               0.000000000              -0.262084065              -0.353969547               0.000000000              -0.280903388              -0.378307956               0.000000000              -0.299722710              -0.402646365               0.000000000              -0.318542033              -0.426984773               0.000000000              -0.337361355              -0.451323182               0.000000000              -0.356180678              -0.475661591               0.000000000              -0.375000000              -0.500000000               0.000000000              -0.062695766              -0.117295528               0.000000000              -0.078308531              -0.141214558               0.000000000              -0.093921295              -0.165133587               0.000000000              -0.109534060              -0.189052617               0.000000000              -0.125146824              -0.212971646               0.000000000              -0.140759589              -0.236890676               0.000000000              -0.156372354              -0.260809705               0.000000000              -0.171985118              -0.284728735               0.000000000              -0.187597883              -0.308647764               0.000000000              -0.203210648              -0.332566794               0.000000000              -0.218823412              -0.356485823               0.000000000              -0.234436177              -0.380404853               0.000000000              -0.250048941              -0.404323882               0.000000000              -0.265661706              -0.428242912               0.000000000              -0.281274471              -0.452161941               0.000000000              -0.296887235              -0.476080971               0.000000000              -0.312500000              -0.500000000               0.000000000              -0.050896897              -0.122875978               0.000000000              -0.063340840              -0.146446229               0.000000000              -0.075784784              -0.170016481               0.000000000              -0.088228728              -0.193586732               0.000000000              -0.100672672              -0.217156983               0.000000000              -0.113116616              -0.240727235               0.000000000              -0.125560560              -0.264297486               0.000000000              -0.138004504              -0.287867738               0.000000000              -0.150448448              -0.311437989               0.000000000              -0.162892392              -0.335008240               0.000000000              -0.175336336              -0.358578492               0.000000000              -0.187780280              -0.382148743               0.000000000              -0.200224224              -0.405718994               0.000000000              -0.212668168              -0.429289246               0.000000000              -0.225112112              -0.452859497               0.000000000              -0.237556056              -0.476429749               0.000000000              -0.250000000              -0.500000000               0.000000000              -0.038607862              -0.127273065               0.000000000              -0.047913621              -0.150568498               0.000000000              -0.057219379              -0.173863932               0.000000000              -0.066525138              -0.197159365               0.000000000              -0.075830897              -0.220454798               0.000000000              -0.085136655              -0.243750232               0.000000000              -0.094442414              -0.267045665               0.000000000              -0.103748172              -0.290341099               0.000000000              -0.113053931              -0.313636532               0.000000000              -0.122359690              -0.336931966               0.000000000              -0.131665448              -0.360227399               0.000000000              -0.140971207              -0.383522833               0.000000000              -0.150276966              -0.406818266               0.000000000              -0.159582724              -0.430113700               0.000000000              -0.168888483              -0.453409133               0.000000000              -0.178194241              -0.476704567               0.000000000              -0.187500000              -0.500000000               0.000000000              -0.025947013              -0.130444442               0.000000000              -0.032137825              -0.153541665               0.000000000              -0.038328636              -0.176638887               0.000000000              -0.044519448              -0.199736109               0.000000000              -0.050710260              -0.222833332               0.000000000              -0.056901071              -0.245930554               0.000000000              -0.063091883              -0.269027776               0.000000000              -0.069282695              -0.292124999               0.000000000              -0.075473506              -0.315222221               0.000000000              -0.081664318              -0.338319444               0.000000000              -0.087855130              -0.361416666               0.000000000              -0.094045942              -0.384513888               0.000000000              -0.100236753              -0.407611111               0.000000000              -0.106427565              -0.430708333               0.000000000              -0.112618377              -0.453805555               0.000000000              -0.118809188              -0.476902778               0.000000000              -0.125000000              -0.500000000               0.000000000              -0.013036280              -0.132359569               0.000000000              -0.016127762              -0.155337096               0.000000000              -0.019219245              -0.178314623               0.000000000              -0.022310727              -0.201292150               0.000000000              -0.025402210              -0.224269676               0.000000000              -0.028493692              -0.247247203               0.000000000              -0.031585175              -0.270224730               0.000000000              -0.034676657              -0.293202257               0.000000000              -0.037768140              -0.316179784               0.000000000              -0.040859622              -0.339157311               0.000000000              -0.043951105              -0.362134838               0.000000000              -0.047042587              -0.385112365               0.000000000              -0.050134070              -0.408089892               0.000000000              -0.053225552              -0.431067419               0.000000000              -0.056317035              -0.454044946               0.000000000              -0.059408517              -0.477022473               0.000000000              -0.062500000              -0.500000000               0.000000000               0.000000000              -0.133000000               0.000000000               0.000000000              -0.155937500               0.000000000               0.000000000              -0.178875000               0.000000000               0.000000000              -0.201812500               0.000000000               0.000000000              -0.224750000               0.000000000               0.000000000              -0.247687500               0.000000000               0.000000000              -0.270625000               0.000000000               0.000000000              -0.293562500               0.000000000               0.000000000              -0.316500000               0.000000000               0.000000000              -0.339437500               0.000000000               0.000000000              -0.362375000               0.000000000               0.000000000              -0.385312500               0.000000000               0.000000000              -0.408250000               0.000000000               0.000000000              -0.431187500               0.000000000               0.000000000              -0.454125000               0.000000000               0.000000000              -0.477062500               0.000000000               0.000000000              -0.500000000               0.000000000              -0.133000000               0.000000000               0.000000000              -0.155937500               0.000000000               0.000000000              -0.178875000               0.000000000               0.000000000              -0.201812500               0.000000000               0.000000000              -0.224750000               0.000000000               0.000000000              -0.247687500               0.000000000               0.000000000              -0.270625000               0.000000000               0.000000000              -0.293562500               0.000000000               0.000000000              -0.316500000               0.000000000               0.000000000              -0.339437500               0.000000000               0.000000000              -0.362375000               0.000000000               0.000000000              -0.385312500               0.000000000               0.000000000              -0.408250000               0.000000000               0.000000000              -0.431187500               0.000000000               0.000000000              -0.454125000               0.000000000               0.000000000              -0.477062500               0.000000000               0.000000000              -0.500000000               0.000000000               0.000000000              -0.132359569               0.013036280               0.000000000              -0.155337096               0.016127762               0.000000000              -0.178314623               0.019219245               0.000000000              -0.201292150               0.022310727               0.000000000              -0.224269676               0.025402210               0.000000000              -0.247247203               0.028493692               0.000000000              -0.270224730               0.031585175               0.000000000              -0.293202257               0.034676657               0.000000000              -0.316179784               0.037768140               0.000000000              -0.339157311               0.040859622               0.000000000              -0.362134838               0.043951105               0.000000000              -0.385112365               0.047042587               0.000000000              -0.408089892               0.050134070               0.000000000              -0.431067419               0.053225552               0.000000000              -0.454044946               0.056317035               0.000000000              -0.477022473               0.059408517               0.000000000              -0.500000000               0.062500000               0.000000000              -0.130444442               0.025947013               0.000000000              -0.153541665               0.032137825               0.000000000              -0.176638887               0.038328636               0.000000000              -0.199736109               0.044519448               0.000000000              -0.222833332               0.050710260               0.000000000              -0.245930554               0.056901071               0.000000000              -0.269027776               0.063091883               0.000000000              -0.292124999               0.069282695               0.000000000              -0.315222221               0.075473506               0.000000000              -0.338319444               0.081664318               0.000000000              -0.361416666               0.087855130               0.000000000              -0.384513888               0.094045942               0.000000000              -0.407611111               0.100236753               0.000000000              -0.430708333               0.106427565               0.000000000              -0.453805555               0.112618377               0.000000000              -0.476902778               0.118809188               0.000000000              -0.500000000               0.125000000               0.000000000              -0.127273065               0.038607862               0.000000000              -0.150568498               0.047913621               0.000000000              -0.173863932               0.057219379               0.000000000              -0.197159365               0.066525138               0.000000000              -0.220454798               0.075830897               0.000000000              -0.243750232               0.085136655               0.000000000              -0.267045665               0.094442414               0.000000000              -0.290341099               0.103748172               0.000000000              -0.313636532               0.113053931               0.000000000              -0.336931966               0.122359690               0.000000000              -0.360227399               0.131665448               0.000000000              -0.383522833               0.140971207               0.000000000              -0.406818266               0.150276966               0.000000000              -0.430113700               0.159582724               0.000000000              -0.453409133               0.168888483               0.000000000              -0.476704567               0.178194241               0.000000000              -0.500000000               0.187500000               0.000000000              -0.122875978               0.050896897               0.000000000              -0.146446229               0.063340840               0.000000000              -0.170016481               0.075784784               0.000000000              -0.193586732               0.088228728               0.000000000              -0.217156983               0.100672672               0.000000000              -0.240727235               0.113116616               0.000000000              -0.264297486               0.125560560               0.000000000              -0.287867738               0.138004504               0.000000000              -0.311437989               0.150448448               0.000000000              -0.335008240               0.162892392               0.000000000              -0.358578492               0.175336336               0.000000000              -0.382148743               0.187780280               0.000000000              -0.405718994               0.200224224               0.000000000              -0.429289246               0.212668168               0.000000000              -0.452859497               0.225112112               0.000000000              -0.476429749               0.237556056               0.000000000              -0.500000000               0.250000000               0.000000000              -0.117295528               0.062695766               0.000000000              -0.141214558               0.078308531               0.000000000              -0.165133587               0.093921295               0.000000000              -0.189052617               0.109534060               0.000000000              -0.212971646               0.125146824               0.000000000              -0.236890676               0.140759589               0.000000000              -0.260809705               0.156372354               0.000000000              -0.284728735               0.171985118               0.000000000              -0.308647764               0.187597883               0.000000000              -0.332566794               0.203210648               0.000000000              -0.356485823               0.218823412               0.000000000              -0.380404853               0.234436177               0.000000000              -0.404323882               0.250048941               0.000000000              -0.428242912               0.265661706               0.000000000              -0.452161941               0.281274471               0.000000000              -0.476080971               0.296887235               0.000000000              -0.500000000               0.312500000               0.000000000              -0.110585458               0.073890841               0.000000000              -0.134923867               0.092710163               0.000000000              -0.159262276               0.111529486               0.000000000              -0.183600685               0.130348808               0.000000000              -0.207939094               0.149168131               0.000000000              -0.232277503               0.167987453               0.000000000              -0.256615912               0.186806776               0.000000000              -0.280954320               0.205626098               0.000000000              -0.305292729               0.224445420               0.000000000              -0.329631138               0.243264743               0.000000000              -0.353969547               0.262084065               0.000000000              -0.378307956               0.280903388               0.000000000              -0.402646365               0.299722710               0.000000000              -0.426984773               0.318542033               0.000000000              -0.451323182               0.337361355               0.000000000              -0.475661591               0.356180678               0.000000000              -0.500000000               0.375000000               0.000000000              -0.102810390               0.084374307               0.000000000              -0.127634741               0.106444663               0.000000000              -0.152459092               0.128515018               0.000000000              -0.177283442               0.150585374               0.000000000              -0.202107793               0.172655730               0.000000000              -0.226932143               0.194726086               0.000000000              -0.251756494               0.216796442               0.000000000              -0.276580845               0.238866798               0.000000000              -0.301405195               0.260937153               0.000000000              -0.326229546               0.283007509               0.000000000              -0.351053896               0.305077865               0.000000000              -0.375878247               0.327148221               0.000000000              -0.400702598               0.349218577               0.000000000              -0.425526948               0.371288933               0.000000000              -0.450351299               0.393359288               0.000000000              -0.475175649               0.415429644               0.000000000              -0.500000000               0.437500000               0.000000000              -0.094045202               0.094045202               0.000000000              -0.119417377               0.119417377               0.000000000              -0.144789552               0.144789552               0.000000000              -0.170161727               0.170161727               0.000000000              -0.195533901               0.195533901               0.000000000              -0.220906076               0.220906076               0.000000000              -0.246278251               0.246278251               0.000000000              -0.271650426               0.271650426               0.000000000              -0.297022601               0.297022601               0.000000000              -0.322394776               0.322394776               0.000000000              -0.347766951               0.347766951               0.000000000              -0.373139126               0.373139126               0.000000000              -0.398511300               0.398511300               0.000000000              -0.423883475               0.423883475               0.000000000              -0.449255650               0.449255650               0.000000000              -0.474627825               0.474627825               0.000000000              -0.500000000               0.500000000               0.000000000              -0.084374307               0.102810390               0.000000000              -0.106444663               0.127634741               0.000000000              -0.128515018               0.152459092               0.000000000              -0.150585374               0.177283442               0.000000000              -0.172655730               0.202107793               0.000000000              -0.194726086               0.226932143               0.000000000              -0.216796442               0.251756494               0.000000000              -0.238866798               0.276580845               0.000000000              -0.260937153               0.301405195               0.000000000              -0.283007509               0.326229546               0.000000000              -0.305077865               0.351053896               0.000000000              -0.327148221               0.375878247               0.000000000              -0.349218577               0.400702598               0.000000000              -0.371288933               0.425526948               0.000000000              -0.393359288               0.450351299               0.000000000              -0.415429644               0.475175649               0.000000000              -0.437500000               0.500000000               0.000000000              -0.073890841               0.110585458               0.000000000              -0.092710163               0.134923867               0.000000000              -0.111529486               0.159262276               0.000000000              -0.130348808               0.183600685               0.000000000              -0.149168131               0.207939094               0.000000000              -0.167987453               0.232277503               0.000000000              -0.186806776               0.256615912               0.000000000              -0.205626098               0.280954320               0.000000000              -0.224445420               0.305292729               0.000000000              -0.243264743               0.329631138               0.000000000              -0.262084065               0.353969547               0.000000000              -0.280903388               0.378307956               0.000000000              -0.299722710               0.402646365               0.000000000              -0.318542033               0.426984773               0.000000000              -0.337361355               0.451323182               0.000000000              -0.356180678               0.475661591               0.000000000              -0.375000000               0.500000000               0.000000000              -0.062695766               0.117295528               0.000000000              -0.078308531               0.141214558               0.000000000              -0.093921295               0.165133587               0.000000000              -0.109534060               0.189052617               0.000000000              -0.125146824               0.212971646               0.000000000              -0.140759589               0.236890676               0.000000000              -0.156372354               0.260809705               0.000000000              -0.171985118               0.284728735               0.000000000              -0.187597883               0.308647764               0.000000000              -0.203210648               0.332566794               0.000000000              -0.218823412               0.356485823               0.000000000              -0.234436177               0.380404853               0.000000000              -0.250048941               0.404323882               0.000000000              -0.265661706               0.428242912               0.000000000              -0.281274471               0.452161941               0.000000000              -0.296887235               0.476080971               0.000000000              -0.312500000               0.500000000               0.000000000              -0.050896897               0.122875978               0.000000000              -0.063340840               0.146446229               0.000000000              -0.075784784               0.170016481               0.000000000              -0.088228728               0.193586732               0.000000000              -0.100672672               0.217156983               0.000000000              -0.113116616               0.240727235               0.000000000              -0.125560560               0.264297486               0.000000000              -0.138004504               0.287867738               0.000000000              -0.150448448               0.311437989               0.000000000              -0.162892392               0.335008240               0.000000000              -0.175336336               0.358578492               0.000000000              -0.187780280               0.382148743               0.000000000              -0.200224224               0.405718994               0.000000000              -0.212668168               0.429289246               0.000000000              -0.225112112               0.452859497               0.000000000              -0.237556056               0.476429749               0.000000000              -0.250000000               0.500000000               0.000000000              -0.038607862               0.127273065               0.000000000              -0.047913621               0.150568498               0.000000000              -0.057219379               0.173863932               0.000000000              -0.066525138               0.197159365               0.000000000              -0.075830897               0.220454798               0.000000000              -0.085136655               0.243750232               0.000000000              -0.094442414               0.267045665               0.000000000              -0.103748172               0.290341099               0.000000000              -0.113053931               0.313636532               0.000000000              -0.122359690               0.336931966               0.000000000              -0.131665448               0.360227399               0.000000000              -0.140971207               0.383522833               0.000000000              -0.150276966               0.406818266               0.000000000              -0.159582724               0.430113700               0.000000000              -0.168888483               0.453409133               0.000000000              -0.178194241               0.476704567               0.000000000              -0.187500000               0.500000000               0.000000000              -0.025947013               0.130444442               0.000000000              -0.032137825               0.153541665               0.000000000              -0.038328636               0.176638887               0.000000000              -0.044519448               0.199736109               0.000000000              -0.050710260               0.222833332               0.000000000              -0.056901071               0.245930554               0.000000000              -0.063091883               0.269027776               0.000000000              -0.069282695               0.292124999               0.000000000              -0.075473506               0.315222221               0.000000000              -0.081664318               0.338319444               0.000000000              -0.087855130               0.361416666               0.000000000              -0.094045942               0.384513888               0.000000000              -0.100236753               0.407611111               0.000000000              -0.106427565               0.430708333               0.000000000              -0.112618377               0.453805555               0.000000000              -0.118809188               0.476902778               0.000000000              -0.125000000               0.500000000               0.000000000              -0.013036280               0.132359569               0.000000000              -0.016127762               0.155337096               0.000000000              -0.019219245               0.178314623               0.000000000              -0.022310727               0.201292150               0.000000000              -0.025402210               0.224269676               0.000000000              -0.028493692               0.247247203               0.000000000              -0.031585175               0.270224730               0.000000000              -0.034676657               0.293202257               0.000000000              -0.037768140               0.316179784               0.000000000              -0.040859622               0.339157311               0.000000000              -0.043951105               0.362134838               0.000000000              -0.047042587               0.385112365               0.000000000              -0.050134070               0.408089892               0.000000000              -0.053225552               0.431067419               0.000000000              -0.056317035               0.454044946               0.000000000              -0.059408517               0.477022473               0.000000000              -0.062500000               0.500000000               0.000000000               0.000000000               0.133000000               0.000000000               0.000000000               0.155937500               0.000000000               0.000000000               0.178875000               0.000000000               0.000000000               0.201812500               0.000000000               0.000000000               0.224750000               0.000000000               0.000000000               0.247687500               0.000000000               0.000000000               0.270625000               0.000000000               0.000000000               0.293562500               0.000000000               0.000000000               0.316500000               0.000000000               0.000000000               0.339437500               0.000000000               0.000000000               0.362375000               0.000000000               0.000000000               0.385312500               0.000000000               0.000000000               0.408250000               0.000000000               0.000000000               0.431187500               0.000000000               0.000000000               0.454125000               0.000000000               0.000000000               0.477062500               0.000000000               0.000000000               0.500000000               0.000000000 </DataArray>
</Points>
<Cells>
<DataArray type="Int32"                                    Name="connectivity"                                                      NumberOfComponents=" 1" format="ascii">
         0          1         18         17          1          2         19         18          2          3         20         19          3          4         21         20          4          5         22         21          5          6         23         22          6          7         24         23          7          8         25         24          8          9         26         25          9         10         27         26         10         11         28         27         11         12         29         28         12         13         30         29         13         14         31         30         14         15         32         31         15         16         33         32         17         18         35         34         18         19         36         35         19         20         37         36         20         21         38         37         21         22         39         38         22         23         40         39         23         24         41         40         24         25         42         41         25         26         43         42         26         27         44         43         27         28         45         44         28         29         46         45         29         30         47         46         30         31         48         47         31         32         49         48         32         33         50         49         34         35         52         51         35         36         53         52         36         37         54         53         37         38         55         54         38         39         56         55         39         40         57         56         40         41         58         57         41         42         59         58         42         43         60         59         43         44         61         60         44         45         62         61         45         46         63         62         46         47         64         63         47         48         65         64         48         49         66         65         49         50         67         66         51         52         69         68         52         53         70         69         53         54         71         70         54         55         72         71         55         56         73         72         56         57         74         73         57         58         75         74         58         59         76         75         59         60         77         76         60         61         78         77         61         62         79         78         62         63         80         79         63         64         81         80         64         65         82         81         65         66         83         82         66         67         84         83         68         69         86         85         69         70         87         86         70         71         88         87         71         72         89         88         72         73         90         89         73         74         91         90         74         75         92         91         75         76         93         92         76         77         94         93         77         78         95         94         78         79         96         95         79         80         97         96         80         81         98         97         81         82         99         98         82         83        100         99         83         84        101        100         85         86        103        102         86         87        104        103         87         88        105        104         88         89        106        105         89         90        107        106         90         91        108        107         91         92        109        108         92         93        110        109         93         94        111        110         94         95        112        111         95         96        113        112         96         97        114        113         97         98        115        114         98         99        116        115         99        100        117        116        100        101        118        117        102        103        120        119        103        104        121        120        104        105        122        121        105        106        123        122        106        107        124        123        107        108        125        124        108        109        126        125        109        110        127        126        110        111        128        127        111        112        129        128        112        113        130        129        113        114        131        130        114        115        132        131        115        116        133        132        116        117        134        133        117        118        135        134        119        120        137        136        120        121        138        137        121        122        139        138        122        123        140        139        123        124        141        140        124        125        142        141        125        126        143        142        126        127        144        143        127        128        145        144        128        129        146        145        129        130        147        146        130        131        148        147        131        132        149        148        132        133        150        149        133        134        151        150        134        135        152        151        136        137        154        153        137        138        155        154        138        139        156        155        139        140        157        156        140        141        158        157        141        142        159        158        142        143        160        159        143        144        161        160        144        145        162        161        145        146        163        162        146        147        164        163        147        148        165        164        148        149        166        165        149        150        167        166        150        151        168        167        151        152        169        168        153        154        171        170        154        155        172        171        155        156        173        172        156        157        174        173        157        158        175        174        158        159        176        175        159        160        177        176        160        161        178        177        161        162        179        178        162        163        180        179        163        164        181        180        164        165        182        181        165        166        183        182        166        167        184        183        167        168        185        184        168        169        186        185        170        171        188        187        171        172        189        188        172        173        190        189        173        174        191        190        174        175        192        191        175        176        193        192        176        177        194        193        177        178        195        194        178        179        196        195        179        180        197        196        180        181        198        197        181        182        199        198        182        183        200        199        183        184        201        200        184        185        202        201        185        186        203        202        187        188        205        204        188        189        206        205        189        190        207        206        190        191        208        207        191        192        209        208        192        193        210        209        193        194        211        210        194        195        212        211        195        196        213        212        196        197        214        213        197        198        215        214        198        199        216        215        199        200        217        216        200        201        218        217        201        202        219        218        202        203        220        219        204        205        222        221        205        206        223        222        206        207        224        223        207        208        225        224        208        209        226        225        209        210        227        226        210        211        228        227        211        212        229        228        212        213        230        229        213        214        231        230        214        215        232        231        215        216        233        232        216        217        234        233        217        218        235        234        218        219        236        235        219        220        237        236        221        222        239        238        222        223        240        239        223        224        241        240        224        225        242        241        225        226        243        242        226        227        244        243        227        228        245        244        228        229        246        245        229        230        247        246        230        231        248        247        231        232        249        248        232        233        250        249        233        234        251        250        234        235        252        251        235        236        253        252        236        237        254        253        238        239        256        255        239        240        257        256        240        241        258        257        241        242        259        258        242        243        260        259        243        244        261        260        244        245        262        261        245        246        263        262        246        247        264        263        247        248        265        264        248        249        266        265        249        250        267        266        250        251        268        267        251        252        269        268        252        253        270        269        253        254        271        270        255        256        273        272        256        257        274        273        257        258        275        274        258        259        276        275        259        260        277        276        260        261        278        277        261        262        279        278        262        263        280        279        263        264        281        280        264        265        282        281        265        266        283        282        266        267        284        283        267        268        285        284        268        269        286        285        269        270        287        286        270        271        288        287        306        307          1          0        307        308          2          1        308        309          3          2        309        310          4          3        310        311          5          4        311        312          6          5        312        313          7          6        313        314          8          7        314        315          9          8        315        316         10          9        316        317         11         10        317        318         12         11        318        319         13         12        319        320         14         13        320        321         15         14        321        322         16         15        323        324        307        306        324        325        308        307        325        326        309        308        326        327        310        309        327        328        311        310        328        329        312        311        329        330        313        312        330        331        314        313        331        332        315        314        332        333        316        315        333        334        317        316        334        335        318        317        335        336        319        318        336        337        320        319        337        338        321        320        338        339        322        321        340        341        324        323        341        342        325        324        342        343        326        325        343        344        327        326        344        345        328        327        345        346        329        328        346        347        330        329        347        348        331        330        348        349        332        331        349        350        333        332        350        351        334        333        351        352        335        334        352        353        336        335        353        354        337        336        354        355        338        337        355        356        339        338        357        358        341        340        358        359        342        341        359        360        343        342        360        361        344        343        361        362        345        344        362        363        346        345        363        364        347        346        364        365        348        347        365        366        349        348        366        367        350        349        367        368        351        350        368        369        352        351        369        370        353        352        370        371        354        353        371        372        355        354        372        373        356        355        374        375        358        357        375        376        359        358        376        377        360        359        377        378        361        360        378        379        362        361        379        380        363        362        380        381        364        363        381        382        365        364        382        383        366        365        383        384        367        366        384        385        368        367        385        386        369        368        386        387        370        369        387        388        371        370        388        389        372        371        389        390        373        372        391        392        375        374        392        393        376        375        393        394        377        376        394        395        378        377        395        396        379        378        396        397        380        379        397        398        381        380        398        399        382        381        399        400        383        382        400        401        384        383        401        402        385        384        402        403        386        385        403        404        387        386        404        405        388        387        405        406        389        388        406        407        390        389        408        409        392        391        409        410        393        392        410        411        394        393        411        412        395        394        412        413        396        395        413        414        397        396        414        415        398        397        415        416        399        398        416        417        400        399        417        418        401        400        418        419        402        401        419        420        403        402        420        421        404        403        421        422        405        404        422        423        406        405        423        424        407        406        425        426        409        408        426        427        410        409        427        428        411        410        428        429        412        411        429        430        413        412        430        431        414        413        431        432        415        414        432        433        416        415        433        434        417        416        434        435        418        417        435        436        419        418        436        437        420        419        437        438        421        420        438        439        422        421        439        440        423        422        440        441        424        423        442        443        426        425        443        444        427        426        444        445        428        427        445        446        429        428        446        447        430        429        447        448        431        430        448        449        432        431        449        450        433        432        450        451        434        433        451        452        435        434        452        453        436        435        453        454        437        436        454        455        438        437        455        456        439        438        456        457        440        439        457        458        441        440        459        460        443        442        460        461        444        443        461        462        445        444        462        463        446        445        463        464        447        446        464        465        448        447        465        466        449        448        466        467        450        449        467        468        451        450        468        469        452        451        469        470        453        452        470        471        454        453        471        472        455        454        472        473        456        455        473        474        457        456        474        475        458        457        476        477        460        459        477        478        461        460        478        479        462        461        479        480        463        462        480        481        464        463        481        482        465        464        482        483        466        465        483        484        467        466        484        485        468        467        485        486        469        468        486        487        470        469        487        488        471        470        488        489        472        471        489        490        473        472        490        491        474        473        491        492        475        474        493        494        477        476        494        495        478        477        495        496        479        478        496        497        480        479        497        498        481        480        498        499        482        481        499        500        483        482        500        501        484        483        501        502        485        484        502        503        486        485        503        504        487        486        504        505        488        487        505        506        489        488        506        507        490        489        507        508        491        490        508        509        492        491        510        511        494        493        511        512        495        494        512        513        496        495        513        514        497        496        514        515        498        497        515        516        499        498        516        517        500        499        517        518        501        500        518        519        502        501        519        520        503        502        520        521        504        503        521        522        505        504        522        523        506        505        523        524        507        506        524        525        508        507        525        526        509        508        527        528        511        510        528        529        512        511        529        530        513        512        530        531        514        513        531        532        515        514        532        533        516        515        533        534        517        516        534        535        518        517        535        536        519        518        536        537        520        519        537        538        521        520        538        539        522        521        539        540        523        522        540        541        524        523        541        542        525        524        542        543        526        525        544        545        528        527        545        546        529        528        546        547        530        529        547        548        531        530        548        549        532        531        549        550        533        532        550        551        534        533        551        552        535        534        552        553        536        535        553        554        537        536        554        555        538        537        555        556        539        538        556        557        540        539        557        558        541        540        558        559        542        541        559        560        543        542        561        562        545        544        562        563        546        545        563        564        547        546        564        565        548        547        565        566        549        548        566        567        550        549        567        568        551        550        568        569        552        551        569        570        553        552        570        571        554        553        571        572        555        554        572        573        556        555        573        574        557        556        574        575        558        557        575        576        559        558        576        577        560        559        578        579        596        595        579        580        597        596        580        581        598        597        581        582        599        598        582        583        600        599        583        584        601        600        584        585        602        601        585        586        603        602        586        587        604        603        587        588        605        604        588        589        606        605        589        590        607        606        590        591        608        607        591        592        609        608        592        593        610        609        593        594        611        610        595        596        613        612        596        597        614        613        597        598        615        614        598        599        616        615        599        600        617        616        600        601        618        617        601        602        619        618        602        603        620        619        603        604        621        620        604        605        622        621        605        606        623        622        606        607        624        623        607        608        625        624        608        609        626        625        609        610        627        626        610        611        628        627        612        613        630        629        613        614        631        630        614        615        632        631        615        616        633        632        616        617        634        633        617        618        635        634        618        619        636        635        619        620        637        636        620        621        638        637        621        622        639        638        622        623        640        639        623        624        641        640        624        625        642        641        625        626        643        642        626        627        644        643        627        628        645        644        629        630        647        646        630        631        648        647        631        632        649        648        632        633        650        649        633        634        651        650        634        635        652        651        635        636        653        652        636        637        654        653        637        638        655        654        638        639        656        655        639        640        657        656        640        641        658        657        641        642        659        658        642        643        660        659        643        644        661        660        644        645        662        661        646        647        664        663        647        648        665        664        648        649        666        665        649        650        667        666        650        651        668        667        651        652        669        668        652        653        670        669        653        654        671        670        654        655        672        671        655        656        673        672        656        657        674        673        657        658        675        674        658        659        676        675        659        660        677        676        660        661        678        677        661        662        679        678        663        664        681        680        664        665        682        681        665        666        683        682        666        667        684        683        667        668        685        684        668        669        686        685        669        670        687        686        670        671        688        687        671        672        689        688        672        673        690        689        673        674        691        690        674        675        692        691        675        676        693        692        676        677        694        693        677        678        695        694        678        679        696        695        680        681        698        697        681        682        699        698        682        683        700        699        683        684        701        700        684        685        702        701        685        686        703        702        686        687        704        703        687        688        705        704        688        689        706        705        689        690        707        706        690        691        708        707        691        692        709        708        692        693        710        709        693        694        711        710        694        695        712        711        695        696        713        712        697        698        715        714        698        699        716        715        699        700        717        716        700        701        718        717        701        702        719        718        702        703        720        719        703        704        721        720        704        705        722        721        705        706        723        722        706        707        724        723        707        708        725        724        708        709        726        725        709        710        727        726        710        711        728        727        711        712        729        728        712        713        730        729        714        715        732        731        715        716        733        732        716        717        734        733        717        718        735        734        718        719        736        735        719        720        737        736        720        721        738        737        721        722        739        738        722        723        740        739        723        724        741        740        724        725        742        741        725        726        743        742        726        727        744        743        727        728        745        744        728        729        746        745        729        730        747        746        731        732        749        748        732        733        750        749        733        734        751        750        734        735        752        751        735        736        753        752        736        737        754        753        737        738        755        754        738        739        756        755        739        740        757        756        740        741        758        757        741        742        759        758        742        743        760        759        743        744        761        760        744        745        762        761        745        746        763        762        746        747        764        763        748        749        766        765        749        750        767        766        750        751        768        767        751        752        769        768        752        753        770        769        753        754        771        770        754        755        772        771        755        756        773        772        756        757        774        773        757        758        775        774        758        759        776        775        759        760        777        776        760        761        778        777        761        762        779        778        762        763        780        779        763        764        781        780        765        766        783        782        766        767        784        783        767        768        785        784        768        769        786        785        769        770        787        786        770        771        788        787        771        772        789        788        772        773        790        789        773        774        791        790        774        775        792        791        775        776        793        792        776        777        794        793        777        778        795        794        778        779        796        795        779        780        797        796        780        781        798        797        782        783        800        799        783        784        801        800        784        785        802        801        785        786        803        802        786        787        804        803        787        788        805        804        788        789        806        805        789        790        807        806        790        791        808        807        791        792        809        808        792        793        810        809        793        794        811        810        794        795        812        811        795        796        813        812        796        797        814        813        797        798        815        814        799        800        817        816        800        801        818        817        801        802        819        818        802        803        820        819        803        804        821        820        804        805        822        821        805        806        823        822        806        807        824        823        807        808        825        824        808        809        826        825        809        810        827        826        810        811        828        827        811        812        829        828        812        813        830        829        813        814        831        830        814        815        832        831        816        817        834        833        817        818        835        834        818        819        836        835        819        820        837        836        820        821        838        837        821        822        839        838        822        823        840        839        823        824        841        840        824        825        842        841        825        826        843        842        826        827        844        843        827        828        845        844        828        829        846        845        829        830        847        846        830        831        848        847        831        832        849        848        833        834        562        561        834        835        563        562        835        836        564        563        836        837        565        564        837        838        566        565        838        839        567        566        839        840        568        567        840        841        569        568        841        842        570        569        842        843        571        570        843        844        572        571        844        845        573        572        845        846        574        573        846        847        575        574        847        848        576        575        848        849        577        576        884        885        579        578        885        886        580        579        886        887        581        580        887        888        582        581        888        889        583        582        889        890        584        583        890        891        585        584        891        892        586        585        892        893        587        586        893        894        588        587        894        895        589        588        895        896        590        589        896        897        591        590        897        898        592        591        898        899        593        592        899        900        594        593        901        902        885        884        902        903        886        885        903        904        887        886        904        905        888        887        905        906        889        888        906        907        890        889        907        908        891        890        908        909        892        891        909        910        893        892        910        911        894        893        911        912        895        894        912        913        896        895        913        914        897        896        914        915        898        897        915        916        899        898        916        917        900        899        918        919        902        901        919        920        903        902        920        921        904        903        921        922        905        904        922        923        906        905        923        924        907        906        924        925        908        907        925        926        909        908        926        927        910        909        927        928        911        910        928        929        912        911        929        930        913        912        930        931        914        913        931        932        915        914        932        933        916        915        933        934        917        916        935        936        919        918        936        937        920        919        937        938        921        920        938        939        922        921        939        940        923        922        940        941        924        923        941        942        925        924        942        943        926        925        943        944        927        926        944        945        928        927        945        946        929        928        946        947        930        929        947        948        931        930        948        949        932        931        949        950        933        932        950        951        934        933        952        953        936        935        953        954        937        936        954        955        938        937        955        956        939        938        956        957        940        939        957        958        941        940        958        959        942        941        959        960        943        942        960        961        944        943        961        962        945        944        962        963        946        945        963        964        947        946        964        965        948        947        965        966        949        948        966        967        950        949        967        968        951        950        969        970        953        952        970        971        954        953        971        972        955        954        972        973        956        955        973        974        957        956        974        975        958        957        975        976        959        958        976        977        960        959        977        978        961        960        978        979        962        961        979        980        963        962        980        981        964        963        981        982        965        964        982        983        966        965        983        984        967        966        984        985        968        967        986        987        970        969        987        988        971        970        988        989        972        971        989        990        973        972        990        991        974        973        991        992        975        974        992        993        976        975        993        994        977        976        994        995        978        977        995        996        979        978        996        997        980        979        997        998        981        980        998        999        982        981        999       1000        983        982       1000       1001        984        983       1001       1002        985        984       1003       1004        987        986       1004       1005        988        987       1005       1006        989        988       1006       1007        990        989       1007       1008        991        990       1008       1009        992        991       1009       1010        993        992       1010       1011        994        993       1011       1012        995        994       1012       1013        996        995       1013       1014        997        996       1014       1015        998        997       1015       1016        999        998       1016       1017       1000        999       1017       1018       1001       1000       1018       1019       1002       1001       1020       1021       1004       1003       1021       1022       1005       1004       1022       1023       1006       1005       1023       1024       1007       1006       1024       1025       1008       1007       1025       1026       1009       1008       1026       1027       1010       1009       1027       1028       1011       1010       1028       1029       1012       1011       1029       1030       1013       1012       1030       1031       1014       1013       1031       1032       1015       1014       1032       1033       1016       1015       1033       1034       1017       1016       1034       1035       1018       1017       1035       1036       1019       1018       1037       1038       1021       1020       1038       1039       1022       1021       1039       1040       1023       1022       1040       1041       1024       1023       1041       1042       1025       1024       1042       1043       1026       1025       1043       1044       1027       1026       1044       1045       1028       1027       1045       1046       1029       1028       1046       1047       1030       1029       1047       1048       1031       1030       1048       1049       1032       1031       1049       1050       1033       1032       1050       1051       1034       1033       1051       1052       1035       1034       1052       1053       1036       1035       1054       1055       1038       1037       1055       1056       1039       1038       1056       1057       1040       1039       1057       1058       1041       1040       1058       1059       1042       1041       1059       1060       1043       1042       1060       1061       1044       1043       1061       1062       1045       1044       1062       1063       1046       1045       1063       1064       1047       1046       1064       1065       1048       1047       1065       1066       1049       1048       1066       1067       1050       1049       1067       1068       1051       1050       1068       1069       1052       1051       1069       1070       1053       1052       1071       1072       1055       1054       1072       1073       1056       1055       1073       1074       1057       1056       1074       1075       1058       1057       1075       1076       1059       1058       1076       1077       1060       1059       1077       1078       1061       1060       1078       1079       1062       1061       1079       1080       1063       1062       1080       1081       1064       1063       1081       1082       1065       1064       1082       1083       1066       1065       1083       1084       1067       1066       1084       1085       1068       1067       1085       1086       1069       1068       1086       1087       1070       1069       1088       1089       1072       1071       1089       1090       1073       1072       1090       1091       1074       1073       1091       1092       1075       1074       1092       1093       1076       1075       1093       1094       1077       1076       1094       1095       1078       1077       1095       1096       1079       1078       1096       1097       1080       1079       1097       1098       1081       1080       1098       1099       1082       1081       1099       1100       1083       1082       1100       1101       1084       1083       1101       1102       1085       1084       1102       1103       1086       1085       1103       1104       1087       1086       1105       1106       1089       1088       1106       1107       1090       1089       1107       1108       1091       1090       1108       1109       1092       1091       1109       1110       1093       1092       1110       1111       1094       1093       1111       1112       1095       1094       1112       1113       1096       1095       1113       1114       1097       1096       1114       1115       1098       1097       1115       1116       1099       1098       1116       1117       1100       1099       1117       1118       1101       1100       1118       1119       1102       1101       1119       1120       1103       1102       1120       1121       1104       1103       1122       1123       1106       1105       1123       1124       1107       1106       1124       1125       1108       1107       1125       1126       1109       1108       1126       1127       1110       1109       1127       1128       1111       1110       1128       1129       1112       1111       1129       1130       1113       1112       1130       1131       1114       1113       1131       1132       1115       1114       1132       1133       1116       1115       1133       1134       1117       1116       1134       1135       1118       1117       1135       1136       1119       1118       1136       1137       1120       1119       1137       1138       1121       1120        272        273       1123       1122        273        274       1124       1123        274        275       1125       1124        275        276       1126       1125        276        277       1127       1126        277        278       1128       1127        278        279       1129       1128        279        280       1130       1129        280        281       1131       1130        281        282       1132       1131        282        283       1133       1132        283        284       1134       1133        284        285       1135       1134        285        286       1136       1135        286        287       1137       1136        287        288       1138       1137 </DataArray>
<DataArray type="Int32"                                    Name="offsets"                                                      NumberOfComponents=" 1" format="ascii">
         4          8         12         16         20         24         28         32         36         40         44         48         52         56         60         64         68         72         76         80         84         88         92         96        100        104        108        112        116        120        124        128        132        136        140        144        148        152        156        160        164        168        172        176        180        184        188        192        196        200        204        208        212        216        220        224        228        232        236        240        244        248        252        256        260        264        268        272        276        280        284        288        292        296        300        304        308        312        316        320        324        328        332        336        340        344        348        352        356        360        364        368        372        376        380        384        388        392        396        400        404        408        412        416        420        424        428        432        436        440        444        448        452        456        460        464        468        472        476        480        484        488        492        496        500        504        508        512        516        520        524        528        532        536        540        544        548        552        556        560        564        568        572        576        580        584        588        592        596        600        604        608        612        616        620        624        628        632        636        640        644        648        652        656        660        664        668        672        676        680        684        688        692        696        700        704        708        712        716        720        724        728        732        736        740        744        748        752        756        760        764        768        772        776        780        784        788        792        796        800        804        808        812        816        820        824        828        832        836        840        844        848        852        856        860        864        868        872        876        880        884        888        892        896        900        904        908        912        916        920        924        928        932        936        940        944        948        952        956        960        964        968        972        976        980        984        988        992        996       1000       1004       1008       1012       1016       1020       1024       1028       1032       1036       1040       1044       1048       1052       1056       1060       1064       1068       1072       1076       1080       1084       1088       1092       1096       1100       1104       1108       1112       1116       1120       1124       1128       1132       1136       1140       1144       1148       1152       1156       1160       1164       1168       1172       1176       1180       1184       1188       1192       1196       1200       1204       1208       1212       1216       1220       1224       1228       1232       1236       1240       1244       1248       1252       1256       1260       1264       1268       1272       1276       1280       1284       1288       1292       1296       1300       1304       1308       1312       1316       1320       1324       1328       1332       1336       1340       1344       1348       1352       1356       1360       1364       1368       1372       1376       1380       1384       1388       1392       1396       1400       1404       1408       1412       1416       1420       1424       1428       1432       1436       1440       1444       1448       1452       1456       1460       1464       1468       1472       1476       1480       1484       1488       1492       1496       1500       1504       1508       1512       1516       1520       1524       1528       1532       1536       1540       1544       1548       1552       1556       1560       1564       1568       1572       1576       1580       1584       1588       1592       1596       1600       1604       1608       1612       1616       1620       1624       1628       1632       1636       1640       1644       1648       1652       1656       1660       1664       1668       1672       1676       1680       1684       1688       1692       1696       1700       1704       1708       1712       1716       1720       1724       1728       1732       1736       1740       1744       1748       1752       1756       1760       1764       1768       1772       1776       1780       1784       1788       1792       1796       1800       1804       1808       1812       1816       1820       1824       1828       1832       1836       1840       1844       1848       1852       1856       1860       1864       1868       1872       1876       1880       1884       1888       1892       1896       1900       1904       1908       1912       1916       1920       1924       1928       1932       1936       1940       1944       1948       1952       1956       1960       1964       1968       1972       1976       1980       1984       1988       1992       1996       2000       2004       2008       2012       2016       2020       2024       2028       2032       2036       2040       2044       2048       2052       2056       2060       2064       2068       2072       2076       2080       2084       2088       2092       2096       2100       2104       2108       2112       2116       2120       2124       2128       2132       2136       2140       2144       2148       2152       2156       2160       2164       2168       2172       2176       2180       2184       2188       2192       2196       2200       2204       2208       2212       2216       2220       2224       2228       2232       2236       2240       2244       2248       2252       2256       2260       2264       2268       2272       2276       2280       2284       2288       2292       2296       2300       2304       2308       2312       2316       2320       2324       2328       2332       2336       2340       2344       2348       2352       2356       2360       2364       2368       2372       2376       2380       2384       2388       2392       2396       2400       2404       2408       2412       2416       2420       2424       2428       2432       2436       2440       2444       2448       2452       2456       2460       2464       2468       2472       2476       2480       2484       2488       2492       2496       2500       2504       2508       2512       2516       2520       2524       2528       2532       2536       2540       2544       2548       2552       2556       2560       2564       2568       2572       2576       2580       2584       2588       2592       2596       2600       2604       2608       2612       2616       2620       2624       2628       2632       2636       2640       2644       2648       2652       2656       2660       2664       2668       2672       2676       2680       2684       2688       2692       2696       2700       2704       2708       2712       2716       2720       2724       2728       2732       2736       2740       2744       2748       2752       2756       2760       2764       2768       2772       2776       2780       2784       2788       2792       2796       2800       2804       2808       2812       2816       2820       2824       2828       2832       2836       2840       2844       2848       2852       2856       2860       2864       2868       2872       2876       2880       2884       2888       2892       2896       2900       2904       2908       2912       2916       2920       2924       2928       2932       2936       2940       2944       2948       2952       2956       2960       2964       2968       2972       2976       2980       2984       2988       2992       2996       3000       3004       3008       3012       3016       3020       3024       3028       3032       3036       3040       3044       3048       3052       3056       3060       3064       3068       3072       3076       3080       3084       3088       3092       3096       3100       3104       3108       3112       3116       3120       3124       3128       3132       3136       3140       3144       3148       3152       3156       3160       3164       3168       3172       3176       3180       3184       3188       3192       3196       3200       3204       3208       3212       3216       3220       3224       3228       3232       3236       3240       3244       3248       3252       3256       3260       3264       3268       3272       3276       3280       3284       3288       3292       3296       3300       3304       3308       3312       3316       3320       3324       3328       3332       3336       3340       3344       3348       3352       3356       3360       3364       3368       3372       3376       3380       3384       3388       3392       3396       3400       3404       3408       3412       3416       3420       3424       3428       3432       3436       3440       3444       3448       3452       3456       3460       3464       3468       3472       3476       3480       3484       3488       3492       3496       3500       3504       3508       3512       3516       3520       3524       3528       3532       3536       3540       3544       3548       3552       3556       3560       3564       3568       3572       3576       3580       3584       3588       3592       3596       3600       3604       3608       3612       3616       3620       3624       3628       3632       3636       3640       3644       3648       3652       3656       3660       3664       3668       3672       3676       3680       3684       3688       3692       3696       3700       3704       3708       3712       3716       3720       3724       3728       3732       3736       3740       3744       3748       3752       3756       3760       3764       3768       3772       3776       3780       3784       3788       3792       3796       3800       3804       3808       3812       3816       3820       3824       3828       3832       3836       3840       3844       3848       3852       3856       3860       3864       3868       3872       3876       3880       3884       3888       3892       3896       3900       3904       3908       3912       3916       3920       3924       3928       3932       3936       3940       3944       3948       3952       3956       3960       3964       3968       3972       3976       3980       3984       3988       3992       3996       4000       4004       4008       4012       4016       4020       4024       4028       4032       4036       4040       4044       4048       4052       4056       4060       4064       4068       4072       4076       4080       4084       4088       4092       4096 </DataArray>
<DataArray type="UInt8"                                    Name="types"                                                      NumberOfComponents=" 1" format="ascii">
         9          9          9          9          9          9          9          9          9          9          9          9          9          9          9          9          9          9          9          9          9          9          9          9          9          9          9          9          9          9          9          9          9          9          9          9          9          9          9          9          9          9          9          9          9          9          9          9          9          9          9          9          9          9          9          9          9          9          9          9          9          9          9          9          9          9          9          9          9          9          9          9          9          9          9          9          9          9          9          9          9          9          9          9          9          9          9          9          9          9          9          9          9          9          9          9          9          9          9          9          9          9          9          9          9          9          9          9          9          9          9          9          9          9          9          9          9          9          9          9          9          9          9          9          9          9          9          9          9          9          9          9          9          9          9          9          9          9          9          9          9          9          9          9          9          9          9          9          9          9          9          9          9          9          9          9          9          9          9          9          9          9          9          9          9          9          9          9          9          9          9          9          9          9          9          9          9          9          9          9          9          9          9          9          9          9          9          9          9          9          9          9          9          9          9          9          9          9          9          9          9          9          9          9          9          9          9          9          9          9          9          9          9          9          9          9          9          9          9          9          9          9          9          9          9          9          9          9          9          9          9          9          9          9          9          9          9          9          9          9          9          9          9          9          9          9          9          9          9          9          9          9          9          9          9          9          9          9          9          9          9          9          9          9          9          9          9          9          9          9          9          9          9          9          9          9          9          9          9          9          9          9          9          9          9          9          9          9          9          9          9          9          9          9          9          9          9          9          9          9          9          9          9          9          9          9          9          9          9          9          9          9          9          9          9          9          9          9          9          9          9          9          9          9          9          9          9          9          9          9          9          9          9          9          9          9          9          9          9          9          9          9          9          9          9          9          9          9          9          9          9          9          9          9          9          9          9          9          9          9          9          9          9          9          9          9          9          9          9          9          9          9          9          9          9          9          9          9          9          9          9          9          9          9          9          9          9          9          9          9          9          9          9          9          9          9          9          9          9          9          9          9          9          9          9          9          9          9          9          9          9          9          9          9          9          9          9          9          9          9          9          9          9          9          9          9          9          9          9          9          9          9          9          9          9          9          9          9          9          9          9          9          9          9          9          9          9          9          9          9          9          9          9          9          9          9          9          9          9          9          9          9          9          9          9          9          9          9          9          9          9          9          9          9          9          9          9          9          9          9          9          9          9          9          9          9          9          9          9          9          9          9          9          9          9          9          9          9          9          9          9          9          9          9          9          9          9          9          9          9          9          9          9          9          9          9          9          9          9          9          9          9          9          9          9          9          9          9          9          9          9          9          9          9          9          9          9          9          9          9          9          9          9          9          9          9          9          9          9          9          9          9          9          9          9          9          9          9          9          9          9          9          9          9          9          9          9          9          9          9          9          9          9          9          9          9          9          9          9          9          9          9          9          9          9          9          9          9          9          9          9          9          9          9          9          9          9          9          9          9          9          9          9          9          9          9          9          9          9          9          9          9          9          9          9          9          9          9          9          9          9          9          9          9          9          9          9          9          9          9          9          9          9          9          9          9          9          9          9          9          9          9          9          9          9          9          9          9          9          9          9          9          9          9          9          9          9          9          9          9          9          9          9          9          9          9          9          9          9          9          9          9          9          9          9          9          9          9          9          9          9          9          9          9          9          9          9          9          9          9          9          9          9          9          9          9          9          9          9          9          9          9          9          9          9          9          9          9          9          9          9          9          9          9          9          9          9          9          9          9          9          9          9          9          9          9          9          9          9          9          9          9          9          9          9          9          9          9          9          9          9          9          9          9          9          9          9          9          9          9          9          9          9          9          9          9          9          9          9          9          9          9          9          9          9          9          9          9          9          9          9          9          9          9          9          9          9          9          9          9          9          9          9          9          9          9          9          9          9          9          9          9          9          9          9          9          9          9          9          9          9          9          9          9          9          9          9          9          9          9          9          9          9          9          9          9          9          9          9          9          9          9          9          9          9          9          9          9          9          9          9          9          9          9          9          9          9          9          9          9          9          9          9          9          9          9          9          9          9          9          9          9          9          9          9          9          9          9          9          9          9          9          9          9          9          9          9          9          9          9          9          9          9          9          9          9          9          9          9          9          9          9          9          9          9          9          9          9          9          9          9          9          9          9          9          9          9          9          9          9          9          9          9          9          9          9          9          9          9          9          9          9          9          9          9          9          9          9          9          9          9          9          9          9          9          9          9          9          9          9          9          9          9          9          9          9          9          9          9          9          9          9          9          9          9          9          9          9          9          9          9          9          9          9          9          9          9          9          9          9          9          9          9          9          9          9          9          9          9          9          9          9          9          9          9          9          9          9          9          9          9          9          9          9          9          9          9          9          9          9          9          9          9          9          9          9          9          9          9          9          9          9          9          9          9          9          9          9          9          9          9          9          9          9          9          9          9          9          9          9          9          9          9          9 </DataArray>
</Cells>
<CellData>
<DataArray type="Int32"                                    Name="material"                                                      NumberOfComponents=" 1" format="ascii">
         1          1          1          1          1          1          1          1          1          1          1          1          1          1          1          1          1          1          1          1          1          1          1          1          1          1          1          1          1          1          1          1          1          1          1          1          1          1          1          1          1          1          1          1          1          1          1          1          1          1          1          1          1          1          1          1          1          1          1          1          1          1          1          1          1          1          1          1          1          1          1          1          1          1          1          1          1          1          1          1          1          1          1          1          1          1          1          1          1          1          1          1          1          1          1          1          1          1          1          1          1          1          1          1          1          1          1          1          1          1          1          1          1          1          1          1          1          1          1          1          1          1          1          1          1          1          1          1          1          1          1          1          1          1          1          1          1          1          1          1          1          1          1          1          1          1          1          1          1          1          1          1          1          1          1          1          1          1          1          1          1          1          1          1          1          1          1          1          1          1          1          1          1          1          1          1          1          1          1          1          1          1          1          1          1          1          1          1          1          1          1          1          1          1          1          1          1          1          1          1          1          1          1          1          1          1          1          1          1          1          1          1          1          1          1          1          1          1          1          1          1          1          1          1          1          1          1          1          1          1          1          1          1          1          1          1          1          1          1          1          1          1          1          1          1          1          1          1          1          1          1          1          1          1          1          1          1          1          1          1          1          1          1          1          1          1          1          1          1          1          1          1          1          1          1          1          1          1          1          1          1          1          1          1          1          1          1          1          1          1          1          1          1          1          1          1          1          1          1          1          1          1          1          1          1          1          1          1          1          1          1          1          1          1          1          1          1          1          1          1          1          1          1          1          1          1          1          1          1          1          1          1          1          1          1          1          1          1          1          1          1          1          1          1          1          1          1          1          1          1          1          1          1          1          1          1          1          1          1          1          1          1          1          1          1          1          1          1          1          1          1          1          1          1          1          1          1          1          1          1          1          1          1          1          1          1          1          1          1          1          1          1          1          1          1          1          1          1          1          1          1          1          1          1          1          1          1          1          1          1          1          1          1          1          1          1          1          1          1          1          1          1          1          1          1          1          1          1          1          1          1          1          1          1          1          1          1          1          1          1          1          1          1          1          1          1          1          1          1          1          1          1          1          1          1          1          1          1          1          1          1          1          1          1          1          1          1          1          1          1          1          1          1          1          1          1          1          1          1          1          1          1          1          1          1          1          1          1          1          1          1          1          1          1          1          1          1          1          1          1          1          1          1          1          1          1          1          1          1          1          1          1          1          1          1          1          1          1          1          1          1          1          1          1          1          1          1          1          1          1          1          1          1          1          1          1          1          1          1          1          1          1          1          1          1          1          1          1          1          1          1          1          1          1          1          1          1          1          1          1          1          1          1          1          1          1          1          1          1          1          1          1          1          1          1          1          1          1          1          1          1          1          1          1          1          1          1          1          1          1          1          1          1          1          1          1          1          1          1          1          1          1          1          1          1          1          1          1          1          1          1          1          1          1          1          1          1          1          1          1          1          1          1          1          1          1          1          1          1          1          1          1          1          1          1          1          1          1          1          1          1          1          1          1          1          1          1          1          1          1          1          1          1          1          1          1          1          1          1          1          1          1          1          1          1          1          1          1          1          1          1          1          1          1          1          1          1          1          1          1          1          1          1          1          1          1          1          1          1          1          1          1          1          1          1          1          1          1          1          1          1          1          1          1          1          1          1          1          1          1          1          1          1          1          1          1          1          1          1          1          1          1          1          1          1          1          1          1          1          1          1          1          1          1          1          1          1          1          1          1          1          1          1          1          1          1          1          1          1          1          1          1          1          1          1          1          1          1          1          1          1          1          1          1          1          1          1          1          1          1          1          1          1          1          1          1          1          1          1          1          1          1          1          1          1          1          1          1          1          1          1          1          1          1          1          1          1          1          1          1          1          1          1          1          1          1          1          1          1          1          1          1          1          1          1          1          1          1          1          1          1          1          1          1          1          1          1          1          1          1          1          1          1          1          1          1          1          1          1          1          1          1          1          1          1          1          1          1          1          1          1          1          1          1          1          1          1          1          1          1          1          1          1          1          1          1          1          1          1          1          1          1          1          1          1          1          1          1          1          1          1          1          1          1          1          1          1          1          1          1          1          1          1          1          1          1          1          1          1          1          1          1          1          1          1          1          1          1          1          1          1          1          1          1          1          1          1          1          1          1          1          1          1          1          1          1          1          1          1          1          1          1          1          1          1          1          1          1          1          1          1          1          1          1          1          1          1          1          1          1          1          1          1          1          1          1          1          1          1          1          1          1          1          1          1          1          1          1          1          1          1          1          1          1          1          1          1          1          1          1          1          1          1          1          1          1          1          1          1          1          1          1          1          1          1          1          1          1          1          1          1          1          1          1          1          1          1          1          1          1          1          1          1          1          1          1          1          1          1          1          1          1          1          1 </DataArray>
</CellData>
<PointData>
<DataArray type="Float64"                                    Name="u"                                                      NumberOfComponents=" 3" format="ascii">
              0.000009095              -0.000000000               0.999999999               0.000002063              -0.000000000               0.999999999              -0.000001157              -0.000000000               0.999999999              -0.000002731              -0.000000000               0.999999999              -0.000003670              -0.000000000               0.999999999              -0.000004460               0.000000000               0.999999999              -0.000005385               0.000000000               0.999999999              -0.000006623               0.000000000               0.999999999              -0.000008285              -0.000000000               0.999999999              -0.000010346               0.000000000               0.999999999              -0.000012877               0.000000000               0.999999999              -0.000015931               0.000000000               0.999999999              -0.000019459              -0.000000000               0.999999999              -0.000023546              -0.000000000               0.999999999              -0.000028154              -0.000000000               0.999999999              -0.000033165              -0.000000000               0.999999999              -0.000038600              -0.000000000               0.999999999               0.000009024               0.000017571               0.999999999               0.000002200               0.000015833               0.999999999              -0.000000914               0.000015397               0.999999999              -0.000002447               0.000015711               0.999999999              -0.000003426               0.000016563               0.999999999              -0.000004329               0.000017796               0.999999999              -0.000005392               0.000019362               0.999999999              -0.000006802               0.000021169               0.999999999              -0.000008591               0.000023227               0.999999999              -0.000010831               0.000025460               0.999999999              -0.000013556               0.000027972               0.999999999              -0.000016796               0.000030742               0.999999999              -0.000020595               0.000033652               0.999999999              -0.000024889               0.000036656               0.999999999              -0.000029603               0.000039669               0.999999999              -0.000034728               0.000042915               0.999999999              -0.000040305               0.000046416               0.999999999               0.000008775               0.000034978               0.999999999               0.000002640               0.000031505               0.999999999              -0.000000137               0.000030676               0.999999999              -0.000001647               0.000031409               0.999999999              -0.000002801               0.000033168               0.999999999              -0.000004005               0.000035724               0.999999999              -0.000005476               0.000038849               0.999999999              -0.000007336               0.000042519               0.999999999              -0.000009623               0.000046536               0.999999999              -0.000012363               0.000051086               0.999999999              -0.000015643               0.000056043               0.999999999              -0.000019469               0.000061537               0.999999999              -0.000023778               0.000067283               0.999999999              -0.000028557               0.000073128               0.999999999              -0.000033754               0.000079011               0.999999999              -0.000039378               0.000085329               0.999999999              -0.000045410               0.000092151               0.999999999               0.000008406               0.000052071               0.999999999               0.000003387               0.000046845               0.999999999               0.000001063               0.000045791               0.999999999              -0.000000463               0.000047082               0.999999999              -0.000001941               0.000049887               0.999999999              -0.000003698               0.000053781               0.999999999              -0.000005807               0.000058567               0.999999999              -0.000008378               0.000063980               0.999999999              -0.000011414               0.000070112               0.999999999              -0.000014965               0.000076844               0.999999999              -0.000019075               0.000084342               0.999999999              -0.000023705               0.000092428               0.999999999              -0.000028802               0.000100827               0.999999999              -0.000034304               0.000109318               0.999999999              -0.000040170               0.000117951               0.999999999              -0.000046400               0.000127159               0.999999999              -0.000052954               0.000136782               0.999999999               0.000007971               0.000068689               0.999999999               0.000004412               0.000061732               0.999999999               0.000002573               0.000060677               0.999999999               0.000000899               0.000062689               0.999999999              -0.000001091               0.000066679               0.999999999              -0.000003530               0.000072027               0.999999999              -0.000006489               0.000078446               0.999999999              -0.000009976               0.000085761               0.999999999              -0.000013985               0.000093911               0.999999999              -0.000018530               0.000102936               0.999999999              -0.000023622               0.000112867               0.999999999              -0.000029171               0.000123412               0.999999999              -0.000035080               0.000134238               0.999999999              -0.000041325               0.000145181               0.999999999              -0.000047885               0.000156416               0.999999999              -0.000054788               0.000168139               0.999999999              -0.000062004               0.000180177               0.999999999               0.000007455               0.000084619               0.999999999               0.000005658               0.000076089               0.999999999               0.000004186               0.000075220               0.999999999               0.000002225               0.000078159               0.999999999              -0.000000405               0.000083466               0.999999999              -0.000003717               0.000090364               0.999999999              -0.000007616               0.000098528               0.999999999              -0.000012066               0.000107708               0.999999999              -0.000017095               0.000117976               0.999999999              -0.000022686               0.000129316               0.999999999              -0.000028750               0.000141672               0.999999999              -0.000035197               0.000154541               0.999999999              -0.000041863               0.000167685               0.999999999              -0.000048796               0.000180960               0.999999999              -0.000056074               0.000194832               0.999999999              -0.000063733               0.000209238               0.999999999              -0.000071764               0.000223962               0.999999999               0.000006873               0.000099671               0.999999999               0.000006994               0.000089844               0.999999999               0.000005721               0.000089365               0.999999999               0.000003295               0.000093377               0.999999999              -0.000000122               0.000100059               0.999999999              -0.000004303               0.000108609               0.999999999              -0.000009099               0.000118571               0.999999999              -0.000014512               0.000129830               0.999999999              -0.000020567               0.000142382               0.999999999              -0.000027141               0.000156145               0.999999999              -0.000034139               0.000170819               0.999999999              -0.000041407               0.000185922               0.999999999              -0.000048859               0.000201281               0.999999999              -0.000056601               0.000217154               0.999999999              -0.000064762               0.000233875               0.999999999              -0.000073331               0.000251231               0.999999999              -0.000082361               0.000269066               0.999999999               0.000006265               0.000113706               0.999999999               0.000008270               0.000102937               0.999999999               0.000007006               0.000102999               0.999999999               0.000003946               0.000108123               0.999999999              -0.000000257               0.000116256               0.999999999              -0.000005284               0.000126566               0.999999999              -0.000010957               0.000138535               0.999999999              -0.000017260               0.000152035               0.999999999              -0.000024168               0.000166948               0.999999999              -0.000031645               0.000183210               0.999999999              -0.000039477               0.000200256               0.999999999              -0.000047468               0.000217746               0.999999999              -0.000055683               0.000235827               0.999999999              -0.000064303               0.000254844               0.999999999              -0.000073390               0.000274884               0.999999999              -0.000082925               0.000295680               0.999999999              -0.000092931               0.000316981               0.999999999               0.000005515               0.000126450               0.999999999               0.000009423               0.000115339               0.999999999               0.000007900               0.000115975               0.999999999               0.000004125               0.000122214               0.999999999              -0.000000869               0.000131914               0.999999999              -0.000006637               0.000144092               0.999999999              -0.000013047               0.000158195               0.999999999              -0.000020120               0.000174109               0.999999999              -0.000027870               0.000191620               0.999999999              -0.000036179               0.000210427               0.999999999              -0.000044623               0.000230093               0.999999999              -0.000053124               0.000250612               0.999999999              -0.000062026               0.000272155               0.999999999              -0.000071428               0.000294945               0.999999999              -0.000081277               0.000319002               0.999999999              -0.000091477               0.000343958               0.999999999              -0.000101984               0.000369550               0.999999999               0.000004511               0.000138340               0.999999999               0.000009987               0.000128057               0.999999999               0.000009205               0.000127536               0.999999999               0.000005977               0.000132445               0.999999999               0.000001491               0.000140745               0.999999999              -0.000003584               0.000151462               0.999999999              -0.000009165               0.000164090               0.999999999              -0.000015227               0.000178425               0.999999999              -0.000021944               0.000194271               0.999999999              -0.000029182               0.000211458               0.999999999              -0.000036621               0.000229766               0.999999999              -0.000044053               0.000248898               0.999999999              -0.000051519               0.000269016               0.999999999              -0.000059142               0.000290234               0.999999999              -0.000067202               0.000312775               0.999999999              -0.000075766               0.000336479               0.999999999              -0.000084764               0.000361193               0.999999999               0.000003619               0.000149105               0.999999999               0.000009968               0.000140139               0.999999999               0.000009955               0.000139091               0.999999999               0.000007368               0.000142919               0.999999999               0.000003514               0.000149988               0.999999999              -0.000000918               0.000159343               0.999999999              -0.000005652               0.000170624               0.999999999              -0.000010794               0.000183534               0.999999999              -0.000016441               0.000197860               0.999999999              -0.000022627               0.000213534               0.999999999              -0.000028964               0.000230352               0.999999999              -0.000035328               0.000248158               0.999999999              -0.000041515               0.000266914               0.999999999              -0.000047774               0.000286656               0.999999999              -0.000054304               0.000307542               0.999999999              -0.000061313               0.000329650               0.999999999              -0.000068768               0.000352975               0.999999999               0.000002781               0.000158493               0.999999999               0.000009376               0.000151305               0.999999999               0.000010031               0.000150226               0.999999999               0.000008131               0.000153334               0.999999999               0.000004947               0.000159382               0.999999999               0.000001271               0.000167647               0.999999999              -0.000002694               0.000177713               0.999999999              -0.000006905               0.000189399               0.999999999              -0.000011511               0.000202456               0.999999999              -0.000016493               0.000216741               0.999999999              -0.000021745               0.000232161               0.999999999              -0.000027020               0.000248628               0.999999999              -0.000032222               0.000266052               0.999999999              -0.000037360               0.000284509               0.999999999              -0.000042591               0.000304001               0.999999999              -0.000048077               0.000324583               0.999999999              -0.000053712               0.000346347               0.999999999               0.000002043               0.000166370               0.999999999               0.000008262               0.000161220               0.999999999               0.000009343               0.000160458               0.999999999               0.000008092               0.000163176               0.999999999               0.000005658               0.000168544               0.999999999               0.000002714               0.000175946               0.999999999              -0.000000407               0.000185100               0.999999999              -0.000003744               0.000195740               0.999999999              -0.000007332               0.000207765               0.999999999              -0.000011159               0.000220892               0.999999999              -0.000015252               0.000235049               0.999999999              -0.000019563               0.000250234               0.999999999              -0.000023746               0.000266454               0.999999999              -0.000027846               0.000283790               0.999999999              -0.000031987               0.000302228               0.999999999              -0.000035999               0.000321794               0.999999999              -0.000039750               0.000342420               0.999999999               0.000001410               0.000172588               0.999999999               0.000006658               0.000169444               0.999999999               0.000007880               0.000169254               0.999999999               0.000007166               0.000171866               0.999999999               0.000005450               0.000176820               0.999999999               0.000003260               0.000183657               0.999999999               0.000000962               0.000192127               0.999999999              -0.000001494               0.000202003               0.999999999              -0.000004112               0.000213126               0.999999999              -0.000006995               0.000225321               0.999999999              -0.000010005               0.000238539               0.999999999              -0.000013104               0.000252775               0.999999999              -0.000016285               0.000268123               0.999999999              -0.000019378               0.000284604               0.999999999              -0.000022364               0.000302264               0.999999999              -0.000025084               0.000321081               0.999999999              -0.000027260               0.000340920               0.999999999               0.000000874               0.000177087               0.999999999               0.000004672               0.000175632               0.999999999               0.000005706               0.000176062               0.999999999               0.000005379               0.000178731               0.999999999               0.000004283               0.000183486               0.999999999               0.000002895               0.000189996               0.999999999               0.000001343               0.000198033               0.999999999              -0.000000242               0.000207394               0.999999999              -0.000002029               0.000217854               0.999999999              -0.000003908               0.000229393               0.999999999              -0.000005847               0.000242032               0.999999999              -0.000007753               0.000255741               0.999999999              -0.000009903               0.000270579               0.999999999              -0.000012077               0.000286557               0.999999999              -0.000013977               0.000303725               0.999999999              -0.000015483               0.000322052               0.999999999              -0.000016471               0.000341374               0.999999999               0.000000424               0.000179855               0.999999999               0.000002417               0.000179483               0.999999999               0.000002978               0.000180370               0.999999999               0.000002894               0.000183148               0.999999999               0.000002365               0.000187831               0.999999999               0.000001682               0.000194182               0.999999999               0.000000920               0.000201997               0.999999999               0.000000115               0.000211057               0.999999999              -0.000000777               0.000221174               0.999999999              -0.000001712               0.000232389               0.999999999              -0.000002561               0.000244701               0.999999999              -0.000003578               0.000258121               0.999999999              -0.000004617               0.000272740               0.999999999              -0.000005729               0.000288604               0.999999999              -0.000006746               0.000305578               0.999999999              -0.000007291               0.000323563               0.999999999              -0.000007415               0.000342555               0.999999999               0.000000000               0.000180788               0.999999999              -0.000000000               0.000180755               0.999999999              -0.000000000               0.000181822               0.999999999              -0.000000000               0.000184703               0.999999999              -0.000000000               0.000189336               0.999999999              -0.000000000               0.000195650               0.999999999               0.000000000               0.000203408               0.999999999               0.000000000               0.000212346               0.999999999               0.000000000               0.000222397               0.999999999               0.000000000               0.000233484               0.999999999               0.000000000               0.000245615               0.999999999               0.000000000               0.000259045               0.999999999               0.000000000               0.000273683               0.999999999              -0.000000000               0.000289485               0.999999999              -0.000000000               0.000306416               0.999999999              -0.000000000               0.000324268               0.999999999               0.000000000               0.000343090               0.999999999               0.000009095              -0.000000000               0.999999999               0.000002063              -0.000000000               0.999999999              -0.000001157              -0.000000000               0.999999999              -0.000002731              -0.000000000               0.999999999              -0.000003670              -0.000000000               0.999999999              -0.000004460               0.000000000               0.999999999              -0.000005385               0.000000000               0.999999999              -0.000006623               0.000000000               0.999999999              -0.000008285              -0.000000000               0.999999999              -0.000010346               0.000000000               0.999999999              -0.000012877               0.000000000               0.999999999              -0.000015931               0.000000000               0.999999999              -0.000019459              -0.000000000               0.999999999              -0.000023546              -0.000000000               0.999999999              -0.000028154              -0.000000000               0.999999999              -0.000033165              -0.000000000               0.999999999              -0.000038600              -0.000000000               0.999999999               0.000009024              -0.000017571               0.999999999               0.000002200              -0.000015833               0.999999999              -0.000000914              -0.000015397               0.999999999              -0.000002447              -0.000015711               0.999999999              -0.000003426              -0.000016563               0.999999999              -0.000004329              -0.000017796               0.999999999              -0.000005392              -0.000019362               0.999999999              -0.000006802              -0.000021169               0.999999999              -0.000008591              -0.000023227               0.999999999              -0.000010831              -0.000025460               0.999999999              -0.000013556              -0.000027972               0.999999999              -0.000016796              -0.000030742               0.999999999              -0.000020595              -0.000033652               0.999999999              -0.000024889              -0.000036656               0.999999999              -0.000029603              -0.000039669               0.999999999              -0.000034728              -0.000042915               0.999999999              -0.000040305              -0.000046416               0.999999999               0.000008775              -0.000034978               0.999999999               0.000002640              -0.000031505               0.999999999              -0.000000137              -0.000030676               0.999999999              -0.000001647              -0.000031409               0.999999999              -0.000002801              -0.000033168               0.999999999              -0.000004005              -0.000035724               0.999999999              -0.000005476              -0.000038849               0.999999999              -0.000007336              -0.000042519               0.999999999              -0.000009623              -0.000046536               0.999999999              -0.000012363              -0.000051086               0.999999999              -0.000015643              -0.000056043               0.999999999              -0.000019469              -0.000061537               0.999999999              -0.000023778              -0.000067283               0.999999999              -0.000028557              -0.000073128               0.999999999              -0.000033754              -0.000079011               0.999999999              -0.000039378              -0.000085329               0.999999999              -0.000045410              -0.000092151               0.999999999               0.000008406              -0.000052071               0.999999999               0.000003387              -0.000046845               0.999999999               0.000001063              -0.000045791               0.999999999              -0.000000463              -0.000047082               0.999999999              -0.000001941              -0.000049887               0.999999999              -0.000003698              -0.000053781               0.999999999              -0.000005807              -0.000058567               0.999999999              -0.000008378              -0.000063980               0.999999999              -0.000011414              -0.000070112               0.999999999              -0.000014965              -0.000076844               0.999999999              -0.000019075              -0.000084342               0.999999999              -0.000023705              -0.000092428               0.999999999              -0.000028802              -0.000100827               0.999999999              -0.000034304              -0.000109318               0.999999999              -0.000040170              -0.000117951               0.999999999              -0.000046400              -0.000127159               0.999999999              -0.000052954              -0.000136782               0.999999999               0.000007971              -0.000068689               0.999999999               0.000004412              -0.000061732               0.999999999               0.000002573              -0.000060677               0.999999999               0.000000899              -0.000062689               0.999999999              -0.000001091              -0.000066679               0.999999999              -0.000003530              -0.000072027               0.999999999              -0.000006489              -0.000078446               0.999999999              -0.000009976              -0.000085761               0.999999999              -0.000013985              -0.000093911               0.999999999              -0.000018530              -0.000102936               0.999999999              -0.000023622              -0.000112867               0.999999999              -0.000029171              -0.000123412               0.999999999              -0.000035080              -0.000134238               0.999999999              -0.000041325              -0.000145181               0.999999999              -0.000047885              -0.000156416               0.999999999              -0.000054788              -0.000168139               0.999999999              -0.000062004              -0.000180177               0.999999999               0.000007455              -0.000084619               0.999999999               0.000005658              -0.000076089               0.999999999               0.000004186              -0.000075220               0.999999999               0.000002225              -0.000078159               0.999999999              -0.000000405              -0.000083466               0.999999999              -0.000003717              -0.000090364               0.999999999              -0.000007616              -0.000098528               0.999999999              -0.000012066              -0.000107708               0.999999999              -0.000017095              -0.000117976               0.999999999              -0.000022686              -0.000129316               0.999999999              -0.000028750              -0.000141672               0.999999999              -0.000035197              -0.000154541               0.999999999              -0.000041863              -0.000167685               0.999999999              -0.000048796              -0.000180960               0.999999999              -0.000056074              -0.000194832               0.999999999              -0.000063733              -0.000209238               0.999999999              -0.000071764              -0.000223962               0.999999999               0.000006873              -0.000099671               0.999999999               0.000006994              -0.000089844               0.999999999               0.000005721              -0.000089365               0.999999999               0.000003295              -0.000093377               0.999999999              -0.000000122              -0.000100059               0.999999999              -0.000004303              -0.000108609               0.999999999              -0.000009099              -0.000118571               0.999999999              -0.000014512              -0.000129830               0.999999999              -0.000020567              -0.000142382               0.999999999              -0.000027141              -0.000156145               0.999999999              -0.000034139              -0.000170819               0.999999999              -0.000041407              -0.000185922               0.999999999              -0.000048859              -0.000201281               0.999999999              -0.000056601              -0.000217154               0.999999999              -0.000064762              -0.000233875               0.999999999              -0.000073331              -0.000251231               0.999999999              -0.000082361              -0.000269066               0.999999999               0.000006265              -0.000113706               0.999999999               0.000008270              -0.000102937               0.999999999               0.000007006              -0.000102999               0.999999999               0.000003946              -0.000108123               0.999999999              -0.000000257              -0.000116256               0.999999999              -0.000005284              -0.000126566               0.999999999              -0.000010957              -0.000138535               0.999999999              -0.000017260              -0.000152035               0.999999999              -0.000024168              -0.000166948               0.999999999              -0.000031645              -0.000183210               0.999999999              -0.000039477              -0.000200256               0.999999999              -0.000047468              -0.000217746               0.999999999              -0.000055683              -0.000235827               0.999999999              -0.000064303              -0.000254844               0.999999999              -0.000073390              -0.000274884               0.999999999              -0.000082925              -0.000295680               0.999999999              -0.000092931              -0.000316981               0.999999999               0.000005515              -0.000126450               0.999999999               0.000009423              -0.000115339               0.999999999               0.000007900              -0.000115975               0.999999999               0.000004125              -0.000122214               0.999999999              -0.000000869              -0.000131914               0.999999999              -0.000006637              -0.000144092               0.999999999              -0.000013047              -0.000158195               0.999999999              -0.000020120              -0.000174109               0.999999999              -0.000027870              -0.000191620               0.999999999              -0.000036179              -0.000210427               0.999999999              -0.000044623              -0.000230093               0.999999999              -0.000053124              -0.000250612               0.999999999              -0.000062026              -0.000272155               0.999999999              -0.000071428              -0.000294945               0.999999999              -0.000081277              -0.000319002               0.999999999              -0.000091477              -0.000343958               0.999999999              -0.000101984              -0.000369550               0.999999999               0.000004511              -0.000138340               0.999999999               0.000009987              -0.000128057               0.999999999               0.000009205              -0.000127536               0.999999999               0.000005977              -0.000132445               0.999999999               0.000001491              -0.000140745               0.999999999              -0.000003584              -0.000151462               0.999999999              -0.000009165              -0.000164090               0.999999999              -0.000015227              -0.000178425               0.999999999              -0.000021944              -0.000194271               0.999999999              -0.000029182              -0.000211458               0.999999999              -0.000036621              -0.000229766               0.999999999              -0.000044053              -0.000248898               0.999999999              -0.000051519              -0.000269016               0.999999999              -0.000059142              -0.000290234               0.999999999              -0.000067202              -0.000312775               0.999999999              -0.000075766              -0.000336479               0.999999999              -0.000084764              -0.000361193               0.999999999               0.000003619              -0.000149105               0.999999999               0.000009968              -0.000140139               0.999999999               0.000009955              -0.000139091               0.999999999               0.000007368              -0.000142919               0.999999999               0.000003514              -0.000149988               0.999999999              -0.000000918              -0.000159343               0.999999999              -0.000005652              -0.000170624               0.999999999              -0.000010794              -0.000183534               0.999999999              -0.000016441              -0.000197860               0.999999999              -0.000022627              -0.000213534               0.999999999              -0.000028964              -0.000230352               0.999999999              -0.000035328              -0.000248158               0.999999999              -0.000041515              -0.000266914               0.999999999              -0.000047774              -0.000286656               0.999999999              -0.000054304              -0.000307542               0.999999999              -0.000061313              -0.000329650               0.999999999              -0.000068768              -0.000352975               0.999999999               0.000002781              -0.000158493               0.999999999               0.000009376              -0.000151305               0.999999999               0.000010031              -0.000150226               0.999999999               0.000008131              -0.000153334               0.999999999               0.000004947              -0.000159382               0.999999999               0.000001271              -0.000167647               0.999999999              -0.000002694              -0.000177713               0.999999999              -0.000006905              -0.000189399               0.999999999              -0.000011511              -0.000202456               0.999999999              -0.000016493              -0.000216741               0.999999999              -0.000021745              -0.000232161               0.999999999              -0.000027020              -0.000248628               0.999999999              -0.000032222              -0.000266052               0.999999999              -0.000037360              -0.000284509               0.999999999              -0.000042591              -0.000304001               0.999999999              -0.000048077              -0.000324583               0.999999999              -0.000053712              -0.000346347               0.999999999               0.000002043              -0.000166370               0.999999999               0.000008262              -0.000161220               0.999999999               0.000009343              -0.000160458               0.999999999               0.000008092              -0.000163176               0.999999999               0.000005658              -0.000168544               0.999999999               0.000002714              -0.000175946               0.999999999              -0.000000407              -0.000185100               0.999999999              -0.000003744              -0.000195740               0.999999999              -0.000007332              -0.000207765               0.999999999              -0.000011159              -0.000220892               0.999999999              -0.000015252              -0.000235049               0.999999999              -0.000019563              -0.000250234               0.999999999              -0.000023746              -0.000266454               0.999999999              -0.000027846              -0.000283790               0.999999999              -0.000031987              -0.000302228               0.999999999              -0.000035999              -0.000321794               0.999999999              -0.000039750              -0.000342420               0.999999999               0.000001410              -0.000172588               0.999999999               0.000006658              -0.000169444               0.999999999               0.000007880              -0.000169254               0.999999999               0.000007166              -0.000171866               0.999999999               0.000005450              -0.000176820               0.999999999               0.000003260              -0.000183657               0.999999999               0.000000962              -0.000192127               0.999999999              -0.000001494              -0.000202003               0.999999999              -0.000004112              -0.000213126               0.999999999              -0.000006995              -0.000225321               0.999999999              -0.000010005              -0.000238539               0.999999999              -0.000013104              -0.000252775               0.999999999              -0.000016285              -0.000268123               0.999999999              -0.000019378              -0.000284604               0.999999999              -0.000022364              -0.000302264               0.999999999              -0.000025084              -0.000321081               0.999999999              -0.000027260              -0.000340920               0.999999999               0.000000874              -0.000177087               0.999999999               0.000004672              -0.000175632               0.999999999               0.000005706              -0.000176062               0.999999999               0.000005379              -0.000178731               0.999999999               0.000004283              -0.000183486               0.999999999               0.000002895              -0.000189996               0.999999999               0.000001343              -0.000198033               0.999999999              -0.000000242              -0.000207394               0.999999999              -0.000002029              -0.000217854               0.999999999              -0.000003908              -0.000229393               0.999999999              -0.000005847              -0.000242032               0.999999999              -0.000007753              -0.000255741               0.999999999              -0.000009903              -0.000270579               0.999999999              -0.000012077              -0.000286557               0.999999999              -0.000013977              -0.000303725               0.999999999              -0.000015483              -0.000322052               0.999999999              -0.000016471              -0.000341374               0.999999999               0.000000424              -0.000179855               0.999999999               0.000002417              -0.000179483               0.999999999               0.000002978              -0.000180370               0.999999999               0.000002894              -0.000183148               0.999999999               0.000002365              -0.000187831               0.999999999               0.000001682              -0.000194182               0.999999999               0.000000920              -0.000201997               0.999999999               0.000000115              -0.000211057               0.999999999              -0.000000777              -0.000221174               0.999999999              -0.000001712              -0.000232389               0.999999999              -0.000002561              -0.000244701               0.999999999              -0.000003578              -0.000258121               0.999999999              -0.000004617              -0.000272740               0.999999999              -0.000005729              -0.000288604               0.999999999              -0.000006746              -0.000305578               0.999999999              -0.000007291              -0.000323563               0.999999999              -0.000007415              -0.000342555               0.999999999              -0.000000000              -0.000180788               0.999999999               0.000000000              -0.000180755               0.999999999              -0.000000000              -0.000181822               0.999999999              -0.000000000              -0.000184703               0.999999999              -0.000000000              -0.000189336               0.999999999              -0.000000000              -0.000195650               0.999999999               0.000000000              -0.000203408               0.999999999              -0.000000000              -0.000212346               0.999999999              -0.000000000              -0.000222397               0.999999999               0.000000000              -0.000233484               0.999999999               0.000000000              -0.000245615               0.999999999               0.000000000              -0.000259045               0.999999999               0.000000000              -0.000273683               0.999999999               0.000000000              -0.000289485               0.999999999              -0.000000000              -0.000306416               0.999999999               0.000000000              -0.000324268               0.999999999               0.000000000              -0.000343090               0.999999999              -0.000009095               0.000000000               0.999999999              -0.000002063               0.000000000               0.999999999               0.000001157               0.000000000               0.999999999               0.000002731               0.000000000               0.999999999               0.000003670               0.000000000               0.999999999               0.000004460               0.000000000               0.999999999               0.000005385               0.000000000               0.999999999               0.000006623               0.000000000               0.999999999               0.000008285               0.000000000               0.999999999               0.000010346               0.000000000               0.999999999               0.000012877               0.000000000               0.999999999               0.000015931               0.000000000               0.999999999               0.000019459               0.000000000               0.999999999               0.000023546               0.000000000               0.999999999               0.000028154               0.000000000               0.999999999               0.000033165               0.000000000               0.999999999               0.000038600               0.000000000               0.999999999              -0.000009024              -0.000017571               0.999999999              -0.000002200              -0.000015833               0.999999999               0.000000914              -0.000015397               0.999999999               0.000002447              -0.000015711               0.999999999               0.000003426              -0.000016563               0.999999999               0.000004329              -0.000017796               0.999999999               0.000005392              -0.000019362               0.999999999               0.000006802              -0.000021169               0.999999999               0.000008591              -0.000023227               0.999999999               0.000010831              -0.000025460               0.999999999               0.000013556              -0.000027972               0.999999999               0.000016796              -0.000030742               0.999999999               0.000020595              -0.000033652               0.999999999               0.000024889              -0.000036656               0.999999999               0.000029603              -0.000039669               0.999999999               0.000034728              -0.000042915               0.999999999               0.000040305              -0.000046416               0.999999999              -0.000008775              -0.000034978               0.999999999              -0.000002640              -0.000031505               0.999999999               0.000000137              -0.000030676               0.999999999               0.000001647              -0.000031409               0.999999999               0.000002801              -0.000033168               0.999999999               0.000004005              -0.000035724               0.999999999               0.000005476              -0.000038849               0.999999999               0.000007336              -0.000042519               0.999999999               0.000009623              -0.000046536               0.999999999               0.000012363              -0.000051086               0.999999999               0.000015643              -0.000056043               0.999999999               0.000019469              -0.000061537               0.999999999               0.000023778              -0.000067283               0.999999999               0.000028557              -0.000073128               0.999999999               0.000033754              -0.000079011               0.999999999               0.000039378              -0.000085329               0.999999999               0.000045410              -0.000092151               0.999999999              -0.000008406              -0.000052071               0.999999999              -0.000003387              -0.000046845               0.999999999              -0.000001063              -0.000045791               0.999999999               0.000000463              -0.000047082               0.999999999               0.000001941              -0.000049887               0.999999999               0.000003698              -0.000053781               0.999999999               0.000005807              -0.000058567               0.999999999               0.000008378              -0.000063980               0.999999999               0.000011414              -0.000070112               0.999999999               0.000014965              -0.000076844               0.999999999               0.000019075              -0.000084342               0.999999999               0.000023705              -0.000092428               0.999999999               0.000028802              -0.000100827               0.999999999               0.000034304              -0.000109318               0.999999999               0.000040170              -0.000117951               0.999999999               0.000046400              -0.000127159               0.999999999               0.000052954              -0.000136782               0.999999999              -0.000007971              -0.000068689               0.999999999              -0.000004412              -0.000061732               0.999999999              -0.000002573              -0.000060677               0.999999999              -0.000000899              -0.000062689               0.999999999               0.000001091              -0.000066679               0.999999999               0.000003530              -0.000072027               0.999999999               0.000006489              -0.000078446               0.999999999               0.000009976              -0.000085761               0.999999999               0.000013985              -0.000093911               0.999999999               0.000018530              -0.000102936               0.999999999               0.000023622              -0.000112867               0.999999999               0.000029171              -0.000123412               0.999999999               0.000035080              -0.000134238               0.999999999               0.000041325              -0.000145181               0.999999999               0.000047885              -0.000156416               0.999999999               0.000054788              -0.000168139               0.999999999               0.000062004              -0.000180177               0.999999999              -0.000007455              -0.000084619               0.999999999              -0.000005658              -0.000076089               0.999999999              -0.000004186              -0.000075220               0.999999999              -0.000002225              -0.000078159               0.999999999               0.000000405              -0.000083466               0.999999999               0.000003717              -0.000090364               0.999999999               0.000007616              -0.000098528               0.999999999               0.000012066              -0.000107708               0.999999999               0.000017095              -0.000117976               0.999999999               0.000022686              -0.000129316               0.999999999               0.000028750              -0.000141672               0.999999999               0.000035197              -0.000154541               0.999999999               0.000041863              -0.000167685               0.999999999               0.000048796              -0.000180960               0.999999999               0.000056074              -0.000194832               0.999999999               0.000063733              -0.000209238               0.999999999               0.000071764              -0.000223962               0.999999999              -0.000006873              -0.000099671               0.999999999              -0.000006994              -0.000089844               0.999999999              -0.000005721              -0.000089365               0.999999999              -0.000003295              -0.000093377               0.999999999               0.000000122              -0.000100059               0.999999999               0.000004303              -0.000108609               0.999999999               0.000009099              -0.000118571               0.999999999               0.000014512              -0.000129830               0.999999999               0.000020567              -0.000142382               0.999999999               0.000027141              -0.000156145               0.999999999               0.000034139              -0.000170819               0.999999999               0.000041407              -0.000185922               0.999999999               0.000048859              -0.000201281               0.999999999               0.000056601              -0.000217154               0.999999999               0.000064762              -0.000233875               0.999999999               0.000073331              -0.000251231               0.999999999               0.000082361              -0.000269066               0.999999999              -0.000006265              -0.000113706               0.999999999              -0.000008270              -0.000102937               0.999999999              -0.000007006              -0.000102999               0.999999999              -0.000003946              -0.000108123               0.999999999               0.000000257              -0.000116256               0.999999999               0.000005284              -0.000126566               0.999999999               0.000010957              -0.000138535               0.999999999               0.000017260              -0.000152035               0.999999999               0.000024168              -0.000166948               0.999999999               0.000031645              -0.000183210               0.999999999               0.000039477              -0.000200256               0.999999999               0.000047468              -0.000217746               0.999999999               0.000055683              -0.000235827               0.999999999               0.000064303              -0.000254844               0.999999999               0.000073390              -0.000274884               0.999999999               0.000082925              -0.000295680               0.999999999               0.000092931              -0.000316981               0.999999999              -0.000005515              -0.000126450               0.999999999              -0.000009423              -0.000115339               0.999999999              -0.000007900              -0.000115975               0.999999999              -0.000004125              -0.000122214               0.999999999               0.000000869              -0.000131914               0.999999999               0.000006637              -0.000144092               0.999999999               0.000013047              -0.000158195               0.999999999               0.000020120              -0.000174109               0.999999999               0.000027870              -0.000191620               0.999999999               0.000036179              -0.000210427               0.999999999               0.000044623              -0.000230093               0.999999999               0.000053124              -0.000250612               0.999999999               0.000062026              -0.000272155               0.999999999               0.000071428              -0.000294945               0.999999999               0.000081277              -0.000319002               0.999999999               0.000091477              -0.000343958               0.999999999               0.000101984              -0.000369550               0.999999999              -0.000004511              -0.000138340               0.999999999              -0.000009987              -0.000128057               0.999999999              -0.000009205              -0.000127536               0.999999999              -0.000005977              -0.000132445               0.999999999              -0.000001491              -0.000140745               0.999999999               0.000003584              -0.000151462               0.999999999               0.000009165              -0.000164090               0.999999999               0.000015227              -0.000178425               0.999999999               0.000021944              -0.000194271               0.999999999               0.000029182              -0.000211458               0.999999999               0.000036621              -0.000229766               0.999999999               0.000044053              -0.000248898               0.999999999               0.000051519              -0.000269016               0.999999999               0.000059142              -0.000290234               0.999999999               0.000067202              -0.000312775               0.999999999               0.000075766              -0.000336479               0.999999999               0.000084764              -0.000361193               0.999999999              -0.000003619              -0.000149105               0.999999999              -0.000009968              -0.000140139               0.999999999              -0.000009955              -0.000139091               0.999999999              -0.000007368              -0.000142919               0.999999999              -0.000003514              -0.000149988               0.999999999               0.000000918              -0.000159343               0.999999999               0.000005652              -0.000170624               0.999999999               0.000010794              -0.000183534               0.999999999               0.000016441              -0.000197860               0.999999999               0.000022627              -0.000213534               0.999999999               0.000028964              -0.000230352               0.999999999               0.000035328              -0.000248158               0.999999999               0.000041515              -0.000266914               0.999999999               0.000047774              -0.000286656               0.999999999               0.000054304              -0.000307542               0.999999999               0.000061313              -0.000329650               0.999999999               0.000068768              -0.000352975               0.999999999              -0.000002781              -0.000158493               0.999999999              -0.000009376              -0.000151305               0.999999999              -0.000010031              -0.000150226               0.999999999              -0.000008131              -0.000153334               0.999999999              -0.000004947              -0.000159382               0.999999999              -0.000001271              -0.000167647               0.999999999               0.000002694              -0.000177713               0.999999999               0.000006905              -0.000189399               0.999999999               0.000011511              -0.000202456               0.999999999               0.000016493              -0.000216741               0.999999999               0.000021745              -0.000232161               0.999999999               0.000027020              -0.000248628               0.999999999               0.000032222              -0.000266052               0.999999999               0.000037360              -0.000284509               0.999999999               0.000042591              -0.000304001               0.999999999               0.000048077              -0.000324583               0.999999999               0.000053712              -0.000346347               0.999999999              -0.000002043              -0.000166370               0.999999999              -0.000008262              -0.000161220               0.999999999              -0.000009343              -0.000160458               0.999999999              -0.000008092              -0.000163176               0.999999999              -0.000005658              -0.000168544               0.999999999              -0.000002714              -0.000175946               0.999999999               0.000000407              -0.000185100               0.999999999               0.000003744              -0.000195740               0.999999999               0.000007332              -0.000207765               0.999999999               0.000011159              -0.000220892               0.999999999               0.000015252              -0.000235049               0.999999999               0.000019563              -0.000250234               0.999999999               0.000023746              -0.000266454               0.999999999               0.000027846              -0.000283790               0.999999999               0.000031987              -0.000302228               0.999999999               0.000035999              -0.000321794               0.999999999               0.000039750              -0.000342420               0.999999999              -0.000001410              -0.000172588               0.999999999              -0.000006658              -0.000169444               0.999999999              -0.000007880              -0.000169254               0.999999999              -0.000007166              -0.000171866               0.999999999              -0.000005450              -0.000176820               0.999999999              -0.000003260              -0.000183657               0.999999999              -0.000000962              -0.000192127               0.999999999               0.000001494              -0.000202003               0.999999999               0.000004112              -0.000213126               0.999999999               0.000006995              -0.000225321               0.999999999               0.000010005              -0.000238539               0.999999999               0.000013104              -0.000252775               0.999999999               0.000016285              -0.000268123               0.999999999               0.000019378              -0.000284604               0.999999999               0.000022364              -0.000302264               0.999999999               0.000025084              -0.000321081               0.999999999               0.000027260              -0.000340920               0.999999999              -0.000000874              -0.000177087               0.999999999              -0.000004672              -0.000175632               0.999999999              -0.000005706              -0.000176062               0.999999999              -0.000005379              -0.000178731               0.999999999              -0.000004283              -0.000183486               0.999999999              -0.000002895              -0.000189996               0.999999999              -0.000001343              -0.000198033               0.999999999               0.000000242              -0.000207394               0.999999999               0.000002029              -0.000217854               0.999999999               0.000003908              -0.000229393               0.999999999               0.000005847              -0.000242032               0.999999999               0.000007753              -0.000255741               0.999999999               0.000009903              -0.000270579               0.999999999               0.000012077              -0.000286557               0.999999999               0.000013977              -0.000303725               0.999999999               0.000015483              -0.000322052               0.999999999               0.000016471              -0.000341374               0.999999999              -0.000000424              -0.000179855               0.999999999              -0.000002417              -0.000179483               0.999999999              -0.000002978              -0.000180370               0.999999999              -0.000002894              -0.000183148               0.999999999              -0.000002365              -0.000187831               0.999999999              -0.000001682              -0.000194182               0.999999999              -0.000000920              -0.000201997               0.999999999              -0.000000115              -0.000211057               0.999999999               0.000000777              -0.000221174               0.999999999               0.000001712              -0.000232389               0.999999999               0.000002561              -0.000244701               0.999999999               0.000003578              -0.000258121               0.999999999               0.000004617              -0.000272740               0.999999999               0.000005729              -0.000288604               0.999999999               0.000006746              -0.000305578               0.999999999               0.000007291              -0.000323563               0.999999999               0.000007415              -0.000342555               0.999999999              -0.000000000              -0.000180788               0.999999999               0.000000000              -0.000180755               0.999999999              -0.000000000              -0.000181822               0.999999999              -0.000000000              -0.000184703               0.999999999              -0.000000000              -0.000189336               0.999999999              -0.000000000              -0.000195650               0.999999999               0.000000000              -0.000203408               0.999999999              -0.000000000              -0.000212346               0.999999999              -0.000000000              -0.000222397               0.999999999               0.000000000              -0.000233484               0.999999999               0.000000000              -0.000245615               0.999999999               0.000000000              -0.000259045               0.999999999               0.000000000              -0.000273683               0.999999999               0.000000000              -0.000289485               0.999999999              -0.000000000              -0.000306416               0.999999999               0.000000000              -0.000324268               0.999999999               0.000000000              -0.000343090               0.999999999              -0.000009095               0.000000000               0.999999999              -0.000002063               0.000000000               0.999999999               0.000001157               0.000000000               0.999999999               0.000002731               0.000000000               0.999999999               0.000003670               0.000000000               0.999999999               0.000004460               0.000000000               0.999999999               0.000005385               0.000000000               0.999999999               0.000006623               0.000000000               0.999999999               0.000008285               0.000000000               0.999999999               0.000010346               0.000000000               0.999999999               0.000012877               0.000000000               0.999999999               0.000015931               0.000000000               0.999999999               0.000019459               0.000000000               0.999999999               0.000023546               0.000000000               0.999999999               0.000028154               0.000000000               0.999999999               0.000033165               0.000000000               0.999999999               0.000038600               0.000000000               0.999999999              -0.000009024               0.000017571               0.999999999              -0.000002200               0.000015833               0.999999999               0.000000914               0.000015397               0.999999999               0.000002447               0.000015711               0.999999999               0.000003426               0.000016563               0.999999999               0.000004329               0.000017796               0.999999999               0.000005392               0.000019362               0.999999999               0.000006802               0.000021169               0.999999999               0.000008591               0.000023227               0.999999999               0.000010831               0.000025460               0.999999999               0.000013556               0.000027972               0.999999999               0.000016796               0.000030742               0.999999999               0.000020595               0.000033652               0.999999999               0.000024889               0.000036656               0.999999999               0.000029603               0.000039669               0.999999999               0.000034728               0.000042915               0.999999999               0.000040305               0.000046416               0.999999999              -0.000008775               0.000034978               0.999999999              -0.000002640               0.000031505               0.999999999               0.000000137               0.000030676               0.999999999               0.000001647               0.000031409               0.999999999               0.000002801               0.000033168               0.999999999               0.000004005               0.000035724               0.999999999               0.000005476               0.000038849               0.999999999               0.000007336               0.000042519               0.999999999               0.000009623               0.000046536               0.999999999               0.000012363               0.000051086               0.999999999               0.000015643               0.000056043               0.999999999               0.000019469               0.000061537               0.999999999               0.000023778               0.000067283               0.999999999               0.000028557               0.000073128               0.999999999               0.000033754               0.000079011               0.999999999               0.000039378               0.000085329               0.999999999               0.000045410               0.000092151               0.999999999              -0.000008406               0.000052071               0.999999999              -0.000003387               0.000046845               0.999999999              -0.000001063               0.000045791               0.999999999               0.000000463               0.000047082               0.999999999               0.000001941               0.000049887               0.999999999               0.000003698               0.000053781               0.999999999               0.000005807               0.000058567               0.999999999               0.000008378               0.000063980               0.999999999               0.000011414               0.000070112               0.999999999               0.000014965               0.000076844               0.999999999               0.000019075               0.000084342               0.999999999               0.000023705               0.000092428               0.999999999               0.000028802               0.000100827               0.999999999               0.000034304               0.000109318               0.999999999               0.000040170               0.000117951               0.999999999               0.000046400               0.000127159               0.999999999               0.000052954               0.000136782               0.999999999              -0.000007971               0.000068689               0.999999999              -0.000004412               0.000061732               0.999999999              -0.000002573               0.000060677               0.999999999              -0.000000899               0.000062689               0.999999999               0.000001091               0.000066679               0.999999999               0.000003530               0.000072027               0.999999999               0.000006489               0.000078446               0.999999999               0.000009976               0.000085761               0.999999999               0.000013985               0.000093911               0.999999999               0.000018530               0.000102936               0.999999999               0.000023622               0.000112867               0.999999999               0.000029171               0.000123412               0.999999999               0.000035080               0.000134238               0.999999999               0.000041325               0.000145181               0.999999999               0.000047885               0.000156416               0.999999999               0.000054788               0.000168139               0.999999999               0.000062004               0.000180177               0.999999999              -0.000007455               0.000084619               0.999999999              -0.000005658               0.000076089               0.999999999              -0.000004186               0.000075220               0.999999999              -0.000002225               0.000078159               0.999999999               0.000000405               0.000083466               0.999999999               0.000003717               0.000090364               0.999999999               0.000007616               0.000098528               0.999999999               0.000012066               0.000107708               0.999999999               0.000017095               0.000117976               0.999999999               0.000022686               0.000129316               0.999999999               0.000028750               0.000141672               0.999999999               0.000035197               0.000154541               0.999999999               0.000041863               0.000167685               0.999999999               0.000048796               0.000180960               0.999999999               0.000056074               0.000194832               0.999999999               0.000063733               0.000209238               0.999999999               0.000071764               0.000223962               0.999999999              -0.000006873               0.000099671               0.999999999              -0.000006994               0.000089844               0.999999999              -0.000005721               0.000089365               0.999999999              -0.000003295               0.000093377               0.999999999               0.000000122               0.000100059               0.999999999               0.000004303               0.000108609               0.999999999               0.000009099               0.000118571               0.999999999               0.000014512               0.000129830               0.999999999               0.000020567               0.000142382               0.999999999               0.000027141               0.000156145               0.999999999               0.000034139               0.000170819               0.999999999               0.000041407               0.000185922               0.999999999               0.000048859               0.000201281               0.999999999               0.000056601               0.000217154               0.999999999               0.000064762               0.000233875               0.999999999               0.000073331               0.000251231               0.999999999               0.000082361               0.000269066               0.999999999              -0.000006265               0.000113706               0.999999999              -0.000008270               0.000102937               0.999999999              -0.000007006               0.000102999               0.999999999              -0.000003946               0.000108123               0.999999999               0.000000257               0.000116256               0.999999999               0.000005284               0.000126566               0.999999999               0.000010957               0.000138535               0.999999999               0.000017260               0.000152035               0.999999999               0.000024168               0.000166948               0.999999999               0.000031645               0.000183210               0.999999999               0.000039477               0.000200256               0.999999999               0.000047468               0.000217746               0.999999999               0.000055683               0.000235827               0.999999999               0.000064303               0.000254844               0.999999999               0.000073390               0.000274884               0.999999999               0.000082925               0.000295680               0.999999999               0.000092931               0.000316981               0.999999999              -0.000005515               0.000126450               0.999999999              -0.000009423               0.000115339               0.999999999              -0.000007900               0.000115975               0.999999999              -0.000004125               0.000122214               0.999999999               0.000000869               0.000131914               0.999999999               0.000006637               0.000144092               0.999999999               0.000013047               0.000158195               0.999999999               0.000020120               0.000174109               0.999999999               0.000027870               0.000191620               0.999999999               0.000036179               0.000210427               0.999999999               0.000044623               0.000230093               0.999999999               0.000053124               0.000250612               0.999999999               0.000062026               0.000272155               0.999999999               0.000071428               0.000294945               0.999999999               0.000081277               0.000319002               0.999999999               0.000091477               0.000343958               0.999999999               0.000101984               0.000369550               0.999999999              -0.000004511               0.000138340               0.999999999              -0.000009987               0.000128057               0.999999999              -0.000009205               0.000127536               0.999999999              -0.000005977               0.000132445               0.999999999              -0.000001491               0.000140745               0.999999999               0.000003584               0.000151462               0.999999999               0.000009165               0.000164090               0.999999999               0.000015227               0.000178425               0.999999999               0.000021944               0.000194271               0.999999999               0.000029182               0.000211458               0.999999999               0.000036621               0.000229766               0.999999999               0.000044053               0.000248898               0.999999999               0.000051519               0.000269016               0.999999999               0.000059142               0.000290234               0.999999999               0.000067202               0.000312775               0.999999999               0.000075766               0.000336479               0.999999999               0.000084764               0.000361193               0.999999999              -0.000003619               0.000149105               0.999999999              -0.000009968               0.000140139               0.999999999              -0.000009955               0.000139091               0.999999999              -0.000007368               0.000142919               0.999999999              -0.000003514               0.000149988               0.999999999               0.000000918               0.000159343               0.999999999               0.000005652               0.000170624               0.999999999               0.000010794               0.000183534               0.999999999               0.000016441               0.000197860               0.999999999               0.000022627               0.000213534               0.999999999               0.000028964               0.000230352               0.999999999               0.000035328               0.000248158               0.999999999               0.000041515               0.000266914               0.999999999               0.000047774               0.000286656               0.999999999               0.000054304               0.000307542               0.999999999               0.000061313               0.000329650               0.999999999               0.000068768               0.000352975               0.999999999              -0.000002781               0.000158493               0.999999999              -0.000009376               0.000151305               0.999999999              -0.000010031               0.000150226               0.999999999              -0.000008131               0.000153334               0.999999999              -0.000004947               0.000159382               0.999999999              -0.000001271               0.000167647               0.999999999               0.000002694               0.000177713               0.999999999               0.000006905               0.000189399               0.999999999               0.000011511               0.000202456               0.999999999               0.000016493               0.000216741               0.999999999               0.000021745               0.000232161               0.999999999               0.000027020               0.000248628               0.999999999               0.000032222               0.000266052               0.999999999               0.000037360               0.000284509               0.999999999               0.000042591               0.000304001               0.999999999               0.000048077               0.000324583               0.999999999               0.000053712               0.000346347               0.999999999              -0.000002043               0.000166370               0.999999999              -0.000008262               0.000161220               0.999999999              -0.000009343               0.000160458               0.999999999              -0.000008092               0.000163176               0.999999999              -0.000005658               0.000168544               0.999999999              -0.000002714               0.000175946               0.999999999               0.000000407               0.000185100               0.999999999               0.000003744               0.000195740               0.999999999               0.000007332               0.000207765               0.999999999               0.000011159               0.000220892               0.999999999               0.000015252               0.000235049               0.999999999               0.000019563               0.000250234               0.999999999               0.000023746               0.000266454               0.999999999               0.000027846               0.000283790               0.999999999               0.000031987               0.000302228               0.999999999               0.000035999               0.000321794               0.999999999               0.000039750               0.000342420               0.999999999              -0.000001410               0.000172588               0.999999999              -0.000006658               0.000169444               0.999999999              -0.000007880               0.000169254               0.999999999              -0.000007166               0.000171866               0.999999999              -0.000005450               0.000176820               0.999999999              -0.000003260               0.000183657               0.999999999              -0.000000962               0.000192127               0.999999999               0.000001494               0.000202003               0.999999999               0.000004112               0.000213126               0.999999999               0.000006995               0.000225321               0.999999999               0.000010005               0.000238539               0.999999999               0.000013104               0.000252775               0.999999999               0.000016285               0.000268123               0.999999999               0.000019378               0.000284604               0.999999999               0.000022364               0.000302264               0.999999999               0.000025084               0.000321081               0.999999999               0.000027260               0.000340920               0.999999999              -0.000000874               0.000177087               0.999999999              -0.000004672               0.000175632               0.999999999              -0.000005706               0.000176062               0.999999999              -0.000005379               0.000178731               0.999999999              -0.000004283               0.000183486               0.999999999              -0.000002895               0.000189996               0.999999999              -0.000001343               0.000198033               0.999999999               0.000000242               0.000207394               0.999999999               0.000002029               0.000217854               0.999999999               0.000003908               0.000229393               0.999999999               0.000005847               0.000242032               0.999999999               0.000007753               0.000255741               0.999999999               0.000009903               0.000270579               0.999999999               0.000012077               0.000286557               0.999999999               0.000013977               0.000303725               0.999999999               0.000015483               0.000322052               0.999999999               0.000016471               0.000341374               0.999999999              -0.000000424               0.000179855               0.999999999              -0.000002417               0.000179483               0.999999999              -0.000002978               0.000180370               0.999999999              -0.000002894               0.000183148               0.999999999              -0.000002365               0.000187831               0.999999999              -0.000001682               0.000194182               0.999999999              -0.000000920               0.000201997               0.999999999              -0.000000115               0.000211057               0.999999999               0.000000777               0.000221174               0.999999999               0.000001712               0.000232389               0.999999999               0.000002561               0.000244701               0.999999999               0.000003578               0.000258121               0.999999999               0.000004617               0.000272740               0.999999999               0.000005729               0.000288604               0.999999999               0.000006746               0.000305578               0.999999999               0.000007291               0.000323563               0.999999999               0.000007415               0.000342555               0.999999999               0.000000000               0.000180788               0.999999999              -0.000000000               0.000180755               0.999999999              -0.000000000               0.000181822               0.999999999              -0.000000000               0.000184703               0.999999999              -0.000000000               0.000189336               0.999999999              -0.000000000               0.000195650               0.999999999               0.000000000               0.000203408               0.999999999               0.000000000               0.000212346               0.999999999               0.000000000               0.000222397               0.999999999               0.000000000               0.000233484               0.999999999               0.000000000               0.000245615               0.999999999               0.000000000               0.000259045               0.999999999               0.000000000               0.000273683               0.999999999              -0.000000000               0.000289485               0.999999999              -0.000000000               0.000306416               0.999999999              -0.000000000               0.000324268               0.999999999               0.000000000               0.000343090               0.999999999 </DataArray>
<DataArray type="Float64"                                    Name="defo"                                                      NumberOfComponents=" 3" format="ascii">
              0.000009095              -0.000000000               0.999999999               0.000002063              -0.000000000               0.999999999              -0.000001157              -0.000000000               0.999999999              -0.000002731              -0.000000000               0.999999999              -0.000003670              -0.000000000               0.999999999              -0.000004460               0.000000000               0.999999999              -0.000005385               0.000000000               0.999999999              -0.000006623               0.000000000               0.999999999              -0.000008285              -0.000000000               0.999999999              -0.000010346               0.000000000               0.999999999              -0.000012877               0.000000000               0.999999999              -0.000015931               0.000000000               0.999999999              -0.000019459              -0.000000000               0.999999999              -0.000023546              -0.000000000               0.999999999              -0.000028154              -0.000000000               0.999999999              -0.000033165              -0.000000000               0.999999999              -0.000038600              -0.000000000               0.999999999               0.000009024               0.000017571               0.999999999               0.000002200               0.000015833               0.999999999              -0.000000914               0.000015397               0.999999999              -0.000002447               0.000015711               0.999999999              -0.000003426               0.000016563               0.999999999              -0.000004329               0.000017796               0.999999999              -0.000005392               0.000019362               0.999999999              -0.000006802               0.000021169               0.999999999              -0.000008591               0.000023227               0.999999999              -0.000010831               0.000025460               0.999999999              -0.000013556               0.000027972               0.999999999              -0.000016796               0.000030742               0.999999999              -0.000020595               0.000033652               0.999999999              -0.000024889               0.000036656               0.999999999              -0.000029603               0.000039669               0.999999999              -0.000034728               0.000042915               0.999999999              -0.000040305               0.000046416               0.999999999               0.000008775               0.000034978               0.999999999               0.000002640               0.000031505               0.999999999              -0.000000137               0.000030676               0.999999999              -0.000001647               0.000031409               0.999999999              -0.000002801               0.000033168               0.999999999              -0.000004005               0.000035724               0.999999999              -0.000005476               0.000038849               0.999999999              -0.000007336               0.000042519               0.999999999              -0.000009623               0.000046536               0.999999999              -0.000012363               0.000051086               0.999999999              -0.000015643               0.000056043               0.999999999              -0.000019469               0.000061537               0.999999999              -0.000023778               0.000067283               0.999999999              -0.000028557               0.000073128               0.999999999              -0.000033754               0.000079011               0.999999999              -0.000039378               0.000085329               0.999999999              -0.000045410               0.000092151               0.999999999               0.000008406               0.000052071               0.999999999               0.000003387               0.000046845               0.999999999               0.000001063               0.000045791               0.999999999              -0.000000463               0.000047082               0.999999999              -0.000001941               0.000049887               0.999999999              -0.000003698               0.000053781               0.999999999              -0.000005807               0.000058567               0.999999999              -0.000008378               0.000063980               0.999999999              -0.000011414               0.000070112               0.999999999              -0.000014965               0.000076844               0.999999999              -0.000019075               0.000084342               0.999999999              -0.000023705               0.000092428               0.999999999              -0.000028802               0.000100827               0.999999999              -0.000034304               0.000109318               0.999999999              -0.000040170               0.000117951               0.999999999              -0.000046400               0.000127159               0.999999999              -0.000052954               0.000136782               0.999999999               0.000007971               0.000068689               0.999999999               0.000004412               0.000061732               0.999999999               0.000002573               0.000060677               0.999999999               0.000000899               0.000062689               0.999999999              -0.000001091               0.000066679               0.999999999              -0.000003530               0.000072027               0.999999999              -0.000006489               0.000078446               0.999999999              -0.000009976               0.000085761               0.999999999              -0.000013985               0.000093911               0.999999999              -0.000018530               0.000102936               0.999999999              -0.000023622               0.000112867               0.999999999              -0.000029171               0.000123412               0.999999999              -0.000035080               0.000134238               0.999999999              -0.000041325               0.000145181               0.999999999              -0.000047885               0.000156416               0.999999999              -0.000054788               0.000168139               0.999999999              -0.000062004               0.000180177               0.999999999               0.000007455               0.000084619               0.999999999               0.000005658               0.000076089               0.999999999               0.000004186               0.000075220               0.999999999               0.000002225               0.000078159               0.999999999              -0.000000405               0.000083466               0.999999999              -0.000003717               0.000090364               0.999999999              -0.000007616               0.000098528               0.999999999              -0.000012066               0.000107708               0.999999999              -0.000017095               0.000117976               0.999999999              -0.000022686               0.000129316               0.999999999              -0.000028750               0.000141672               0.999999999              -0.000035197               0.000154541               0.999999999              -0.000041863               0.000167685               0.999999999              -0.000048796               0.000180960               0.999999999              -0.000056074               0.000194832               0.999999999              -0.000063733               0.000209238               0.999999999              -0.000071764               0.000223962               0.999999999               0.000006873               0.000099671               0.999999999               0.000006994               0.000089844               0.999999999               0.000005721               0.000089365               0.999999999               0.000003295               0.000093377               0.999999999              -0.000000122               0.000100059               0.999999999              -0.000004303               0.000108609               0.999999999              -0.000009099               0.000118571               0.999999999              -0.000014512               0.000129830               0.999999999              -0.000020567               0.000142382               0.999999999              -0.000027141               0.000156145               0.999999999              -0.000034139               0.000170819               0.999999999              -0.000041407               0.000185922               0.999999999              -0.000048859               0.000201281               0.999999999              -0.000056601               0.000217154               0.999999999              -0.000064762               0.000233875               0.999999999              -0.000073331               0.000251231               0.999999999              -0.000082361               0.000269066               0.999999999               0.000006265               0.000113706               0.999999999               0.000008270               0.000102937               0.999999999               0.000007006               0.000102999               0.999999999               0.000003946               0.000108123               0.999999999              -0.000000257               0.000116256               0.999999999              -0.000005284               0.000126566               0.999999999              -0.000010957               0.000138535               0.999999999              -0.000017260               0.000152035               0.999999999              -0.000024168               0.000166948               0.999999999              -0.000031645               0.000183210               0.999999999              -0.000039477               0.000200256               0.999999999              -0.000047468               0.000217746               0.999999999              -0.000055683               0.000235827               0.999999999              -0.000064303               0.000254844               0.999999999              -0.000073390               0.000274884               0.999999999              -0.000082925               0.000295680               0.999999999              -0.000092931               0.000316981               0.999999999               0.000005515               0.000126450               0.999999999               0.000009423               0.000115339               0.999999999               0.000007900               0.000115975               0.999999999               0.000004125               0.000122214               0.999999999              -0.000000869               0.000131914               0.999999999              -0.000006637               0.000144092               0.999999999              -0.000013047               0.000158195               0.999999999              -0.000020120               0.000174109               0.999999999              -0.000027870               0.000191620               0.999999999              -0.000036179               0.000210427               0.999999999              -0.000044623               0.000230093               0.999999999              -0.000053124               0.000250612               0.999999999              -0.000062026               0.000272155               0.999999999              -0.000071428               0.000294945               0.999999999              -0.000081277               0.000319002               0.999999999              -0.000091477               0.000343958               0.999999999              -0.000101984               0.000369550               0.999999999               0.000004511               0.000138340               0.999999999               0.000009987               0.000128057               0.999999999               0.000009205               0.000127536               0.999999999               0.000005977               0.000132445               0.999999999               0.000001491               0.000140745               0.999999999              -0.000003584               0.000151462               0.999999999              -0.000009165               0.000164090               0.999999999              -0.000015227               0.000178425               0.999999999              -0.000021944               0.000194271               0.999999999              -0.000029182               0.000211458               0.999999999              -0.000036621               0.000229766               0.999999999              -0.000044053               0.000248898               0.999999999              -0.000051519               0.000269016               0.999999999              -0.000059142               0.000290234               0.999999999              -0.000067202               0.000312775               0.999999999              -0.000075766               0.000336479               0.999999999              -0.000084764               0.000361193               0.999999999               0.000003619               0.000149105               0.999999999               0.000009968               0.000140139               0.999999999               0.000009955               0.000139091               0.999999999               0.000007368               0.000142919               0.999999999               0.000003514               0.000149988               0.999999999              -0.000000918               0.000159343               0.999999999              -0.000005652               0.000170624               0.999999999              -0.000010794               0.000183534               0.999999999              -0.000016441               0.000197860               0.999999999              -0.000022627               0.000213534               0.999999999              -0.000028964               0.000230352               0.999999999              -0.000035328               0.000248158               0.999999999              -0.000041515               0.000266914               0.999999999              -0.000047774               0.000286656               0.999999999              -0.000054304               0.000307542               0.999999999              -0.000061313               0.000329650               0.999999999              -0.000068768               0.000352975               0.999999999               0.000002781               0.000158493               0.999999999               0.000009376               0.000151305               0.999999999               0.000010031               0.000150226               0.999999999               0.000008131               0.000153334               0.999999999               0.000004947               0.000159382               0.999999999               0.000001271               0.000167647               0.999999999              -0.000002694               0.000177713               0.999999999              -0.000006905               0.000189399               0.999999999              -0.000011511               0.000202456               0.999999999              -0.000016493               0.000216741               0.999999999              -0.000021745               0.000232161               0.999999999              -0.000027020               0.000248628               0.999999999              -0.000032222               0.000266052               0.999999999              -0.000037360               0.000284509               0.999999999              -0.000042591               0.000304001               0.999999999              -0.000048077               0.000324583               0.999999999              -0.000053712               0.000346347               0.999999999               0.000002043               0.000166370               0.999999999               0.000008262               0.000161220               0.999999999               0.000009343               0.000160458               0.999999999               0.000008092               0.000163176               0.999999999               0.000005658               0.000168544               0.999999999               0.000002714               0.000175946               0.999999999              -0.000000407               0.000185100               0.999999999              -0.000003744               0.000195740               0.999999999              -0.000007332               0.000207765               0.999999999              -0.000011159               0.000220892               0.999999999              -0.000015252               0.000235049               0.999999999              -0.000019563               0.000250234               0.999999999              -0.000023746               0.000266454               0.999999999              -0.000027846               0.000283790               0.999999999              -0.000031987               0.000302228               0.999999999              -0.000035999               0.000321794               0.999999999              -0.000039750               0.000342420               0.999999999               0.000001410               0.000172588               0.999999999               0.000006658               0.000169444               0.999999999               0.000007880               0.000169254               0.999999999               0.000007166               0.000171866               0.999999999               0.000005450               0.000176820               0.999999999               0.000003260               0.000183657               0.999999999               0.000000962               0.000192127               0.999999999              -0.000001494               0.000202003               0.999999999              -0.000004112               0.000213126               0.999999999              -0.000006995               0.000225321               0.999999999              -0.000010005               0.000238539               0.999999999              -0.000013104               0.000252775               0.999999999              -0.000016285               0.000268123               0.999999999              -0.000019378               0.000284604               0.999999999              -0.000022364               0.000302264               0.999999999              -0.000025084               0.000321081               0.999999999              -0.000027260               0.000340920               0.999999999               0.000000874               0.000177087               0.999999999               0.000004672               0.000175632               0.999999999               0.000005706               0.000176062               0.999999999               0.000005379               0.000178731               0.999999999               0.000004283               0.000183486               0.999999999               0.000002895               0.000189996               0.999999999               0.000001343               0.000198033               0.999999999              -0.000000242               0.000207394               0.999999999              -0.000002029               0.000217854               0.999999999              -0.000003908               0.000229393               0.999999999              -0.000005847               0.000242032               0.999999999              -0.000007753               0.000255741               0.999999999              -0.000009903               0.000270579               0.999999999              -0.000012077               0.000286557               0.999999999              -0.000013977               0.000303725               0.999999999              -0.000015483               0.000322052               0.999999999              -0.000016471               0.000341374               0.999999999               0.000000424               0.000179855               0.999999999               0.000002417               0.000179483               0.999999999               0.000002978               0.000180370               0.999999999               0.000002894               0.000183148               0.999999999               0.000002365               0.000187831               0.999999999               0.000001682               0.000194182               0.999999999               0.000000920               0.000201997               0.999999999               0.000000115               0.000211057               0.999999999              -0.000000777               0.000221174               0.999999999              -0.000001712               0.000232389               0.999999999              -0.000002561               0.000244701               0.999999999              -0.000003578               0.000258121               0.999999999              -0.000004617               0.000272740               0.999999999              -0.000005729               0.000288604               0.999999999              -0.000006746               0.000305578               0.999999999              -0.000007291               0.000323563               0.999999999              -0.000007415               0.000342555               0.999999999               0.000000000               0.000180788               0.999999999              -0.000000000               0.000180755               0.999999999              -0.000000000               0.000181822               0.999999999              -0.000000000               0.000184703               0.999999999              -0.000000000               0.000189336               0.999999999              -0.000000000               0.000195650               0.999999999               0.000000000               0.000203408               0.999999999               0.000000000               0.000212346               0.999999999               0.000000000               0.000222397               0.999999999               0.000000000               0.000233484               0.999999999               0.000000000               0.000245615               0.999999999               0.000000000               0.000259045               0.999999999               0.000000000               0.000273683               0.999999999              -0.000000000               0.000289485               0.999999999              -0.000000000               0.000306416               0.999999999              -0.000000000               0.000324268               0.999999999               0.000000000               0.000343090               0.999999999               0.000009095              -0.000000000               0.999999999               0.000002063              -0.000000000               0.999999999              -0.000001157              -0.000000000               0.999999999              -0.000002731              -0.000000000               0.999999999              -0.000003670              -0.000000000               0.999999999              -0.000004460               0.000000000               0.999999999              -0.000005385               0.000000000               0.999999999              -0.000006623               0.000000000               0.999999999              -0.000008285              -0.000000000               0.999999999              -0.000010346               0.000000000               0.999999999              -0.000012877               0.000000000               0.999999999              -0.000015931               0.000000000               0.999999999              -0.000019459              -0.000000000               0.999999999              -0.000023546              -0.000000000               0.999999999              -0.000028154              -0.000000000               0.999999999              -0.000033165              -0.000000000               0.999999999              -0.000038600              -0.000000000               0.999999999               0.000009024              -0.000017571               0.999999999               0.000002200              -0.000015833               0.999999999              -0.000000914              -0.000015397               0.999999999              -0.000002447              -0.000015711               0.999999999              -0.000003426              -0.000016563               0.999999999              -0.000004329              -0.000017796               0.999999999              -0.000005392              -0.000019362               0.999999999              -0.000006802              -0.000021169               0.999999999              -0.000008591              -0.000023227               0.999999999              -0.000010831              -0.000025460               0.999999999              -0.000013556              -0.000027972               0.999999999              -0.000016796              -0.000030742               0.999999999              -0.000020595              -0.000033652               0.999999999              -0.000024889              -0.000036656               0.999999999              -0.000029603              -0.000039669               0.999999999              -0.000034728              -0.000042915               0.999999999              -0.000040305              -0.000046416               0.999999999               0.000008775              -0.000034978               0.999999999               0.000002640              -0.000031505               0.999999999              -0.000000137              -0.000030676               0.999999999              -0.000001647              -0.000031409               0.999999999              -0.000002801              -0.000033168               0.999999999              -0.000004005              -0.000035724               0.999999999              -0.000005476              -0.000038849               0.999999999              -0.000007336              -0.000042519               0.999999999              -0.000009623              -0.000046536               0.999999999              -0.000012363              -0.000051086               0.999999999              -0.000015643              -0.000056043               0.999999999              -0.000019469              -0.000061537               0.999999999              -0.000023778              -0.000067283               0.999999999              -0.000028557              -0.000073128               0.999999999              -0.000033754              -0.000079011               0.999999999              -0.000039378              -0.000085329               0.999999999              -0.000045410              -0.000092151               0.999999999               0.000008406              -0.000052071               0.999999999               0.000003387              -0.000046845               0.999999999               0.000001063              -0.000045791               0.999999999              -0.000000463              -0.000047082               0.999999999              -0.000001941              -0.000049887               0.999999999              -0.000003698              -0.000053781               0.999999999              -0.000005807              -0.000058567               0.999999999              -0.000008378              -0.000063980               0.999999999              -0.000011414              -0.000070112               0.999999999              -0.000014965              -0.000076844               0.999999999              -0.000019075              -0.000084342               0.999999999              -0.000023705              -0.000092428               0.999999999              -0.000028802              -0.000100827               0.999999999              -0.000034304              -0.000109318               0.999999999              -0.000040170              -0.000117951               0.999999999              -0.000046400              -0.000127159               0.999999999              -0.000052954              -0.000136782               0.999999999               0.000007971              -0.000068689               0.999999999               0.000004412              -0.000061732               0.999999999               0.000002573              -0.000060677               0.999999999               0.000000899              -0.000062689               0.999999999              -0.000001091              -0.000066679               0.999999999              -0.000003530              -0.000072027               0.999999999              -0.000006489              -0.000078446               0.999999999              -0.000009976              -0.000085761               0.999999999              -0.000013985              -0.000093911               0.999999999              -0.000018530              -0.000102936               0.999999999              -0.000023622              -0.000112867               0.999999999              -0.000029171              -0.000123412               0.999999999              -0.000035080              -0.000134238               0.999999999              -0.000041325              -0.000145181               0.999999999              -0.000047885              -0.000156416               0.999999999              -0.000054788              -0.000168139               0.999999999              -0.000062004              -0.000180177               0.999999999               0.000007455              -0.000084619               0.999999999               0.000005658              -0.000076089               0.999999999               0.000004186              -0.000075220               0.999999999               0.000002225              -0.000078159               0.999999999              -0.000000405              -0.000083466               0.999999999              -0.000003717              -0.000090364               0.999999999              -0.000007616              -0.000098528               0.999999999              -0.000012066              -0.000107708               0.999999999              -0.000017095              -0.000117976               0.999999999              -0.000022686              -0.000129316               0.999999999              -0.000028750              -0.000141672               0.999999999              -0.000035197              -0.000154541               0.999999999              -0.000041863              -0.000167685               0.999999999              -0.000048796              -0.000180960               0.999999999              -0.000056074              -0.000194832               0.999999999              -0.000063733              -0.000209238               0.999999999              -0.000071764              -0.000223962               0.999999999               0.000006873              -0.000099671               0.999999999               0.000006994              -0.000089844               0.999999999               0.000005721              -0.000089365               0.999999999               0.000003295              -0.000093377               0.999999999              -0.000000122              -0.000100059               0.999999999              -0.000004303              -0.000108609               0.999999999              -0.000009099              -0.000118571               0.999999999              -0.000014512              -0.000129830               0.999999999              -0.000020567              -0.000142382               0.999999999              -0.000027141              -0.000156145               0.999999999              -0.000034139              -0.000170819               0.999999999              -0.000041407              -0.000185922               0.999999999              -0.000048859              -0.000201281               0.999999999              -0.000056601              -0.000217154               0.999999999              -0.000064762              -0.000233875               0.999999999              -0.000073331              -0.000251231               0.999999999              -0.000082361              -0.000269066               0.999999999               0.000006265              -0.000113706               0.999999999               0.000008270              -0.000102937               0.999999999               0.000007006              -0.000102999               0.999999999               0.000003946              -0.000108123               0.999999999              -0.000000257              -0.000116256               0.999999999              -0.000005284              -0.000126566               0.999999999              -0.000010957              -0.000138535               0.999999999              -0.000017260              -0.000152035               0.999999999              -0.000024168              -0.000166948               0.999999999              -0.000031645              -0.000183210               0.999999999              -0.000039477              -0.000200256               0.999999999              -0.000047468              -0.000217746               0.999999999              -0.000055683              -0.000235827               0.999999999              -0.000064303              -0.000254844               0.999999999              -0.000073390              -0.000274884               0.999999999              -0.000082925              -0.000295680               0.999999999              -0.000092931              -0.000316981               0.999999999               0.000005515              -0.000126450               0.999999999               0.000009423              -0.000115339               0.999999999               0.000007900              -0.000115975               0.999999999               0.000004125              -0.000122214               0.999999999              -0.000000869              -0.000131914               0.999999999              -0.000006637              -0.000144092               0.999999999              -0.000013047              -0.000158195               0.999999999              -0.000020120              -0.000174109               0.999999999              -0.000027870              -0.000191620               0.999999999              -0.000036179              -0.000210427               0.999999999              -0.000044623              -0.000230093               0.999999999              -0.000053124              -0.000250612               0.999999999              -0.000062026              -0.000272155               0.999999999              -0.000071428              -0.000294945               0.999999999              -0.000081277              -0.000319002               0.999999999              -0.000091477              -0.000343958               0.999999999              -0.000101984              -0.000369550               0.999999999               0.000004511              -0.000138340               0.999999999               0.000009987              -0.000128057               0.999999999               0.000009205              -0.000127536               0.999999999               0.000005977              -0.000132445               0.999999999               0.000001491              -0.000140745               0.999999999              -0.000003584              -0.000151462               0.999999999              -0.000009165              -0.000164090               0.999999999              -0.000015227              -0.000178425               0.999999999              -0.000021944              -0.000194271               0.999999999              -0.000029182              -0.000211458               0.999999999              -0.000036621              -0.000229766               0.999999999              -0.000044053              -0.000248898               0.999999999              -0.000051519              -0.000269016               0.999999999              -0.000059142              -0.000290234               0.999999999              -0.000067202              -0.000312775               0.999999999              -0.000075766              -0.000336479               0.999999999              -0.000084764              -0.000361193               0.999999999               0.000003619              -0.000149105               0.999999999               0.000009968              -0.000140139               0.999999999               0.000009955              -0.000139091               0.999999999               0.000007368              -0.000142919               0.999999999               0.000003514              -0.000149988               0.999999999              -0.000000918              -0.000159343               0.999999999              -0.000005652              -0.000170624               0.999999999              -0.000010794              -0.000183534               0.999999999              -0.000016441              -0.000197860               0.999999999              -0.000022627              -0.000213534               0.999999999              -0.000028964              -0.000230352               0.999999999              -0.000035328              -0.000248158               0.999999999              -0.000041515              -0.000266914               0.999999999              -0.000047774              -0.000286656               0.999999999              -0.000054304              -0.000307542               0.999999999              -0.000061313              -0.000329650               0.999999999              -0.000068768              -0.000352975               0.999999999               0.000002781              -0.000158493               0.999999999               0.000009376              -0.000151305               0.999999999               0.000010031              -0.000150226               0.999999999               0.000008131              -0.000153334               0.999999999               0.000004947              -0.000159382               0.999999999               0.000001271              -0.000167647               0.999999999              -0.000002694              -0.000177713               0.999999999              -0.000006905              -0.000189399               0.999999999              -0.000011511              -0.000202456               0.999999999              -0.000016493              -0.000216741               0.999999999              -0.000021745              -0.000232161               0.999999999              -0.000027020              -0.000248628               0.999999999              -0.000032222              -0.000266052               0.999999999              -0.000037360              -0.000284509               0.999999999              -0.000042591              -0.000304001               0.999999999              -0.000048077              -0.000324583               0.999999999              -0.000053712              -0.000346347               0.999999999               0.000002043              -0.000166370               0.999999999               0.000008262              -0.000161220               0.999999999               0.000009343              -0.000160458               0.999999999               0.000008092              -0.000163176               0.999999999               0.000005658              -0.000168544               0.999999999               0.000002714              -0.000175946               0.999999999              -0.000000407              -0.000185100               0.999999999              -0.000003744              -0.000195740               0.999999999              -0.000007332              -0.000207765               0.999999999              -0.000011159              -0.000220892               0.999999999              -0.000015252              -0.000235049               0.999999999              -0.000019563              -0.000250234               0.999999999              -0.000023746              -0.000266454               0.999999999              -0.000027846              -0.000283790               0.999999999              -0.000031987              -0.000302228               0.999999999              -0.000035999              -0.000321794               0.999999999              -0.000039750              -0.000342420               0.999999999               0.000001410              -0.000172588               0.999999999               0.000006658              -0.000169444               0.999999999               0.000007880              -0.000169254               0.999999999               0.000007166              -0.000171866               0.999999999               0.000005450              -0.000176820               0.999999999               0.000003260              -0.000183657               0.999999999               0.000000962              -0.000192127               0.999999999              -0.000001494              -0.000202003               0.999999999              -0.000004112              -0.000213126               0.999999999              -0.000006995              -0.000225321               0.999999999              -0.000010005              -0.000238539               0.999999999              -0.000013104              -0.000252775               0.999999999              -0.000016285              -0.000268123               0.999999999              -0.000019378              -0.000284604               0.999999999              -0.000022364              -0.000302264               0.999999999              -0.000025084              -0.000321081               0.999999999              -0.000027260              -0.000340920               0.999999999               0.000000874              -0.000177087               0.999999999               0.000004672              -0.000175632               0.999999999               0.000005706              -0.000176062               0.999999999               0.000005379              -0.000178731               0.999999999               0.000004283              -0.000183486               0.999999999               0.000002895              -0.000189996               0.999999999               0.000001343              -0.000198033               0.999999999              -0.000000242              -0.000207394               0.999999999              -0.000002029              -0.000217854               0.999999999              -0.000003908              -0.000229393               0.999999999              -0.000005847              -0.000242032               0.999999999              -0.000007753              -0.000255741               0.999999999              -0.000009903              -0.000270579               0.999999999              -0.000012077              -0.000286557               0.999999999              -0.000013977              -0.000303725               0.999999999              -0.000015483              -0.000322052               0.999999999              -0.000016471              -0.000341374               0.999999999               0.000000424              -0.000179855               0.999999999               0.000002417              -0.000179483               0.999999999               0.000002978              -0.000180370               0.999999999               0.000002894              -0.000183148               0.999999999               0.000002365              -0.000187831               0.999999999               0.000001682              -0.000194182               0.999999999               0.000000920              -0.000201997               0.999999999               0.000000115              -0.000211057               0.999999999              -0.000000777              -0.000221174               0.999999999              -0.000001712              -0.000232389               0.999999999              -0.000002561              -0.000244701               0.999999999              -0.000003578              -0.000258121               0.999999999              -0.000004617              -0.000272740               0.999999999              -0.000005729              -0.000288604               0.999999999              -0.000006746              -0.000305578               0.999999999              -0.000007291              -0.000323563               0.999999999              -0.000007415              -0.000342555               0.999999999              -0.000000000              -0.000180788               0.999999999               0.000000000              -0.000180755               0.999999999              -0.000000000              -0.000181822               0.999999999              -0.000000000              -0.000184703               0.999999999              -0.000000000              -0.000189336               0.999999999              -0.000000000              -0.000195650               0.999999999               0.000000000              -0.000203408               0.999999999              -0.000000000              -0.000212346               0.999999999              -0.000000000              -0.000222397               0.999999999               0.000000000              -0.000233484               0.999999999               0.000000000              -0.000245615               0.999999999               0.000000000              -0.000259045               0.999999999               0.000000000              -0.000273683               0.999999999               0.000000000              -0.000289485               0.999999999              -0.000000000              -0.000306416               0.999999999               0.000000000              -0.000324268               0.999999999               0.000000000              -0.000343090               0.999999999              -0.000009095               0.000000000               0.999999999              -0.000002063               0.000000000               0.999999999               0.000001157               0.000000000               0.999999999               0.000002731               0.000000000               0.999999999               0.000003670               0.000000000               0.999999999               0.000004460               0.000000000               0.999999999               0.000005385               0.000000000               0.999999999               0.000006623               0.000000000               0.999999999               0.000008285               0.000000000               0.999999999               0.000010346               0.000000000               0.999999999               0.000012877               0.000000000               0.999999999               0.000015931               0.000000000               0.999999999               0.000019459               0.000000000               0.999999999               0.000023546               0.000000000               0.999999999               0.000028154               0.000000000               0.999999999               0.000033165               0.000000000               0.999999999               0.000038600               0.000000000               0.999999999              -0.000009024              -0.000017571               0.999999999              -0.000002200              -0.000015833               0.999999999               0.000000914              -0.000015397               0.999999999               0.000002447              -0.000015711               0.999999999               0.000003426              -0.000016563               0.999999999               0.000004329              -0.000017796               0.999999999               0.000005392              -0.000019362               0.999999999               0.000006802              -0.000021169               0.999999999               0.000008591              -0.000023227               0.999999999               0.000010831              -0.000025460               0.999999999               0.000013556              -0.000027972               0.999999999               0.000016796              -0.000030742               0.999999999               0.000020595              -0.000033652               0.999999999               0.000024889              -0.000036656               0.999999999               0.000029603              -0.000039669               0.999999999               0.000034728              -0.000042915               0.999999999               0.000040305              -0.000046416               0.999999999              -0.000008775              -0.000034978               0.999999999              -0.000002640              -0.000031505               0.999999999               0.000000137              -0.000030676               0.999999999               0.000001647              -0.000031409               0.999999999               0.000002801              -0.000033168               0.999999999               0.000004005              -0.000035724               0.999999999               0.000005476              -0.000038849               0.999999999               0.000007336              -0.000042519               0.999999999               0.000009623              -0.000046536               0.999999999               0.000012363              -0.000051086               0.999999999               0.000015643              -0.000056043               0.999999999               0.000019469              -0.000061537               0.999999999               0.000023778              -0.000067283               0.999999999               0.000028557              -0.000073128               0.999999999               0.000033754              -0.000079011               0.999999999               0.000039378              -0.000085329               0.999999999               0.000045410              -0.000092151               0.999999999              -0.000008406              -0.000052071               0.999999999              -0.000003387              -0.000046845               0.999999999              -0.000001063              -0.000045791               0.999999999               0.000000463              -0.000047082               0.999999999               0.000001941              -0.000049887               0.999999999               0.000003698              -0.000053781               0.999999999               0.000005807              -0.000058567               0.999999999               0.000008378              -0.000063980               0.999999999               0.000011414              -0.000070112               0.999999999               0.000014965              -0.000076844               0.999999999               0.000019075              -0.000084342               0.999999999               0.000023705              -0.000092428               0.999999999               0.000028802              -0.000100827               0.999999999               0.000034304              -0.000109318               0.999999999               0.000040170              -0.000117951               0.999999999               0.000046400              -0.000127159               0.999999999               0.000052954              -0.000136782               0.999999999              -0.000007971              -0.000068689               0.999999999              -0.000004412              -0.000061732               0.999999999              -0.000002573              -0.000060677               0.999999999              -0.000000899              -0.000062689               0.999999999               0.000001091              -0.000066679               0.999999999               0.000003530              -0.000072027               0.999999999               0.000006489              -0.000078446               0.999999999               0.000009976              -0.000085761               0.999999999               0.000013985              -0.000093911               0.999999999               0.000018530              -0.000102936               0.999999999               0.000023622              -0.000112867               0.999999999               0.000029171              -0.000123412               0.999999999               0.000035080              -0.000134238               0.999999999               0.000041325              -0.000145181               0.999999999               0.000047885              -0.000156416               0.999999999               0.000054788              -0.000168139               0.999999999               0.000062004              -0.000180177               0.999999999              -0.000007455              -0.000084619               0.999999999              -0.000005658              -0.000076089               0.999999999              -0.000004186              -0.000075220               0.999999999              -0.000002225              -0.000078159               0.999999999               0.000000405              -0.000083466               0.999999999               0.000003717              -0.000090364               0.999999999               0.000007616              -0.000098528               0.999999999               0.000012066              -0.000107708               0.999999999               0.000017095              -0.000117976               0.999999999               0.000022686              -0.000129316               0.999999999               0.000028750              -0.000141672               0.999999999               0.000035197              -0.000154541               0.999999999               0.000041863              -0.000167685               0.999999999               0.000048796              -0.000180960               0.999999999               0.000056074              -0.000194832               0.999999999               0.000063733              -0.000209238               0.999999999               0.000071764              -0.000223962               0.999999999              -0.000006873              -0.000099671               0.999999999              -0.000006994              -0.000089844               0.999999999              -0.000005721              -0.000089365               0.999999999              -0.000003295              -0.000093377               0.999999999               0.000000122              -0.000100059               0.999999999               0.000004303              -0.000108609               0.999999999               0.000009099              -0.000118571               0.999999999               0.000014512              -0.000129830               0.999999999               0.000020567              -0.000142382               0.999999999               0.000027141              -0.000156145               0.999999999               0.000034139              -0.000170819               0.999999999               0.000041407              -0.000185922               0.999999999               0.000048859              -0.000201281               0.999999999               0.000056601              -0.000217154               0.999999999               0.000064762              -0.000233875               0.999999999               0.000073331              -0.000251231               0.999999999               0.000082361              -0.000269066               0.999999999              -0.000006265              -0.000113706               0.999999999              -0.000008270              -0.000102937               0.999999999              -0.000007006              -0.000102999               0.999999999              -0.000003946              -0.000108123               0.999999999               0.000000257              -0.000116256               0.999999999               0.000005284              -0.000126566               0.999999999               0.000010957              -0.000138535               0.999999999               0.000017260              -0.000152035               0.999999999               0.000024168              -0.000166948               0.999999999               0.000031645              -0.000183210               0.999999999               0.000039477              -0.000200256               0.999999999               0.000047468              -0.000217746               0.999999999               0.000055683              -0.000235827               0.999999999               0.000064303              -0.000254844               0.999999999               0.000073390              -0.000274884               0.999999999               0.000082925              -0.000295680               0.999999999               0.000092931              -0.000316981               0.999999999              -0.000005515              -0.000126450               0.999999999              -0.000009423              -0.000115339               0.999999999              -0.000007900              -0.000115975               0.999999999              -0.000004125              -0.000122214               0.999999999               0.000000869              -0.000131914               0.999999999               0.000006637              -0.000144092               0.999999999               0.000013047              -0.000158195               0.999999999               0.000020120              -0.000174109               0.999999999               0.000027870              -0.000191620               0.999999999               0.000036179              -0.000210427               0.999999999               0.000044623              -0.000230093               0.999999999               0.000053124              -0.000250612               0.999999999               0.000062026              -0.000272155               0.999999999               0.000071428              -0.000294945               0.999999999               0.000081277              -0.000319002               0.999999999               0.000091477              -0.000343958               0.999999999               0.000101984              -0.000369550               0.999999999              -0.000004511              -0.000138340               0.999999999              -0.000009987              -0.000128057               0.999999999              -0.000009205              -0.000127536               0.999999999              -0.000005977              -0.000132445               0.999999999              -0.000001491              -0.000140745               0.999999999               0.000003584              -0.000151462               0.999999999               0.000009165              -0.000164090               0.999999999               0.000015227              -0.000178425               0.999999999               0.000021944              -0.000194271               0.999999999               0.000029182              -0.000211458               0.999999999               0.000036621              -0.000229766               0.999999999               0.000044053              -0.000248898               0.999999999               0.000051519              -0.000269016               0.999999999               0.000059142              -0.000290234               0.999999999               0.000067202              -0.000312775               0.999999999               0.000075766              -0.000336479               0.999999999               0.000084764              -0.000361193               0.999999999              -0.000003619              -0.000149105               0.999999999              -0.000009968              -0.000140139               0.999999999              -0.000009955              -0.000139091               0.999999999              -0.000007368              -0.000142919               0.999999999              -0.000003514              -0.000149988               0.999999999               0.000000918              -0.000159343               0.999999999               0.000005652              -0.000170624               0.999999999               0.000010794              -0.000183534               0.999999999               0.000016441              -0.000197860               0.999999999               0.000022627              -0.000213534               0.999999999               0.000028964              -0.000230352               0.999999999               0.000035328              -0.000248158               0.999999999               0.000041515              -0.000266914               0.999999999               0.000047774              -0.000286656               0.999999999               0.000054304              -0.000307542               0.999999999               0.000061313              -0.000329650               0.999999999               0.000068768              -0.000352975               0.999999999              -0.000002781              -0.000158493               0.999999999              -0.000009376              -0.000151305               0.999999999              -0.000010031              -0.000150226               0.999999999              -0.000008131              -0.000153334               0.999999999              -0.000004947              -0.000159382               0.999999999              -0.000001271              -0.000167647               0.999999999               0.000002694              -0.000177713               0.999999999               0.000006905              -0.000189399               0.999999999               0.000011511              -0.000202456               0.999999999               0.000016493              -0.000216741               0.999999999               0.000021745              -0.000232161               0.999999999               0.000027020              -0.000248628               0.999999999               0.000032222              -0.000266052               0.999999999               0.000037360              -0.000284509               0.999999999               0.000042591              -0.000304001               0.999999999               0.000048077              -0.000324583               0.999999999               0.000053712              -0.000346347               0.999999999              -0.000002043              -0.000166370               0.999999999              -0.000008262              -0.000161220               0.999999999              -0.000009343              -0.000160458               0.999999999              -0.000008092              -0.000163176               0.999999999              -0.000005658              -0.000168544               0.999999999              -0.000002714              -0.000175946               0.999999999               0.000000407              -0.000185100               0.999999999               0.000003744              -0.000195740               0.999999999               0.000007332              -0.000207765               0.999999999               0.000011159              -0.000220892               0.999999999               0.000015252              -0.000235049               0.999999999               0.000019563              -0.000250234               0.999999999               0.000023746              -0.000266454               0.999999999               0.000027846              -0.000283790               0.999999999               0.000031987              -0.000302228               0.999999999               0.000035999              -0.000321794               0.999999999               0.000039750              -0.000342420               0.999999999              -0.000001410              -0.000172588               0.999999999              -0.000006658              -0.000169444               0.999999999              -0.000007880              -0.000169254               0.999999999              -0.000007166              -0.000171866               0.999999999              -0.000005450              -0.000176820               0.999999999              -0.000003260              -0.000183657               0.999999999              -0.000000962              -0.000192127               0.999999999               0.000001494              -0.000202003               0.999999999               0.000004112              -0.000213126               0.999999999               0.000006995              -0.000225321               0.999999999               0.000010005              -0.000238539               0.999999999               0.000013104              -0.000252775               0.999999999               0.000016285              -0.000268123               0.999999999               0.000019378              -0.000284604               0.999999999               0.000022364              -0.000302264               0.999999999               0.000025084              -0.000321081               0.999999999               0.000027260              -0.000340920               0.999999999              -0.000000874              -0.000177087               0.999999999              -0.000004672              -0.000175632               0.999999999              -0.000005706              -0.000176062               0.999999999              -0.000005379              -0.000178731               0.999999999              -0.000004283              -0.000183486               0.999999999              -0.000002895              -0.000189996               0.999999999              -0.000001343              -0.000198033               0.999999999               0.000000242              -0.000207394               0.999999999               0.000002029              -0.000217854               0.999999999               0.000003908              -0.000229393               0.999999999               0.000005847              -0.000242032               0.999999999               0.000007753              -0.000255741               0.999999999               0.000009903              -0.000270579               0.999999999               0.000012077              -0.000286557               0.999999999               0.000013977              -0.000303725               0.999999999               0.000015483              -0.000322052               0.999999999               0.000016471              -0.000341374               0.999999999              -0.000000424              -0.000179855               0.999999999              -0.000002417              -0.000179483               0.999999999              -0.000002978              -0.000180370               0.999999999              -0.000002894              -0.000183148               0.999999999              -0.000002365              -0.000187831               0.999999999              -0.000001682              -0.000194182               0.999999999              -0.000000920              -0.000201997               0.999999999              -0.000000115              -0.000211057               0.999999999               0.000000777              -0.000221174               0.999999999               0.000001712              -0.000232389               0.999999999               0.000002561              -0.000244701               0.999999999               0.000003578              -0.000258121               0.999999999               0.000004617              -0.000272740               0.999999999               0.000005729              -0.000288604               0.999999999               0.000006746              -0.000305578               0.999999999               0.000007291              -0.000323563               0.999999999               0.000007415              -0.000342555               0.999999999              -0.000000000              -0.000180788               0.999999999               0.000000000              -0.000180755               0.999999999              -0.000000000              -0.000181822               0.999999999              -0.000000000              -0.000184703               0.999999999              -0.000000000              -0.000189336               0.999999999              -0.000000000              -0.000195650               0.999999999               0.000000000              -0.000203408               0.999999999              -0.000000000              -0.000212346               0.999999999              -0.000000000              -0.000222397               0.999999999               0.000000000              -0.000233484               0.999999999               0.000000000              -0.000245615               0.999999999               0.000000000              -0.000259045               0.999999999               0.000000000              -0.000273683               0.999999999               0.000000000              -0.000289485               0.999999999              -0.000000000              -0.000306416               0.999999999               0.000000000              -0.000324268               0.999999999               0.000000000              -0.000343090               0.999999999              -0.000009095               0.000000000               0.999999999              -0.000002063               0.000000000               0.999999999               0.000001157               0.000000000               0.999999999               0.000002731               0.000000000               0.999999999               0.000003670               0.000000000               0.999999999               0.000004460               0.000000000               0.999999999               0.000005385               0.000000000               0.999999999               0.000006623               0.000000000               0.999999999               0.000008285               0.000000000               0.999999999               0.000010346               0.000000000               0.999999999               0.000012877               0.000000000               0.999999999               0.000015931               0.000000000               0.999999999               0.000019459               0.000000000               0.999999999               0.000023546               0.000000000               0.999999999               0.000028154               0.000000000               0.999999999               0.000033165               0.000000000               0.999999999               0.000038600               0.000000000               0.999999999              -0.000009024               0.000017571               0.999999999              -0.000002200               0.000015833               0.999999999               0.000000914               0.000015397               0.999999999               0.000002447               0.000015711               0.999999999               0.000003426               0.000016563               0.999999999               0.000004329               0.000017796               0.999999999               0.000005392               0.000019362               0.999999999               0.000006802               0.000021169               0.999999999               0.000008591               0.000023227               0.999999999               0.000010831               0.000025460               0.999999999               0.000013556               0.000027972               0.999999999               0.000016796               0.000030742               0.999999999               0.000020595               0.000033652               0.999999999               0.000024889               0.000036656               0.999999999               0.000029603               0.000039669               0.999999999               0.000034728               0.000042915               0.999999999               0.000040305               0.000046416               0.999999999              -0.000008775               0.000034978               0.999999999              -0.000002640               0.000031505               0.999999999               0.000000137               0.000030676               0.999999999               0.000001647               0.000031409               0.999999999               0.000002801               0.000033168               0.999999999               0.000004005               0.000035724               0.999999999               0.000005476               0.000038849               0.999999999               0.000007336               0.000042519               0.999999999               0.000009623               0.000046536               0.999999999               0.000012363               0.000051086               0.999999999               0.000015643               0.000056043               0.999999999               0.000019469               0.000061537               0.999999999               0.000023778               0.000067283               0.999999999               0.000028557               0.000073128               0.999999999               0.000033754               0.000079011               0.999999999               0.000039378               0.000085329               0.999999999               0.000045410               0.000092151               0.999999999              -0.000008406               0.000052071               0.999999999              -0.000003387               0.000046845               0.999999999              -0.000001063               0.000045791               0.999999999               0.000000463               0.000047082               0.999999999               0.000001941               0.000049887               0.999999999               0.000003698               0.000053781               0.999999999               0.000005807               0.000058567               0.999999999               0.000008378               0.000063980               0.999999999               0.000011414               0.000070112               0.999999999               0.000014965               0.000076844               0.999999999               0.000019075               0.000084342               0.999999999               0.000023705               0.000092428               0.999999999               0.000028802               0.000100827               0.999999999               0.000034304               0.000109318               0.999999999               0.000040170               0.000117951               0.999999999               0.000046400               0.000127159               0.999999999               0.000052954               0.000136782               0.999999999              -0.000007971               0.000068689               0.999999999              -0.000004412               0.000061732               0.999999999              -0.000002573               0.000060677               0.999999999              -0.000000899               0.000062689               0.999999999               0.000001091               0.000066679               0.999999999               0.000003530               0.000072027               0.999999999               0.000006489               0.000078446               0.999999999               0.000009976               0.000085761               0.999999999               0.000013985               0.000093911               0.999999999               0.000018530               0.000102936               0.999999999               0.000023622               0.000112867               0.999999999               0.000029171               0.000123412               0.999999999               0.000035080               0.000134238               0.999999999               0.000041325               0.000145181               0.999999999               0.000047885               0.000156416               0.999999999               0.000054788               0.000168139               0.999999999               0.000062004               0.000180177               0.999999999              -0.000007455               0.000084619               0.999999999              -0.000005658               0.000076089               0.999999999              -0.000004186               0.000075220               0.999999999              -0.000002225               0.000078159               0.999999999               0.000000405               0.000083466               0.999999999               0.000003717               0.000090364               0.999999999               0.000007616               0.000098528               0.999999999               0.000012066               0.000107708               0.999999999               0.000017095               0.000117976               0.999999999               0.000022686               0.000129316               0.999999999               0.000028750               0.000141672               0.999999999               0.000035197               0.000154541               0.999999999               0.000041863               0.000167685               0.999999999               0.000048796               0.000180960               0.999999999               0.000056074               0.000194832               0.999999999               0.000063733               0.000209238               0.999999999               0.000071764               0.000223962               0.999999999              -0.000006873               0.000099671               0.999999999              -0.000006994               0.000089844               0.999999999              -0.000005721               0.000089365               0.999999999              -0.000003295               0.000093377               0.999999999               0.000000122               0.000100059               0.999999999               0.000004303               0.000108609               0.999999999               0.000009099               0.000118571               0.999999999               0.000014512               0.000129830               0.999999999               0.000020567               0.000142382               0.999999999               0.000027141               0.000156145               0.999999999               0.000034139               0.000170819               0.999999999               0.000041407               0.000185922               0.999999999               0.000048859               0.000201281               0.999999999               0.000056601               0.000217154               0.999999999               0.000064762               0.000233875               0.999999999               0.000073331               0.000251231               0.999999999               0.000082361               0.000269066               0.999999999              -0.000006265               0.000113706               0.999999999              -0.000008270               0.000102937               0.999999999              -0.000007006               0.000102999               0.999999999              -0.000003946               0.000108123               0.999999999               0.000000257               0.000116256               0.999999999               0.000005284               0.000126566               0.999999999               0.000010957               0.000138535               0.999999999               0.000017260               0.000152035               0.999999999               0.000024168               0.000166948               0.999999999               0.000031645               0.000183210               0.999999999               0.000039477               0.000200256               0.999999999               0.000047468               0.000217746               0.999999999               0.000055683               0.000235827               0.999999999               0.000064303               0.000254844               0.999999999               0.000073390               0.000274884               0.999999999               0.000082925               0.000295680               0.999999999               0.000092931               0.000316981               0.999999999              -0.000005515               0.000126450               0.999999999              -0.000009423               0.000115339               0.999999999              -0.000007900               0.000115975               0.999999999              -0.000004125               0.000122214               0.999999999               0.000000869               0.000131914               0.999999999               0.000006637               0.000144092               0.999999999               0.000013047               0.000158195               0.999999999               0.000020120               0.000174109               0.999999999               0.000027870               0.000191620               0.999999999               0.000036179               0.000210427               0.999999999               0.000044623               0.000230093               0.999999999               0.000053124               0.000250612               0.999999999               0.000062026               0.000272155               0.999999999               0.000071428               0.000294945               0.999999999               0.000081277               0.000319002               0.999999999               0.000091477               0.000343958               0.999999999               0.000101984               0.000369550               0.999999999              -0.000004511               0.000138340               0.999999999              -0.000009987               0.000128057               0.999999999              -0.000009205               0.000127536               0.999999999              -0.000005977               0.000132445               0.999999999              -0.000001491               0.000140745               0.999999999               0.000003584               0.000151462               0.999999999               0.000009165               0.000164090               0.999999999               0.000015227               0.000178425               0.999999999               0.000021944               0.000194271               0.999999999               0.000029182               0.000211458               0.999999999               0.000036621               0.000229766               0.999999999               0.000044053               0.000248898               0.999999999               0.000051519               0.000269016               0.999999999               0.000059142               0.000290234               0.999999999               0.000067202               0.000312775               0.999999999               0.000075766               0.000336479               0.999999999               0.000084764               0.000361193               0.999999999              -0.000003619               0.000149105               0.999999999              -0.000009968               0.000140139               0.999999999              -0.000009955               0.000139091               0.999999999              -0.000007368               0.000142919               0.999999999              -0.000003514               0.000149988               0.999999999               0.000000918               0.000159343               0.999999999               0.000005652               0.000170624               0.999999999               0.000010794               0.000183534               0.999999999               0.000016441               0.000197860               0.999999999               0.000022627               0.000213534               0.999999999               0.000028964               0.000230352               0.999999999               0.000035328               0.000248158               0.999999999               0.000041515               0.000266914               0.999999999               0.000047774               0.000286656               0.999999999               0.000054304               0.000307542               0.999999999               0.000061313               0.000329650               0.999999999               0.000068768               0.000352975               0.999999999              -0.000002781               0.000158493               0.999999999              -0.000009376               0.000151305               0.999999999              -0.000010031               0.000150226               0.999999999              -0.000008131               0.000153334               0.999999999              -0.000004947               0.000159382               0.999999999              -0.000001271               0.000167647               0.999999999               0.000002694               0.000177713               0.999999999               0.000006905               0.000189399               0.999999999               0.000011511               0.000202456               0.999999999               0.000016493               0.000216741               0.999999999               0.000021745               0.000232161               0.999999999               0.000027020               0.000248628               0.999999999               0.000032222               0.000266052               0.999999999               0.000037360               0.000284509               0.999999999               0.000042591               0.000304001               0.999999999               0.000048077               0.000324583               0.999999999               0.000053712               0.000346347               0.999999999              -0.000002043               0.000166370               0.999999999              -0.000008262               0.000161220               0.999999999              -0.000009343               0.000160458               0.999999999              -0.000008092               0.000163176               0.999999999              -0.000005658               0.000168544               0.999999999              -0.000002714               0.000175946               0.999999999               0.000000407               0.000185100               0.999999999               0.000003744               0.000195740               0.999999999               0.000007332               0.000207765               0.999999999               0.000011159               0.000220892               0.999999999               0.000015252               0.000235049               0.999999999               0.000019563               0.000250234               0.999999999               0.000023746               0.000266454               0.999999999               0.000027846               0.000283790               0.999999999               0.000031987               0.000302228               0.999999999               0.000035999               0.000321794               0.999999999               0.000039750               0.000342420               0.999999999              -0.000001410               0.000172588               0.999999999              -0.000006658               0.000169444               0.999999999              -0.000007880               0.000169254               0.999999999              -0.000007166               0.000171866               0.999999999              -0.000005450               0.000176820               0.999999999              -0.000003260               0.000183657               0.999999999              -0.000000962               0.000192127               0.999999999               0.000001494               0.000202003               0.999999999               0.000004112               0.000213126               0.999999999               0.000006995               0.000225321               0.999999999               0.000010005               0.000238539               0.999999999               0.000013104               0.000252775               0.999999999               0.000016285               0.000268123               0.999999999               0.000019378               0.000284604               0.999999999               0.000022364               0.000302264               0.999999999               0.000025084               0.000321081               0.999999999               0.000027260               0.000340920               0.999999999              -0.000000874               0.000177087               0.999999999              -0.000004672               0.000175632               0.999999999              -0.000005706               0.000176062               0.999999999              -0.000005379               0.000178731               0.999999999              -0.000004283               0.000183486               0.999999999              -0.000002895               0.000189996               0.999999999              -0.000001343               0.000198033               0.999999999               0.000000242               0.000207394               0.999999999               0.000002029               0.000217854               0.999999999               0.000003908               0.000229393               0.999999999               0.000005847               0.000242032               0.999999999               0.000007753               0.000255741               0.999999999               0.000009903               0.000270579               0.999999999               0.000012077               0.000286557               0.999999999               0.000013977               0.000303725               0.999999999               0.000015483               0.000322052               0.999999999               0.000016471               0.000341374               0.999999999              -0.000000424               0.000179855               0.999999999              -0.000002417               0.000179483               0.999999999              -0.000002978               0.000180370               0.999999999              -0.000002894               0.000183148               0.999999999              -0.000002365               0.000187831               0.999999999              -0.000001682               0.000194182               0.999999999              -0.000000920               0.000201997               0.999999999              -0.000000115               0.000211057               0.999999999               0.000000777               0.000221174               0.999999999               0.000001712               0.000232389               0.999999999               0.000002561               0.000244701               0.999999999               0.000003578               0.000258121               0.999999999               0.000004617               0.000272740               0.999999999               0.000005729               0.000288604               0.999999999               0.000006746               0.000305578               0.999999999               0.000007291               0.000323563               0.999999999               0.000007415               0.000342555               0.999999999               0.000000000               0.000180788               0.999999999              -0.000000000               0.000180755               0.999999999              -0.000000000               0.000181822               0.999999999              -0.000000000               0.000184703               0.999999999              -0.000000000               0.000189336               0.999999999              -0.000000000               0.000195650               0.999999999               0.000000000               0.000203408               0.999999999               0.000000000               0.000212346               0.999999999               0.000000000               0.000222397               0.999999999               0.000000000               0.000233484               0.999999999               0.000000000               0.000245615               0.999999999               0.000000000               0.000259045               0.999999999               0.000000000               0.000273683               0.999999999              -0.000000000               0.000289485               0.999999999              -0.000000000               0.000306416               0.999999999              -0.000000000               0.000324268               0.999999999               0.000000000               0.000343090               0.999999999 </DataArray>
<DataArray type="Float64"                                    Name="stress"                                                      NumberOfComponents="10" format="ascii">
              0.000296119               0.003310428               0.000000000              -0.000302758               0.001204384               0.000901626               0.000000000               0.000000000               0.000000000               0.000000000               0.000345600               0.002763028              -0.000000000              -0.000215778               0.000992926               0.000777148               0.000000000               0.000000000               0.000000000               0.000000000               0.000500874               0.002317761               0.000000000              -0.000101892               0.000806543               0.000704651               0.000000000               0.000000000               0.000000000               0.000000000               0.000543826               0.002068379               0.000000000              -0.000054613               0.000707657               0.000653044               0.000000000               0.000000000               0.000000000               0.000000000               0.000537140               0.001923724              -0.000000000              -0.000039038               0.000654248               0.000615210               0.000000000               0.000000000               0.000000000               0.000000000               0.000507976               0.001839707               0.000000000              -0.000039472               0.000626387               0.000586915               0.000000000               0.000000000               0.000000000               0.000000000               0.000465581               0.001793192               0.000000000              -0.000049556               0.000614243               0.000564687               0.000000000               0.000000000               0.000000000               0.000000000               0.000415604               0.001769722              -0.000000000              -0.000065363               0.000611689               0.000546326               0.000000000               0.000000000               0.000000000               0.000000000               0.000366291               0.001764237              -0.000000000              -0.000083170               0.000615796               0.000532626               0.000000000               0.000000000               0.000000000               0.000000000               0.000316983               0.001770452               0.000000000              -0.000102438               0.000624291               0.000521853               0.000000000               0.000000000               0.000000000               0.000000000               0.000265534               0.001788433               0.000000000              -0.000123979               0.000637465               0.000513486               0.000000000               0.000000000               0.000000000               0.000000000               0.000215764               0.001816043               0.000000000              -0.000146093               0.000654039               0.000507946               0.000000000               0.000000000               0.000000000               0.000000000               0.000165872               0.001846212              -0.000000000              -0.000168574               0.000671589               0.000503015               0.000000000               0.000000000               0.000000000               0.000000000               0.000116488               0.001875506              -0.000000000              -0.000190755               0.000688747               0.000497993               0.000000000               0.000000000               0.000000000               0.000000000               0.000074670               0.001905166              -0.000000000              -0.000210144               0.000705097               0.000494953               0.000000000               0.000000000               0.000000000               0.000000000               0.000037881               0.001940919              -0.000000000              -0.000228409               0.000723103               0.000494694               0.000000000               0.000000000               0.000000000               0.000000000               0.000023143               0.001970742               0.000000000              -0.000237664               0.000736129               0.000498465               0.000000000               0.000000000               0.000000000               0.000000000               0.000315450               0.003259739              -0.000260633              -0.000289173               0.001182960               0.000893787               0.000000000               0.000000000               0.000000000               0.000000000               0.000353040               0.002726861              -0.000176925              -0.000208467               0.000978434               0.000769966               0.000000000               0.000000000               0.000000000               0.000000000               0.000495154               0.002297476              -0.000089721              -0.000101501               0.000799652               0.000698150               0.000000000               0.000000000               0.000000000               0.000000000               0.000532042               0.002058954              -0.000047874              -0.000057853               0.000705596               0.000647742               0.000000000               0.000000000               0.000000000               0.000000000               0.000521907               0.001920201              -0.000027170              -0.000044310               0.000654830               0.000610520               0.000000000               0.000000000               0.000000000               0.000000000               0.000492173               0.001840477              -0.000017096              -0.000045495               0.000628651               0.000583156               0.000000000               0.000000000               0.000000000               0.000000000               0.000450388               0.001795255              -0.000012491              -0.000055511               0.000616916               0.000561405               0.000000000               0.000000000               0.000000000               0.000000000               0.000403612               0.001773407              -0.000010545              -0.000070321               0.000614570               0.000544249               0.000000000               0.000000000               0.000000000               0.000000000               0.000355982               0.001766587              -0.000009206              -0.000087330               0.000617966               0.000530636               0.000000000               0.000000000               0.000000000               0.000000000               0.000306980               0.001773522              -0.000007357              -0.000106573               0.000626692               0.000520120               0.000000000               0.000000000               0.000000000               0.000000000               0.000256575               0.001790284              -0.000004435              -0.000127569               0.000639278               0.000511709               0.000000000               0.000000000               0.000000000               0.000000000               0.000206505               0.001815832              -0.000003959              -0.000149539               0.000655118               0.000505578               0.000000000               0.000000000               0.000000000               0.000000000               0.000157967               0.001843817              -0.000006629              -0.000171239               0.000671679               0.000500440               0.000000000               0.000000000               0.000000000               0.000000000               0.000114328               0.001871106              -0.000010460              -0.000191015               0.000687367               0.000496353               0.000000000               0.000000000               0.000000000               0.000000000               0.000075275               0.001898052              -0.000009676              -0.000209028               0.000702353               0.000493326               0.000000000               0.000000000               0.000000000               0.000000000               0.000037390               0.001929756              -0.000003591              -0.000227198               0.000718978               0.000491780               0.000000000               0.000000000               0.000000000               0.000000000               0.000021945               0.001956955              -0.000001069              -0.000236389               0.000731108               0.000494719               0.000000000               0.000000000               0.000000000               0.000000000               0.000371927               0.003114397              -0.000495229              -0.000249827               0.001121397               0.000871571               0.000000000               0.000000000               0.000000000               0.000000000               0.000374752               0.002623191              -0.000336130              -0.000187366               0.000936844               0.000749477               0.000000000               0.000000000               0.000000000               0.000000000               0.000477524               0.002242204              -0.000171755              -0.000101204               0.000781128               0.000679925               0.000000000               0.000000000               0.000000000               0.000000000               0.000496045               0.002032735              -0.000095223              -0.000068075               0.000700263               0.000632188               0.000000000               0.000000000               0.000000000               0.000000000               0.000479594               0.001911032              -0.000057823              -0.000059031               0.000656681               0.000597650               0.000000000               0.000000000               0.000000000               0.000000000               0.000449238               0.001840263              -0.000039603              -0.000061569               0.000633938               0.000572369               0.000000000               0.000000000               0.000000000               0.000000000               0.000410496               0.001799947              -0.000030612              -0.000071057               0.000623662               0.000552605               0.000000000               0.000000000               0.000000000               0.000000000               0.000367884               0.001778440              -0.000026464              -0.000084348               0.000620924               0.000536575               0.000000000               0.000000000               0.000000000               0.000000000               0.000325619               0.001773432              -0.000022879              -0.000099572               0.000624329               0.000524757               0.000000000               0.000000000               0.000000000               0.000000000               0.000279910               0.001779950              -0.000018023              -0.000117527               0.000632487               0.000514959               0.000000000               0.000000000               0.000000000               0.000000000               0.000232269               0.001796036              -0.000012599              -0.000137403               0.000644474               0.000507070               0.000000000               0.000000000               0.000000000               0.000000000               0.000187594               0.001817711              -0.000010409              -0.000156866               0.000658186               0.000501320               0.000000000               0.000000000               0.000000000               0.000000000               0.000145718               0.001839789              -0.000014624              -0.000175329               0.000671700               0.000496371               0.000000000               0.000000000               0.000000000               0.000000000               0.000106623               0.001859647              -0.000020809              -0.000192472               0.000684033               0.000491562               0.000000000               0.000000000               0.000000000               0.000000000               0.000069446               0.001880049              -0.000018442              -0.000208963               0.000696331               0.000487368               0.000000000               0.000000000               0.000000000               0.000000000               0.000032855               0.001903399              -0.000006757              -0.000225604               0.000709661               0.000484058               0.000000000               0.000000000               0.000000000               0.000000000               0.000017552               0.001922074              -0.000001287              -0.000233677               0.000718577               0.000484900               0.000000000               0.000000000               0.000000000               0.000000000               0.000449329               0.002888421              -0.000683211              -0.000192554               0.001026982               0.000834428               0.000000000               0.000000000               0.000000000               0.000000000               0.000401444               0.002464224              -0.000465193              -0.000157486               0.000873895               0.000716409               0.000000000               0.000000000               0.000000000               0.000000000               0.000448473               0.002161385              -0.000242809              -0.000101996               0.000754453               0.000652457               0.000000000               0.000000000               0.000000000               0.000000000               0.000442805               0.001993881              -0.000142294              -0.000083183               0.000692348               0.000609165               0.000000000               0.000000000               0.000000000               0.000000000               0.000418342               0.001896409              -0.000094113              -0.000080173               0.000658854               0.000578682               0.000000000               0.000000000               0.000000000               0.000000000               0.000388179               0.001837952              -0.000069173              -0.000084177               0.000640703               0.000556527               0.000000000               0.000000000               0.000000000               0.000000000               0.000354894               0.001804232              -0.000056733              -0.000092444               0.000632219               0.000539776               0.000000000               0.000000000               0.000000000               0.000000000               0.000319128               0.001786807              -0.000048818              -0.000103678               0.000630155               0.000526478               0.000000000               0.000000000               0.000000000               0.000000000               0.000283195               0.001784536              -0.000041373              -0.000116869               0.000633796               0.000516927               0.000000000               0.000000000               0.000000000               0.000000000               0.000243124               0.001791385              -0.000032194              -0.000132751               0.000641373               0.000508621               0.000000000               0.000000000               0.000000000               0.000000000               0.000202788               0.001806538              -0.000022873              -0.000149771               0.000652097               0.000502326               0.000000000               0.000000000               0.000000000               0.000000000               0.000164907               0.001821380              -0.000019701              -0.000165832               0.000662398               0.000496566               0.000000000               0.000000000               0.000000000               0.000000000               0.000129353               0.001833617              -0.000023580              -0.000180694               0.000671431               0.000490737               0.000000000               0.000000000               0.000000000               0.000000000               0.000095966               0.001844994              -0.000027935              -0.000194637               0.000679871               0.000485234               0.000000000               0.000000000               0.000000000               0.000000000               0.000063238               0.001858512              -0.000021259              -0.000208599               0.000689031               0.000480432               0.000000000               0.000000000               0.000000000               0.000000000               0.000030243               0.001870256              -0.000007480              -0.000222440               0.000697559               0.000475119               0.000000000               0.000000000               0.000000000               0.000000000               0.000015509               0.001877564              -0.000002073              -0.000228879               0.000702141               0.000473263               0.000000000               0.000000000               0.000000000               0.000000000               0.000529501               0.002601007              -0.000814173              -0.000126563               0.000909181               0.000782618               0.000000000               0.000000000               0.000000000               0.000000000               0.000425132               0.002267763              -0.000558460              -0.000124046               0.000797262               0.000673216               0.000000000               0.000000000               0.000000000               0.000000000               0.000409969               0.002061727              -0.000301485              -0.000103977               0.000721894               0.000617917               0.000000000               0.000000000               0.000000000               0.000000000               0.000380776               0.001944853              -0.000188906              -0.000100315               0.000681716               0.000581401               0.000000000               0.000000000               0.000000000               0.000000000               0.000351723               0.001876313              -0.000134381              -0.000102643               0.000659646               0.000557003               0.000000000               0.000000000               0.000000000               0.000000000               0.000323804               0.001834289              -0.000105435              -0.000107859               0.000647377               0.000539517               0.000000000               0.000000000               0.000000000               0.000000000               0.000295290               0.001809066              -0.000088038              -0.000115399               0.000641482               0.000526083               0.000000000               0.000000000               0.000000000               0.000000000               0.000265647               0.001797510              -0.000074610              -0.000125071               0.000640854               0.000515783               0.000000000               0.000000000               0.000000000               0.000000000               0.000235206               0.001797771              -0.000061074              -0.000136519               0.000644757               0.000508238               0.000000000               0.000000000               0.000000000               0.000000000               0.000203266               0.001808089              -0.000045802              -0.000149786               0.000652619               0.000502833               0.000000000               0.000000000               0.000000000               0.000000000               0.000171654               0.001820635              -0.000033186              -0.000163209               0.000661275               0.000498067               0.000000000               0.000000000               0.000000000               0.000000000               0.000143527               0.001828742              -0.000028679              -0.000174770               0.000667831               0.000493061               0.000000000               0.000000000               0.000000000               0.000000000               0.000115576               0.001832738              -0.000029789              -0.000185751               0.000672823               0.000487073               0.000000000               0.000000000               0.000000000               0.000000000               0.000085978               0.001836810              -0.000027982              -0.000197359               0.000678050               0.000480691               0.000000000               0.000000000               0.000000000               0.000000000               0.000055993               0.001846420              -0.000018047              -0.000209804               0.000685402               0.000475597               0.000000000               0.000000000               0.000000000               0.000000000               0.000025120               0.001854041              -0.000007251              -0.000222335               0.000692119               0.000469785               0.000000000               0.000000000               0.000000000               0.000000000               0.000011976               0.001859454              -0.000004488              -0.000227940               0.000695792               0.000467852               0.000000000               0.000000000               0.000000000               0.000000000               0.000601456               0.002278704              -0.000884018              -0.000059293               0.000779324               0.000720032               0.000000000               0.000000000               0.000000000               0.000000000               0.000442276               0.002052849              -0.000616776              -0.000090753               0.000714527               0.000623774               0.000000000               0.000000000               0.000000000               0.000000000               0.000368693               0.001953839              -0.000349540              -0.000105970               0.000686597               0.000580627               0.000000000               0.000000000               0.000000000               0.000000000               0.000323634               0.001890112              -0.000234198              -0.000114901               0.000668331               0.000553430               0.000000000               0.000000000               0.000000000               0.000000000               0.000291107               0.001848624              -0.000176341              -0.000121913               0.000656840               0.000534927               0.000000000               0.000000000               0.000000000               0.000000000               0.000266054               0.001823875              -0.000142924              -0.000128214               0.000650690               0.000522476               0.000000000               0.000000000               0.000000000               0.000000000               0.000242872               0.001810579              -0.000119410              -0.000135245               0.000648602               0.000513357               0.000000000               0.000000000               0.000000000               0.000000000               0.000217612               0.001808590              -0.000099056              -0.000144469               0.000651014               0.000506545               0.000000000               0.000000000               0.000000000               0.000000000               0.000191920               0.001817857              -0.000078428              -0.000155262               0.000657700               0.000502439               0.000000000               0.000000000               0.000000000               0.000000000               0.000167566               0.001832071              -0.000057487              -0.000166171               0.000666075               0.000499903               0.000000000               0.000000000               0.000000000               0.000000000               0.000144378               0.001841093              -0.000042742              -0.000175994               0.000672356               0.000496362               0.000000000               0.000000000               0.000000000               0.000000000               0.000125587               0.001843050              -0.000036728              -0.000183286               0.000675439               0.000492154               0.000000000               0.000000000               0.000000000               0.000000000               0.000106483               0.001843221              -0.000034243              -0.000190471               0.000677891               0.000487420               0.000000000               0.000000000               0.000000000               0.000000000               0.000081073               0.001849315              -0.000025953              -0.000200761               0.000683353               0.000482591               0.000000000               0.000000000               0.000000000               0.000000000               0.000053103               0.001863635              -0.000012734              -0.000213040               0.000692219               0.000479179               0.000000000               0.000000000               0.000000000               0.000000000               0.000024427               0.001879393              -0.000005164              -0.000225764               0.000701713               0.000475949               0.000000000               0.000000000               0.000000000               0.000000000               0.000014010               0.001892856              -0.000005559              -0.000231352               0.000708063               0.000476711               0.000000000               0.000000000               0.000000000               0.000000000               0.000652683               0.001949674              -0.000897007               0.000001046               0.000649536               0.000650582               0.000000000               0.000000000               0.000000000               0.000000000               0.000453083               0.001837488              -0.000644412              -0.000059781               0.000632416               0.000572636               0.000000000               0.000000000               0.000000000               0.000000000               0.000331590               0.001844740              -0.000388613              -0.000106246               0.000650323               0.000544076               0.000000000               0.000000000               0.000000000               0.000000000               0.000277734               0.001827761              -0.000276407              -0.000124320               0.000650688               0.000526368               0.000000000               0.000000000               0.000000000               0.000000000               0.000245895               0.001812168              -0.000214981              -0.000134310               0.000648820               0.000514510               0.000000000               0.000000000               0.000000000               0.000000000               0.000225263               0.001807100              -0.000175451              -0.000141414               0.000649499               0.000508085               0.000000000               0.000000000               0.000000000               0.000000000               0.000205753               0.001810497              -0.000145282              -0.000149154               0.000653211               0.000504057               0.000000000               0.000000000               0.000000000               0.000000000               0.000182108               0.001823159              -0.000117933              -0.000159604               0.000660915               0.000501311               0.000000000               0.000000000               0.000000000               0.000000000               0.000157737               0.001840707              -0.000090527              -0.000170937               0.000670542               0.000499605               0.000000000               0.000000000               0.000000000               0.000000000               0.000138081               0.001858213              -0.000067216              -0.000180496               0.000679563               0.000499068               0.000000000               0.000000000               0.000000000               0.000000000               0.000122049               0.001865509              -0.000052706              -0.000187420               0.000684303               0.000496883               0.000000000               0.000000000               0.000000000               0.000000000               0.000110011               0.001868820              -0.000045335              -0.000192348               0.000687050               0.000494702               0.000000000               0.000000000               0.000000000               0.000000000               0.000096192               0.001878822              -0.000037577              -0.000198780               0.000692528               0.000493747               0.000000000               0.000000000               0.000000000               0.000000000               0.000075617               0.001901299              -0.000023834              -0.000209305               0.000703528               0.000494223               0.000000000               0.000000000               0.000000000               0.000000000               0.000051808               0.001929383              -0.000010013              -0.000221744               0.000717036               0.000495292               0.000000000               0.000000000               0.000000000               0.000000000               0.000025851               0.001957468              -0.000004013              -0.000234989               0.000730812               0.000495823               0.000000000               0.000000000               0.000000000               0.000000000               0.000016431               0.001978519              -0.000005572              -0.000241153               0.000739884               0.000498731               0.000000000               0.000000000               0.000000000               0.000000000               0.000680041               0.001631852              -0.000862841               0.000051032               0.000526934               0.000577966               0.000000000               0.000000000               0.000000000               0.000000000               0.000456613               0.001632975              -0.000646632              -0.000032893               0.000555283               0.000522391               0.000000000               0.000000000               0.000000000               0.000000000               0.000302818               0.001734578              -0.000419813              -0.000103266               0.000612609               0.000509343               0.000000000               0.000000000               0.000000000               0.000000000               0.000248464               0.001758799              -0.000311685              -0.000126676               0.000628486               0.000501810               0.000000000               0.000000000               0.000000000               0.000000000               0.000221872               0.001772261              -0.000245700              -0.000138331               0.000636858               0.000498527               0.000000000               0.000000000               0.000000000               0.000000000               0.000203539               0.001788350              -0.000199064              -0.000147216               0.000645183               0.000497966               0.000000000               0.000000000               0.000000000               0.000000000               0.000184588               0.001809673              -0.000161983              -0.000156988               0.000655548               0.000498559               0.000000000               0.000000000               0.000000000               0.000000000               0.000161430               0.001836181              -0.000128972              -0.000168986               0.000668383               0.000499397               0.000000000               0.000000000               0.000000000               0.000000000               0.000136452               0.001861958              -0.000097930              -0.000181575               0.000681171               0.000499597               0.000000000               0.000000000               0.000000000               0.000000000               0.000118642               0.001882454              -0.000073711              -0.000190815               0.000691084               0.000500268               0.000000000               0.000000000               0.000000000               0.000000000               0.000109706               0.001898596              -0.000058672              -0.000196184               0.000698254               0.000502070               0.000000000               0.000000000               0.000000000               0.000000000               0.000101355               0.001921629              -0.000047540              -0.000202195               0.000707935               0.000505740               0.000000000               0.000000000               0.000000000               0.000000000               0.000087248               0.001957908              -0.000034367              -0.000212020               0.000723303               0.000511283               0.000000000               0.000000000               0.000000000               0.000000000               0.000068185               0.002004312              -0.000017717              -0.000224969               0.000743087               0.000518118               0.000000000               0.000000000               0.000000000               0.000000000               0.000047837               0.002053493              -0.000005028              -0.000238747               0.000764073               0.000525326               0.000000000               0.000000000               0.000000000               0.000000000               0.000024458               0.002100544              -0.000001021              -0.000253396               0.000784640               0.000531244               0.000000000               0.000000000               0.000000000               0.000000000               0.000014640               0.002132367              -0.000003815              -0.000261055               0.000797800               0.000536745               0.000000000               0.000000000               0.000000000               0.000000000               0.000695327               0.001350241              -0.000795612               0.000091966               0.000419420               0.000511386               0.000000000               0.000000000               0.000000000               0.000000000               0.000464115               0.001446792              -0.000634528              -0.000006807               0.000484528               0.000477721               0.000000000               0.000000000               0.000000000               0.000000000               0.000292768               0.001629765              -0.000452027              -0.000093933               0.000574560               0.000480628               0.000000000               0.000000000               0.000000000               0.000000000               0.000241210               0.001696411              -0.000347143              -0.000121598               0.000605997               0.000484400               0.000000000               0.000000000               0.000000000               0.000000000               0.000221923               0.001738136              -0.000275974              -0.000134046               0.000624055               0.000490009               0.000000000               0.000000000               0.000000000               0.000000000               0.000204474               0.001770462              -0.000220994              -0.000144630               0.000638358               0.000493728               0.000000000               0.000000000               0.000000000               0.000000000               0.000183714               0.001805485              -0.000176676              -0.000156793               0.000654087               0.000497294               0.000000000               0.000000000               0.000000000               0.000000000               0.000159448               0.001844714              -0.000140010              -0.000170796               0.000671830               0.000501035               0.000000000               0.000000000               0.000000000               0.000000000               0.000136931               0.001881108              -0.000110304              -0.000183789               0.000688293               0.000504504               0.000000000               0.000000000               0.000000000               0.000000000               0.000122804               0.001909724              -0.000084438              -0.000192664               0.000700789               0.000508126               0.000000000               0.000000000               0.000000000               0.000000000               0.000118319               0.001940360              -0.000062327              -0.000198175               0.000712839               0.000514664               0.000000000               0.000000000               0.000000000               0.000000000               0.000110642               0.001983876              -0.000044045              -0.000206493               0.000730116               0.000523623               0.000000000               0.000000000               0.000000000               0.000000000               0.000094366               0.002043685              -0.000027131              -0.000220073               0.000754579               0.000534506               0.000000000               0.000000000               0.000000000               0.000000000               0.000075333               0.002114812              -0.000009431              -0.000236101               0.000783630               0.000547530               0.000000000               0.000000000               0.000000000               0.000000000               0.000059394               0.002186929               0.000002840              -0.000251093               0.000812666               0.000561574               0.000000000               0.000000000               0.000000000               0.000000000               0.000046331               0.002253453               0.000006546              -0.000264307               0.000839246               0.000574939               0.000000000               0.000000000               0.000000000               0.000000000               0.000039928               0.002291542               0.000005093              -0.000271469               0.000854329               0.000582860               0.000000000               0.000000000               0.000000000               0.000000000               0.000689036               0.001074789              -0.000711532               0.000124038               0.000316913               0.000440951               0.000000000               0.000000000               0.000000000               0.000000000               0.000479508               0.001227740              -0.000616331               0.000026347               0.000400460               0.000426807               0.000000000               0.000000000               0.000000000               0.000000000               0.000308322               0.001472446              -0.000491084              -0.000068435               0.000513622               0.000445187               0.000000000               0.000000000               0.000000000               0.000000000               0.000254996               0.001585689              -0.000393722              -0.000102588               0.000562753               0.000460166               0.000000000               0.000000000               0.000000000               0.000000000               0.000235029               0.001653156              -0.000318260              -0.000118509               0.000590549               0.000472041               0.000000000               0.000000000               0.000000000               0.000000000               0.000219703               0.001702409              -0.000255620              -0.000130412               0.000610935               0.000480522               0.000000000               0.000000000               0.000000000               0.000000000               0.000200763               0.001751910              -0.000205481              -0.000143702               0.000631865               0.000488163               0.000000000               0.000000000               0.000000000               0.000000000               0.000178853               0.001802031              -0.000166988              -0.000158184               0.000653399               0.000495215               0.000000000               0.000000000               0.000000000               0.000000000               0.000157719               0.001850185              -0.000137037              -0.000172128               0.000674098               0.000501970               0.000000000               0.000000000               0.000000000               0.000000000               0.000143297               0.001896907              -0.000108401              -0.000183376               0.000693421               0.000510045               0.000000000               0.000000000               0.000000000               0.000000000               0.000134064               0.001939426              -0.000079823              -0.000192154               0.000710520               0.000518366               0.000000000               0.000000000               0.000000000               0.000000000               0.000127760               0.001990228              -0.000054029              -0.000200868               0.000730359               0.000529490               0.000000000               0.000000000               0.000000000               0.000000000               0.000117182               0.002057611              -0.000030757              -0.000213258               0.000756949               0.000543692               0.000000000               0.000000000               0.000000000               0.000000000               0.000105260               0.002141913              -0.000012730              -0.000228266               0.000790053               0.000561786               0.000000000               0.000000000               0.000000000               0.000000000               0.000095875               0.002232691              -0.000002243              -0.000243133               0.000825267               0.000582135               0.000000000               0.000000000               0.000000000               0.000000000               0.000091843               0.002320549               0.000001260              -0.000255627               0.000858717               0.000603091               0.000000000               0.000000000               0.000000000               0.000000000               0.000087089               0.002362128               0.000003041              -0.000262607               0.000874904               0.000612297               0.000000000               0.000000000               0.000000000               0.000000000               0.000651765               0.000810400              -0.000611901               0.000143110               0.000222427               0.000365537               0.000000000               0.000000000               0.000000000               0.000000000               0.000495443               0.001006864              -0.000582836               0.000059932               0.000315640               0.000375572               0.000000000               0.000000000               0.000000000               0.000000000               0.000342916               0.001296006              -0.000518876              -0.000033408               0.000443133               0.000409726               0.000000000               0.000000000               0.000000000               0.000000000               0.000286460               0.001450283              -0.000437273              -0.000073863               0.000508044               0.000434181               0.000000000               0.000000000               0.000000000               0.000000000               0.000261070               0.001544338              -0.000362727              -0.000095141               0.000546488               0.000451347               0.000000000               0.000000000               0.000000000               0.000000000               0.000246059               0.001616471              -0.000296381              -0.000109787               0.000575414               0.000465627               0.000000000               0.000000000               0.000000000               0.000000000               0.000230890               0.001683893              -0.000241932              -0.000123903               0.000602593               0.000478690               0.000000000               0.000000000               0.000000000               0.000000000               0.000211168               0.001745944              -0.000201089              -0.000139055               0.000628327               0.000489272               0.000000000               0.000000000               0.000000000               0.000000000               0.000189092               0.001805567              -0.000169504              -0.000154786               0.000653445               0.000498659               0.000000000               0.000000000               0.000000000               0.000000000               0.000170472               0.001863087              -0.000138203              -0.000168958               0.000677342               0.000508384               0.000000000               0.000000000               0.000000000               0.000000000               0.000158357               0.001916081              -0.000105396              -0.000180126               0.000698729               0.000518603               0.000000000               0.000000000               0.000000000               0.000000000               0.000152697               0.001973723              -0.000073648              -0.000189454               0.000721052               0.000531599               0.000000000               0.000000000               0.000000000               0.000000000               0.000150356               0.002041538              -0.000046083              -0.000198808               0.000746775               0.000547967               0.000000000               0.000000000               0.000000000               0.000000000               0.000149542               0.002124225              -0.000027316              -0.000209449               0.000777884               0.000568435               0.000000000               0.000000000               0.000000000               0.000000000               0.000147771               0.002217187              -0.000015631              -0.000221734               0.000812966               0.000591233               0.000000000               0.000000000               0.000000000               0.000000000               0.000145225               0.002314902              -0.000007633              -0.000234903               0.000849927               0.000615024               0.000000000               0.000000000               0.000000000               0.000000000               0.000135313               0.002357800              -0.000000239              -0.000243982               0.000867253               0.000623271               0.000000000               0.000000000               0.000000000               0.000000000               0.000585487               0.000573007              -0.000496855               0.000147930               0.000141690               0.000289620               0.000000000               0.000000000               0.000000000               0.000000000               0.000498603               0.000794324              -0.000524513               0.000087684               0.000235544               0.000323228               0.000000000               0.000000000               0.000000000               0.000000000               0.000384704               0.001101216              -0.000516083               0.000006611               0.000364865               0.000371476               0.000000000               0.000000000               0.000000000               0.000000000               0.000329825               0.001285846              -0.000456867              -0.000037047               0.000440960               0.000403913               0.000000000               0.000000000               0.000000000               0.000000000               0.000299411               0.001409310              -0.000389786              -0.000063885               0.000491060               0.000427175               0.000000000               0.000000000               0.000000000               0.000000000               0.000280976               0.001506446              -0.000325434              -0.000082940               0.000529790               0.000446851               0.000000000               0.000000000               0.000000000               0.000000000               0.000265898               0.001594098              -0.000270574              -0.000099550               0.000564544               0.000464994               0.000000000               0.000000000               0.000000000               0.000000000               0.000248326               0.001673848              -0.000227827              -0.000116109               0.000596647               0.000480538               0.000000000               0.000000000               0.000000000               0.000000000               0.000226094               0.001744764              -0.000194535              -0.000133310               0.000626019               0.000492709               0.000000000               0.000000000               0.000000000               0.000000000               0.000202059               0.001808400              -0.000162875              -0.000150278               0.000652887               0.000502609               0.000000000               0.000000000               0.000000000               0.000000000               0.000187164               0.001871895              -0.000130936              -0.000163800               0.000678559               0.000514759               0.000000000               0.000000000               0.000000000               0.000000000               0.000183255               0.001938983              -0.000098766              -0.000173652               0.000704205               0.000530553               0.000000000               0.000000000               0.000000000               0.000000000               0.000187054               0.002016580              -0.000069987              -0.000181927               0.000732829               0.000550902               0.000000000               0.000000000               0.000000000               0.000000000               0.000193773               0.002106736              -0.000049031              -0.000190676               0.000765797               0.000575121               0.000000000               0.000000000               0.000000000               0.000000000               0.000198604               0.002204269              -0.000034757              -0.000201056               0.000801768               0.000600711               0.000000000               0.000000000               0.000000000               0.000000000               0.000195563               0.002306963              -0.000019654              -0.000215034               0.000840658               0.000625624               0.000000000               0.000000000               0.000000000               0.000000000               0.000180013               0.002350769              -0.000006454              -0.000226341               0.000859029               0.000632688               0.000000000               0.000000000               0.000000000               0.000000000               0.000497294               0.000379350              -0.000375288               0.000139065               0.000080093               0.000219158               0.000000000               0.000000000               0.000000000               0.000000000               0.000489424               0.000599603              -0.000443447               0.000108582               0.000163672               0.000272254               0.000000000               0.000000000               0.000000000               0.000000000               0.000429190               0.000899749              -0.000478140               0.000048477               0.000283754               0.000332231               0.000000000               0.000000000               0.000000000               0.000000000               0.000383976               0.001105823              -0.000441892               0.000005763               0.000366683               0.000372446               0.000000000               0.000000000               0.000000000               0.000000000               0.000349728               0.001254900              -0.000388008              -0.000025715               0.000426867               0.000401152               0.000000000               0.000000000               0.000000000               0.000000000               0.000327691               0.001376253              -0.000330879              -0.000049148               0.000475129               0.000425981               0.000000000               0.000000000               0.000000000               0.000000000               0.000308968               0.001483097              -0.000279824              -0.000069524               0.000517536               0.000448011               0.000000000               0.000000000               0.000000000               0.000000000               0.000291131               0.001579410              -0.000238588              -0.000088252               0.000555882               0.000467630               0.000000000               0.000000000               0.000000000               0.000000000               0.000270113               0.001661956              -0.000204783              -0.000106452               0.000589464               0.000483012               0.000000000               0.000000000               0.000000000               0.000000000               0.000248432               0.001733174              -0.000175670              -0.000123485               0.000618881               0.000495396               0.000000000               0.000000000               0.000000000               0.000000000               0.000230952               0.001806015              -0.000148833              -0.000139145               0.000648381               0.000509236               0.000000000               0.000000000               0.000000000               0.000000000               0.000223703               0.001887144              -0.000120410              -0.000152004               0.000679710               0.000527706               0.000000000               0.000000000               0.000000000               0.000000000               0.000228694               0.001982903              -0.000092720              -0.000162102               0.000714995               0.000552893               0.000000000               0.000000000               0.000000000               0.000000000               0.000239601               0.002089790              -0.000071512              -0.000171373               0.000753714               0.000582341               0.000000000               0.000000000               0.000000000               0.000000000               0.000249608               0.002202177              -0.000052746              -0.000181669               0.000794608               0.000612939               0.000000000               0.000000000               0.000000000               0.000000000               0.000250680               0.002312698              -0.000028676              -0.000195082               0.000835919               0.000640837               0.000000000               0.000000000               0.000000000               0.000000000               0.000236959               0.002358840              -0.000011546              -0.000205995               0.000854937               0.000648942               0.000000000               0.000000000               0.000000000               0.000000000               0.000401845               0.000236517              -0.000259655               0.000121126               0.000038463               0.000159589               0.000000000               0.000000000               0.000000000               0.000000000               0.000472383               0.000435755              -0.000344646               0.000122673               0.000104359               0.000227032               0.000000000               0.000000000               0.000000000               0.000000000               0.000472021               0.000711276              -0.000402660               0.000088097               0.000207724               0.000295821               0.000000000               0.000000000               0.000000000               0.000000000               0.000442468               0.000927400              -0.000386140               0.000050000               0.000292464               0.000342463               0.000000000               0.000000000               0.000000000               0.000000000               0.000408939               0.001096594              -0.000347474               0.000016277               0.000360102               0.000376379               0.000000000               0.000000000               0.000000000               0.000000000               0.000380518               0.001237143              -0.000301821              -0.000011949               0.000416360               0.000404411               0.000000000               0.000000000               0.000000000               0.000000000               0.000359255               0.001360587              -0.000259010              -0.000035353               0.000465309               0.000429956               0.000000000               0.000000000               0.000000000               0.000000000               0.000338441               0.001468077              -0.000223637              -0.000056594               0.000508219               0.000451625               0.000000000               0.000000000               0.000000000               0.000000000               0.000318719               0.001561124              -0.000194523              -0.000075621               0.000545576               0.000469955               0.000000000               0.000000000               0.000000000               0.000000000               0.000300132               0.001647791              -0.000169532              -0.000093424               0.000580400               0.000486975               0.000000000               0.000000000               0.000000000               0.000000000               0.000283325               0.001737212              -0.000146259              -0.000110904               0.000616033               0.000505129               0.000000000               0.000000000               0.000000000               0.000000000               0.000271979               0.001836166              -0.000125637              -0.000127528               0.000654559               0.000527030               0.000000000               0.000000000               0.000000000               0.000000000               0.000277145               0.001950040              -0.000106522              -0.000139825               0.000696615               0.000556790               0.000000000               0.000000000               0.000000000               0.000000000               0.000291345               0.002073430              -0.000086825              -0.000149924               0.000741111               0.000591187               0.000000000               0.000000000               0.000000000               0.000000000               0.000303862               0.002199897              -0.000064745              -0.000161039               0.000786971               0.000625933               0.000000000               0.000000000               0.000000000               0.000000000               0.000310343               0.002317787              -0.000035525              -0.000173344               0.000830369               0.000657025               0.000000000               0.000000000               0.000000000               0.000000000               0.000304074               0.002368023              -0.000016752              -0.000181975               0.000849991               0.000668017               0.000000000               0.000000000               0.000000000               0.000000000               0.000314829               0.000144013              -0.000159928               0.000100058               0.000014651               0.000114709               0.000000000               0.000000000               0.000000000               0.000000000               0.000452041               0.000312843              -0.000235186               0.000130409               0.000060810               0.000191219               0.000000000               0.000000000               0.000000000               0.000000000               0.000508017               0.000555613              -0.000291859               0.000121053               0.000144851               0.000265905               0.000000000               0.000000000               0.000000000               0.000000000               0.000495216               0.000772724              -0.000288034               0.000089114               0.000227867               0.000316982               0.000000000               0.000000000               0.000000000               0.000000000               0.000464383               0.000955845              -0.000263636               0.000054662               0.000300391               0.000355053               0.000000000               0.000000000               0.000000000               0.000000000               0.000432150               0.001110516              -0.000232553               0.000023241               0.000362421               0.000385663               0.000000000               0.000000000               0.000000000               0.000000000               0.000406728               0.001245850              -0.000202250              -0.000003209               0.000416349               0.000413140               0.000000000               0.000000000               0.000000000               0.000000000               0.000383205               0.001360415              -0.000177054              -0.000026350               0.000462250               0.000435900               0.000000000               0.000000000               0.000000000               0.000000000               0.000362238               0.001463945              -0.000156181              -0.000047154               0.000503695               0.000456541               0.000000000               0.000000000               0.000000000               0.000000000               0.000344141               0.001569435              -0.000136304              -0.000067126               0.000545515               0.000478389               0.000000000               0.000000000               0.000000000               0.000000000               0.000329703               0.001678147              -0.000118318              -0.000086130               0.000588087               0.000501957               0.000000000               0.000000000               0.000000000               0.000000000               0.000324774               0.001795327              -0.000106988              -0.000102625               0.000632645               0.000530019               0.000000000               0.000000000               0.000000000               0.000000000               0.000328574               0.001922348              -0.000098570              -0.000117078               0.000679802               0.000562724               0.000000000               0.000000000               0.000000000               0.000000000               0.000341785               0.002056069              -0.000084299              -0.000128839               0.000728296               0.000599457               0.000000000               0.000000000               0.000000000               0.000000000               0.000358578               0.002190134              -0.000062235              -0.000139300               0.000776470               0.000637171               0.000000000               0.000000000               0.000000000               0.000000000               0.000371808               0.002313075              -0.000033883              -0.000149706               0.000820919               0.000671213               0.000000000               0.000000000               0.000000000               0.000000000               0.000373446               0.002367596              -0.000017583              -0.000155907               0.000841160               0.000685253               0.000000000               0.000000000               0.000000000               0.000000000               0.000254064               0.000089608              -0.000075488               0.000084072               0.000001845               0.000085917               0.000000000               0.000000000               0.000000000               0.000000000               0.000436098               0.000234407              -0.000118744               0.000134235               0.000033390               0.000167625               0.000000000               0.000000000               0.000000000               0.000000000               0.000530147               0.000452103              -0.000152912               0.000142291               0.000103269               0.000245560               0.000000000               0.000000000               0.000000000               0.000000000               0.000532636               0.000667332              -0.000154265               0.000116321               0.000183668               0.000299989               0.000000000               0.000000000               0.000000000               0.000000000               0.000503949               0.000857134              -0.000142799               0.000081838               0.000258429               0.000340267               0.000000000               0.000000000               0.000000000               0.000000000               0.000471235               0.001021568              -0.000127071               0.000049017               0.000324180               0.000373197               0.000000000               0.000000000               0.000000000               0.000000000               0.000441151               0.001162624              -0.000111687               0.000020103               0.000380836               0.000400940               0.000000000               0.000000000               0.000000000               0.000000000               0.000414570               0.001282616              -0.000098561              -0.000004863               0.000429156               0.000424292               0.000000000               0.000000000               0.000000000               0.000000000               0.000390937               0.001395292              -0.000087874              -0.000027810               0.000474363               0.000446553               0.000000000               0.000000000               0.000000000               0.000000000               0.000374590               0.001511943              -0.000075740              -0.000048522               0.000520150               0.000471628               0.000000000               0.000000000               0.000000000               0.000000000               0.000366549               0.001634919              -0.000066757              -0.000066909               0.000567270               0.000500362               0.000000000               0.000000000               0.000000000               0.000000000               0.000367298               0.001767542              -0.000063100              -0.000083206               0.000616910               0.000533704               0.000000000               0.000000000               0.000000000               0.000000000               0.000371314               0.001906679              -0.000060035              -0.000099092               0.000668584               0.000569492               0.000000000               0.000000000               0.000000000               0.000000000               0.000379405               0.002043937              -0.000054305              -0.000113215               0.000719044               0.000605829               0.000000000               0.000000000               0.000000000               0.000000000               0.000394439               0.002172110              -0.000039366              -0.000123599               0.000765229               0.000641630               0.000000000               0.000000000               0.000000000               0.000000000               0.000419703               0.002295975              -0.000018340              -0.000129608               0.000808520               0.000678912               0.000000000               0.000000000               0.000000000               0.000000000               0.000435550               0.002357144              -0.000007540              -0.000131311               0.000829477               0.000698166               0.000000000               0.000000000               0.000000000               0.000000000               0.000232572               0.000069538              -0.000000000               0.000078522              -0.000002995               0.000075527               0.000000000               0.000000000               0.000000000               0.000000000               0.000430413               0.000206944              -0.000000000               0.000135535               0.000023802               0.000159337               0.000000000               0.000000000               0.000000000               0.000000000               0.000537101               0.000417279              -0.000000000               0.000149252               0.000089341               0.000238593               0.000000000               0.000000000               0.000000000               0.000000000               0.000546488               0.000630257              -0.000000000               0.000126149               0.000168034               0.000294183               0.000000000               0.000000000               0.000000000               0.000000000               0.000518584               0.000821020              -0.000000000               0.000091841               0.000243057               0.000334898               0.000000000               0.000000000               0.000000000               0.000000000               0.000485599               0.000989828               0.000000000               0.000058370               0.000310483               0.000368853               0.000000000               0.000000000               0.000000000               0.000000000               0.000453931               0.001131789               0.000000000               0.000028750               0.000367676               0.000396426               0.000000000               0.000000000               0.000000000               0.000000000               0.000425589               0.001254547               0.000000000               0.000002778               0.000417252               0.000420030               0.000000000               0.000000000               0.000000000               0.000000000               0.000401214               0.001370560              -0.000000000              -0.000020865               0.000463804               0.000442939               0.000000000               0.000000000               0.000000000               0.000000000               0.000384805               0.001487419              -0.000000000              -0.000041625               0.000509677               0.000468051               0.000000000               0.000000000               0.000000000               0.000000000               0.000382681               0.001619776               0.000000000              -0.000058967               0.000559575               0.000500609               0.000000000               0.000000000               0.000000000               0.000000000               0.000384047               0.001761647               0.000000000              -0.000076188               0.000612606               0.000536418               0.000000000               0.000000000               0.000000000               0.000000000               0.000387617               0.001901846              -0.000000000              -0.000092374               0.000664734               0.000572359               0.000000000               0.000000000               0.000000000               0.000000000               0.000392932               0.002037732              -0.000000000              -0.000107367               0.000715026               0.000607659               0.000000000               0.000000000               0.000000000               0.000000000               0.000404837               0.002161723               0.000000000              -0.000118401               0.000760034               0.000641633               0.000000000               0.000000000               0.000000000               0.000000000               0.000437415               0.002284602               0.000000000              -0.000121544               0.000802041               0.000680497               0.000000000               0.000000000               0.000000000               0.000000000               0.000463141               0.002349044               0.000000000              -0.000119952               0.000822991               0.000703039               0.000000000               0.000000000               0.000000000               0.000000000               0.000000000               0.000000000               0.000000000               0.000000000               0.000000000               0.000000000               0.000000000               0.000000000               0.000000000               0.000000000               0.000000000               0.000000000               0.000000000               0.000000000               0.000000000               0.000000000               0.000000000               0.000000000               0.000000000               0.000000000               0.000000000               0.000000000               0.000000000               0.000000000               0.000000000               0.000000000               0.000000000               0.000000000               0.000000000               0.000000000               0.000000000               0.000000000               0.000000000               0.000000000               0.000000000               0.000000000               0.000000000               0.000000000               0.000000000               0.000000000               0.000000000               0.000000000               0.000000000               0.000000000               0.000000000               0.000000000               0.000000000               0.000000000               0.000000000               0.000000000               0.000000000               0.000000000               0.000000000               0.000000000               0.000000000               0.000000000               0.000000000               0.000000000               0.000000000               0.000000000               0.000000000               0.000000000               0.000000000               0.000000000               0.000000000               0.000000000               0.000000000               0.000000000               0.000000000               0.000000000               0.000000000               0.000000000               0.000000000               0.000000000               0.000000000               0.000000000               0.000000000               0.000000000               0.000000000               0.000000000               0.000000000               0.000000000               0.000000000               0.000000000               0.000000000               0.000000000               0.000000000               0.000000000               0.000000000               0.000000000               0.000000000               0.000000000               0.000000000               0.000000000               0.000000000               0.000000000               0.000000000               0.000000000               0.000000000               0.000000000               0.000000000               0.000000000               0.000000000               0.000000000               0.000000000               0.000000000               0.000000000               0.000000000               0.000000000               0.000000000               0.000000000               0.000000000               0.000000000               0.000000000               0.000000000               0.000000000               0.000000000               0.000000000               0.000000000               0.000000000               0.000000000               0.000000000               0.000000000               0.000000000               0.000000000               0.000000000               0.000000000               0.000000000               0.000000000               0.000000000               0.000000000               0.000000000               0.000000000               0.000000000               0.000000000               0.000000000               0.000000000               0.000000000               0.000000000               0.000000000               0.000000000               0.000000000               0.000000000               0.000000000               0.000000000               0.000000000               0.000000000               0.000000000               0.000000000               0.000000000               0.000000000               0.000000000               0.000000000               0.000000000               0.000000000               0.000000000               0.000000000               0.000000000               0.000000000               0.000000000               0.000000000               0.000000000               0.000000000               0.000000000               0.000000000               0.000000000               0.000000000               0.000000000               0.000000000               0.000000000               0.000315450               0.003259739               0.000260633              -0.000289173               0.001182960               0.000893787               0.000000000               0.000000000               0.000000000               0.000000000               0.000353040               0.002726861               0.000176925              -0.000208467               0.000978434               0.000769966               0.000000000               0.000000000               0.000000000               0.000000000               0.000495154               0.002297476               0.000089721              -0.000101501               0.000799652               0.000698150               0.000000000               0.000000000               0.000000000               0.000000000               0.000532042               0.002058954               0.000047874              -0.000057853               0.000705596               0.000647742               0.000000000               0.000000000               0.000000000               0.000000000               0.000521907               0.001920201               0.000027170              -0.000044310               0.000654830               0.000610520               0.000000000               0.000000000               0.000000000               0.000000000               0.000492173               0.001840477               0.000017096              -0.000045495               0.000628651               0.000583156               0.000000000               0.000000000               0.000000000               0.000000000               0.000450388               0.001795255               0.000012491              -0.000055511               0.000616916               0.000561405               0.000000000               0.000000000               0.000000000               0.000000000               0.000403612               0.001773407               0.000010545              -0.000070321               0.000614570               0.000544249               0.000000000               0.000000000               0.000000000               0.000000000               0.000355982               0.001766587               0.000009206              -0.000087330               0.000617966               0.000530636               0.000000000               0.000000000               0.000000000               0.000000000               0.000306980               0.001773522               0.000007357              -0.000106573               0.000626692               0.000520120               0.000000000               0.000000000               0.000000000               0.000000000               0.000256575               0.001790284               0.000004435              -0.000127569               0.000639278               0.000511709               0.000000000               0.000000000               0.000000000               0.000000000               0.000206505               0.001815832               0.000003959              -0.000149539               0.000655118               0.000505578               0.000000000               0.000000000               0.000000000               0.000000000               0.000157967               0.001843817               0.000006629              -0.000171239               0.000671679               0.000500440               0.000000000               0.000000000               0.000000000               0.000000000               0.000114328               0.001871106               0.000010460              -0.000191015               0.000687367               0.000496353               0.000000000               0.000000000               0.000000000               0.000000000               0.000075275               0.001898052               0.000009676              -0.000209028               0.000702353               0.000493326               0.000000000               0.000000000               0.000000000               0.000000000               0.000037390               0.001929756               0.000003591              -0.000227198               0.000718978               0.000491780               0.000000000               0.000000000               0.000000000               0.000000000               0.000021945               0.001956955               0.000001069              -0.000236389               0.000731108               0.000494719               0.000000000               0.000000000               0.000000000               0.000000000               0.000371927               0.003114397               0.000495229              -0.000249827               0.001121397               0.000871571               0.000000000               0.000000000               0.000000000               0.000000000               0.000374752               0.002623191               0.000336130              -0.000187366               0.000936844               0.000749477               0.000000000               0.000000000               0.000000000               0.000000000               0.000477524               0.002242204               0.000171755              -0.000101204               0.000781128               0.000679925               0.000000000               0.000000000               0.000000000               0.000000000               0.000496045               0.002032735               0.000095223              -0.000068075               0.000700263               0.000632188               0.000000000               0.000000000               0.000000000               0.000000000               0.000479594               0.001911032               0.000057823              -0.000059031               0.000656681               0.000597650               0.000000000               0.000000000               0.000000000               0.000000000               0.000449238               0.001840263               0.000039603              -0.000061569               0.000633938               0.000572369               0.000000000               0.000000000               0.000000000               0.000000000               0.000410496               0.001799947               0.000030612              -0.000071057               0.000623662               0.000552605               0.000000000               0.000000000               0.000000000               0.000000000               0.000367884               0.001778440               0.000026464              -0.000084348               0.000620924               0.000536575               0.000000000               0.000000000               0.000000000               0.000000000               0.000325619               0.001773432               0.000022879              -0.000099572               0.000624329               0.000524757               0.000000000               0.000000000               0.000000000               0.000000000               0.000279910               0.001779950               0.000018023              -0.000117527               0.000632487               0.000514959               0.000000000               0.000000000               0.000000000               0.000000000               0.000232269               0.001796036               0.000012599              -0.000137403               0.000644474               0.000507070               0.000000000               0.000000000               0.000000000               0.000000000               0.000187594               0.001817711               0.000010409              -0.000156866               0.000658186               0.000501320               0.000000000               0.000000000               0.000000000               0.000000000               0.000145718               0.001839789               0.000014624              -0.000175329               0.000671700               0.000496371               0.000000000               0.000000000               0.000000000               0.000000000               0.000106623               0.001859647               0.000020809              -0.000192472               0.000684033               0.000491562               0.000000000               0.000000000               0.000000000               0.000000000               0.000069446               0.001880049               0.000018442              -0.000208963               0.000696331               0.000487368               0.000000000               0.000000000               0.000000000               0.000000000               0.000032855               0.001903399               0.000006757              -0.000225604               0.000709661               0.000484058               0.000000000               0.000000000               0.000000000               0.000000000               0.000017552               0.001922074               0.000001287              -0.000233677               0.000718577               0.000484900               0.000000000               0.000000000               0.000000000               0.000000000               0.000449329               0.002888421               0.000683211              -0.000192554               0.001026982               0.000834428               0.000000000               0.000000000               0.000000000               0.000000000               0.000401444               0.002464224               0.000465193              -0.000157486               0.000873895               0.000716409               0.000000000               0.000000000               0.000000000               0.000000000               0.000448473               0.002161385               0.000242809              -0.000101996               0.000754453               0.000652457               0.000000000               0.000000000               0.000000000               0.000000000               0.000442805               0.001993881               0.000142294              -0.000083183               0.000692348               0.000609165               0.000000000               0.000000000               0.000000000               0.000000000               0.000418342               0.001896409               0.000094113              -0.000080173               0.000658854               0.000578682               0.000000000               0.000000000               0.000000000               0.000000000               0.000388179               0.001837952               0.000069173              -0.000084177               0.000640703               0.000556527               0.000000000               0.000000000               0.000000000               0.000000000               0.000354894               0.001804232               0.000056733              -0.000092444               0.000632219               0.000539776               0.000000000               0.000000000               0.000000000               0.000000000               0.000319128               0.001786807               0.000048818              -0.000103678               0.000630155               0.000526478               0.000000000               0.000000000               0.000000000               0.000000000               0.000283195               0.001784536               0.000041373              -0.000116869               0.000633796               0.000516927               0.000000000               0.000000000               0.000000000               0.000000000               0.000243124               0.001791385               0.000032194              -0.000132751               0.000641373               0.000508621               0.000000000               0.000000000               0.000000000               0.000000000               0.000202788               0.001806538               0.000022873              -0.000149771               0.000652097               0.000502326               0.000000000               0.000000000               0.000000000               0.000000000               0.000164907               0.001821380               0.000019701              -0.000165832               0.000662398               0.000496566               0.000000000               0.000000000               0.000000000               0.000000000               0.000129353               0.001833617               0.000023580              -0.000180694               0.000671431               0.000490737               0.000000000               0.000000000               0.000000000               0.000000000               0.000095966               0.001844994               0.000027935              -0.000194637               0.000679871               0.000485234               0.000000000               0.000000000               0.000000000               0.000000000               0.000063238               0.001858512               0.000021259              -0.000208599               0.000689031               0.000480432               0.000000000               0.000000000               0.000000000               0.000000000               0.000030243               0.001870256               0.000007480              -0.000222440               0.000697559               0.000475119               0.000000000               0.000000000               0.000000000               0.000000000               0.000015509               0.001877564               0.000002073              -0.000228879               0.000702141               0.000473263               0.000000000               0.000000000               0.000000000               0.000000000               0.000529501               0.002601007               0.000814173              -0.000126563               0.000909181               0.000782618               0.000000000               0.000000000               0.000000000               0.000000000               0.000425132               0.002267763               0.000558460              -0.000124046               0.000797262               0.000673216               0.000000000               0.000000000               0.000000000               0.000000000               0.000409969               0.002061727               0.000301485              -0.000103977               0.000721894               0.000617917               0.000000000               0.000000000               0.000000000               0.000000000               0.000380776               0.001944853               0.000188906              -0.000100315               0.000681716               0.000581401               0.000000000               0.000000000               0.000000000               0.000000000               0.000351723               0.001876313               0.000134381              -0.000102643               0.000659646               0.000557003               0.000000000               0.000000000               0.000000000               0.000000000               0.000323804               0.001834289               0.000105435              -0.000107859               0.000647377               0.000539517               0.000000000               0.000000000               0.000000000               0.000000000               0.000295290               0.001809066               0.000088038              -0.000115399               0.000641482               0.000526083               0.000000000               0.000000000               0.000000000               0.000000000               0.000265647               0.001797510               0.000074610              -0.000125071               0.000640854               0.000515783               0.000000000               0.000000000               0.000000000               0.000000000               0.000235206               0.001797771               0.000061074              -0.000136519               0.000644757               0.000508238               0.000000000               0.000000000               0.000000000               0.000000000               0.000203266               0.001808089               0.000045802              -0.000149786               0.000652619               0.000502833               0.000000000               0.000000000               0.000000000               0.000000000               0.000171654               0.001820635               0.000033186              -0.000163209               0.000661275               0.000498067               0.000000000               0.000000000               0.000000000               0.000000000               0.000143527               0.001828742               0.000028679              -0.000174770               0.000667831               0.000493061               0.000000000               0.000000000               0.000000000               0.000000000               0.000115576               0.001832738               0.000029789              -0.000185751               0.000672823               0.000487073               0.000000000               0.000000000               0.000000000               0.000000000               0.000085978               0.001836810               0.000027982              -0.000197359               0.000678050               0.000480691               0.000000000               0.000000000               0.000000000               0.000000000               0.000055993               0.001846420               0.000018047              -0.000209804               0.000685402               0.000475597               0.000000000               0.000000000               0.000000000               0.000000000               0.000025120               0.001854041               0.000007251              -0.000222335               0.000692119               0.000469785               0.000000000               0.000000000               0.000000000               0.000000000               0.000011976               0.001859454               0.000004488              -0.000227940               0.000695792               0.000467852               0.000000000               0.000000000               0.000000000               0.000000000               0.000601456               0.002278704               0.000884018              -0.000059293               0.000779324               0.000720032               0.000000000               0.000000000               0.000000000               0.000000000               0.000442276               0.002052849               0.000616776              -0.000090753               0.000714527               0.000623774               0.000000000               0.000000000               0.000000000               0.000000000               0.000368693               0.001953839               0.000349540              -0.000105970               0.000686597               0.000580627               0.000000000               0.000000000               0.000000000               0.000000000               0.000323634               0.001890112               0.000234198              -0.000114901               0.000668331               0.000553430               0.000000000               0.000000000               0.000000000               0.000000000               0.000291107               0.001848624               0.000176341              -0.000121913               0.000656840               0.000534927               0.000000000               0.000000000               0.000000000               0.000000000               0.000266054               0.001823875               0.000142924              -0.000128214               0.000650690               0.000522476               0.000000000               0.000000000               0.000000000               0.000000000               0.000242872               0.001810579               0.000119410              -0.000135245               0.000648602               0.000513357               0.000000000               0.000000000               0.000000000               0.000000000               0.000217612               0.001808590               0.000099056              -0.000144469               0.000651014               0.000506545               0.000000000               0.000000000               0.000000000               0.000000000               0.000191920               0.001817857               0.000078428              -0.000155262               0.000657700               0.000502439               0.000000000               0.000000000               0.000000000               0.000000000               0.000167566               0.001832071               0.000057487              -0.000166171               0.000666075               0.000499903               0.000000000               0.000000000               0.000000000               0.000000000               0.000144378               0.001841093               0.000042742              -0.000175994               0.000672356               0.000496362               0.000000000               0.000000000               0.000000000               0.000000000               0.000125587               0.001843050               0.000036728              -0.000183286               0.000675439               0.000492154               0.000000000               0.000000000               0.000000000               0.000000000               0.000106483               0.001843221               0.000034243              -0.000190471               0.000677891               0.000487420               0.000000000               0.000000000               0.000000000               0.000000000               0.000081073               0.001849315               0.000025953              -0.000200761               0.000683353               0.000482591               0.000000000               0.000000000               0.000000000               0.000000000               0.000053103               0.001863635               0.000012734              -0.000213040               0.000692219               0.000479179               0.000000000               0.000000000               0.000000000               0.000000000               0.000024427               0.001879393               0.000005164              -0.000225764               0.000701713               0.000475949               0.000000000               0.000000000               0.000000000               0.000000000               0.000014010               0.001892856               0.000005559              -0.000231352               0.000708063               0.000476711               0.000000000               0.000000000               0.000000000               0.000000000               0.000652683               0.001949674               0.000897007               0.000001046               0.000649536               0.000650582               0.000000000               0.000000000               0.000000000               0.000000000               0.000453083               0.001837488               0.000644412              -0.000059781               0.000632416               0.000572636               0.000000000               0.000000000               0.000000000               0.000000000               0.000331590               0.001844740               0.000388613              -0.000106246               0.000650323               0.000544076               0.000000000               0.000000000               0.000000000               0.000000000               0.000277734               0.001827761               0.000276407              -0.000124320               0.000650688               0.000526368               0.000000000               0.000000000               0.000000000               0.000000000               0.000245895               0.001812168               0.000214981              -0.000134310               0.000648820               0.000514510               0.000000000               0.000000000               0.000000000               0.000000000               0.000225263               0.001807100               0.000175451              -0.000141414               0.000649499               0.000508085               0.000000000               0.000000000               0.000000000               0.000000000               0.000205753               0.001810497               0.000145282              -0.000149154               0.000653211               0.000504057               0.000000000               0.000000000               0.000000000               0.000000000               0.000182108               0.001823159               0.000117933              -0.000159604               0.000660915               0.000501311               0.000000000               0.000000000               0.000000000               0.000000000               0.000157737               0.001840707               0.000090527              -0.000170937               0.000670542               0.000499605               0.000000000               0.000000000               0.000000000               0.000000000               0.000138081               0.001858213               0.000067216              -0.000180496               0.000679563               0.000499068               0.000000000               0.000000000               0.000000000               0.000000000               0.000122049               0.001865509               0.000052706              -0.000187420               0.000684303               0.000496883               0.000000000               0.000000000               0.000000000               0.000000000               0.000110011               0.001868820               0.000045335              -0.000192348               0.000687050               0.000494702               0.000000000               0.000000000               0.000000000               0.000000000               0.000096192               0.001878822               0.000037577              -0.000198780               0.000692528               0.000493747               0.000000000               0.000000000               0.000000000               0.000000000               0.000075617               0.001901299               0.000023834              -0.000209305               0.000703528               0.000494223               0.000000000               0.000000000               0.000000000               0.000000000               0.000051808               0.001929383               0.000010013              -0.000221744               0.000717036               0.000495292               0.000000000               0.000000000               0.000000000               0.000000000               0.000025851               0.001957468               0.000004013              -0.000234989               0.000730812               0.000495823               0.000000000               0.000000000               0.000000000               0.000000000               0.000016431               0.001978519               0.000005572              -0.000241153               0.000739884               0.000498731               0.000000000               0.000000000               0.000000000               0.000000000               0.000680041               0.001631852               0.000862841               0.000051032               0.000526934               0.000577966               0.000000000               0.000000000               0.000000000               0.000000000               0.000456613               0.001632975               0.000646632              -0.000032893               0.000555283               0.000522391               0.000000000               0.000000000               0.000000000               0.000000000               0.000302818               0.001734578               0.000419813              -0.000103266               0.000612609               0.000509343               0.000000000               0.000000000               0.000000000               0.000000000               0.000248464               0.001758799               0.000311685              -0.000126676               0.000628486               0.000501810               0.000000000               0.000000000               0.000000000               0.000000000               0.000221872               0.001772261               0.000245700              -0.000138331               0.000636858               0.000498527               0.000000000               0.000000000               0.000000000               0.000000000               0.000203539               0.001788350               0.000199064              -0.000147216               0.000645183               0.000497966               0.000000000               0.000000000               0.000000000               0.000000000               0.000184588               0.001809673               0.000161983              -0.000156988               0.000655548               0.000498559               0.000000000               0.000000000               0.000000000               0.000000000               0.000161430               0.001836181               0.000128972              -0.000168986               0.000668383               0.000499397               0.000000000               0.000000000               0.000000000               0.000000000               0.000136452               0.001861958               0.000097930              -0.000181575               0.000681171               0.000499597               0.000000000               0.000000000               0.000000000               0.000000000               0.000118642               0.001882454               0.000073711              -0.000190815               0.000691084               0.000500268               0.000000000               0.000000000               0.000000000               0.000000000               0.000109706               0.001898596               0.000058672              -0.000196184               0.000698254               0.000502070               0.000000000               0.000000000               0.000000000               0.000000000               0.000101355               0.001921629               0.000047540              -0.000202195               0.000707935               0.000505740               0.000000000               0.000000000               0.000000000               0.000000000               0.000087248               0.001957908               0.000034367              -0.000212020               0.000723303               0.000511283               0.000000000               0.000000000               0.000000000               0.000000000               0.000068185               0.002004312               0.000017717              -0.000224969               0.000743087               0.000518118               0.000000000               0.000000000               0.000000000               0.000000000               0.000047837               0.002053493               0.000005028              -0.000238747               0.000764073               0.000525326               0.000000000               0.000000000               0.000000000               0.000000000               0.000024458               0.002100544               0.000001021              -0.000253396               0.000784640               0.000531244               0.000000000               0.000000000               0.000000000               0.000000000               0.000014640               0.002132367               0.000003815              -0.000261055               0.000797800               0.000536745               0.000000000               0.000000000               0.000000000               0.000000000               0.000695327               0.001350241               0.000795612               0.000091966               0.000419420               0.000511386               0.000000000               0.000000000               0.000000000               0.000000000               0.000464115               0.001446792               0.000634528              -0.000006807               0.000484528               0.000477721               0.000000000               0.000000000               0.000000000               0.000000000               0.000292768               0.001629765               0.000452027              -0.000093933               0.000574560               0.000480628               0.000000000               0.000000000               0.000000000               0.000000000               0.000241210               0.001696411               0.000347143              -0.000121598               0.000605997               0.000484400               0.000000000               0.000000000               0.000000000               0.000000000               0.000221923               0.001738136               0.000275974              -0.000134046               0.000624055               0.000490009               0.000000000               0.000000000               0.000000000               0.000000000               0.000204474               0.001770462               0.000220994              -0.000144630               0.000638358               0.000493728               0.000000000               0.000000000               0.000000000               0.000000000               0.000183714               0.001805485               0.000176676              -0.000156793               0.000654087               0.000497294               0.000000000               0.000000000               0.000000000               0.000000000               0.000159448               0.001844714               0.000140010              -0.000170796               0.000671830               0.000501035               0.000000000               0.000000000               0.000000000               0.000000000               0.000136931               0.001881108               0.000110304              -0.000183789               0.000688293               0.000504504               0.000000000               0.000000000               0.000000000               0.000000000               0.000122804               0.001909724               0.000084438              -0.000192664               0.000700789               0.000508126               0.000000000               0.000000000               0.000000000               0.000000000               0.000118319               0.001940360               0.000062327              -0.000198175               0.000712839               0.000514664               0.000000000               0.000000000               0.000000000               0.000000000               0.000110642               0.001983876               0.000044045              -0.000206493               0.000730116               0.000523623               0.000000000               0.000000000               0.000000000               0.000000000               0.000094366               0.002043685               0.000027131              -0.000220073               0.000754579               0.000534506               0.000000000               0.000000000               0.000000000               0.000000000               0.000075333               0.002114812               0.000009431              -0.000236101               0.000783630               0.000547530               0.000000000               0.000000000               0.000000000               0.000000000               0.000059394               0.002186929              -0.000002840              -0.000251093               0.000812666               0.000561574               0.000000000               0.000000000               0.000000000               0.000000000               0.000046331               0.002253453              -0.000006546              -0.000264307               0.000839246               0.000574939               0.000000000               0.000000000               0.000000000               0.000000000               0.000039928               0.002291542              -0.000005093              -0.000271469               0.000854329               0.000582860               0.000000000               0.000000000               0.000000000               0.000000000               0.000689036               0.001074789               0.000711532               0.000124038               0.000316913               0.000440951               0.000000000               0.000000000               0.000000000               0.000000000               0.000479508               0.001227740               0.000616331               0.000026347               0.000400460               0.000426807               0.000000000               0.000000000               0.000000000               0.000000000               0.000308322               0.001472446               0.000491084              -0.000068435               0.000513622               0.000445187               0.000000000               0.000000000               0.000000000               0.000000000               0.000254996               0.001585689               0.000393722              -0.000102588               0.000562753               0.000460166               0.000000000               0.000000000               0.000000000               0.000000000               0.000235029               0.001653156               0.000318260              -0.000118509               0.000590549               0.000472041               0.000000000               0.000000000               0.000000000               0.000000000               0.000219703               0.001702409               0.000255620              -0.000130412               0.000610935               0.000480522               0.000000000               0.000000000               0.000000000               0.000000000               0.000200763               0.001751910               0.000205481              -0.000143702               0.000631865               0.000488163               0.000000000               0.000000000               0.000000000               0.000000000               0.000178853               0.001802031               0.000166988              -0.000158184               0.000653399               0.000495215               0.000000000               0.000000000               0.000000000               0.000000000               0.000157719               0.001850185               0.000137037              -0.000172128               0.000674098               0.000501970               0.000000000               0.000000000               0.000000000               0.000000000               0.000143297               0.001896907               0.000108401              -0.000183376               0.000693421               0.000510045               0.000000000               0.000000000               0.000000000               0.000000000               0.000134064               0.001939426               0.000079823              -0.000192154               0.000710520               0.000518366               0.000000000               0.000000000               0.000000000               0.000000000               0.000127760               0.001990228               0.000054029              -0.000200868               0.000730359               0.000529490               0.000000000               0.000000000               0.000000000               0.000000000               0.000117182               0.002057611               0.000030757              -0.000213258               0.000756949               0.000543692               0.000000000               0.000000000               0.000000000               0.000000000               0.000105260               0.002141913               0.000012730              -0.000228266               0.000790053               0.000561786               0.000000000               0.000000000               0.000000000               0.000000000               0.000095875               0.002232691               0.000002243              -0.000243133               0.000825267               0.000582135               0.000000000               0.000000000               0.000000000               0.000000000               0.000091843               0.002320549              -0.000001260              -0.000255627               0.000858717               0.000603091               0.000000000               0.000000000               0.000000000               0.000000000               0.000087089               0.002362128              -0.000003041              -0.000262607               0.000874904               0.000612297               0.000000000               0.000000000               0.000000000               0.000000000               0.000651765               0.000810400               0.000611901               0.000143110               0.000222427               0.000365537               0.000000000               0.000000000               0.000000000               0.000000000               0.000495443               0.001006864               0.000582836               0.000059932               0.000315640               0.000375572               0.000000000               0.000000000               0.000000000               0.000000000               0.000342916               0.001296006               0.000518876              -0.000033408               0.000443133               0.000409726               0.000000000               0.000000000               0.000000000               0.000000000               0.000286460               0.001450283               0.000437273              -0.000073863               0.000508044               0.000434181               0.000000000               0.000000000               0.000000000               0.000000000               0.000261070               0.001544338               0.000362727              -0.000095141               0.000546488               0.000451347               0.000000000               0.000000000               0.000000000               0.000000000               0.000246059               0.001616471               0.000296381              -0.000109787               0.000575414               0.000465627               0.000000000               0.000000000               0.000000000               0.000000000               0.000230890               0.001683893               0.000241932              -0.000123903               0.000602593               0.000478690               0.000000000               0.000000000               0.000000000               0.000000000               0.000211168               0.001745944               0.000201089              -0.000139055               0.000628327               0.000489272               0.000000000               0.000000000               0.000000000               0.000000000               0.000189092               0.001805567               0.000169504              -0.000154786               0.000653445               0.000498659               0.000000000               0.000000000               0.000000000               0.000000000               0.000170472               0.001863087               0.000138203              -0.000168958               0.000677342               0.000508384               0.000000000               0.000000000               0.000000000               0.000000000               0.000158357               0.001916081               0.000105396              -0.000180126               0.000698729               0.000518603               0.000000000               0.000000000               0.000000000               0.000000000               0.000152697               0.001973723               0.000073648              -0.000189454               0.000721052               0.000531599               0.000000000               0.000000000               0.000000000               0.000000000               0.000150356               0.002041538               0.000046083              -0.000198808               0.000746775               0.000547967               0.000000000               0.000000000               0.000000000               0.000000000               0.000149542               0.002124225               0.000027316              -0.000209449               0.000777884               0.000568435               0.000000000               0.000000000               0.000000000               0.000000000               0.000147771               0.002217187               0.000015631              -0.000221734               0.000812966               0.000591233               0.000000000               0.000000000               0.000000000               0.000000000               0.000145225               0.002314902               0.000007633              -0.000234903               0.000849927               0.000615024               0.000000000               0.000000000               0.000000000               0.000000000               0.000135313               0.002357800               0.000000239              -0.000243982               0.000867253               0.000623271               0.000000000               0.000000000               0.000000000               0.000000000               0.000585487               0.000573007               0.000496855               0.000147930               0.000141690               0.000289620               0.000000000               0.000000000               0.000000000               0.000000000               0.000498603               0.000794324               0.000524513               0.000087684               0.000235544               0.000323228               0.000000000               0.000000000               0.000000000               0.000000000               0.000384704               0.001101216               0.000516083               0.000006611               0.000364865               0.000371476               0.000000000               0.000000000               0.000000000               0.000000000               0.000329825               0.001285846               0.000456867              -0.000037047               0.000440960               0.000403913               0.000000000               0.000000000               0.000000000               0.000000000               0.000299411               0.001409310               0.000389786              -0.000063885               0.000491060               0.000427175               0.000000000               0.000000000               0.000000000               0.000000000               0.000280976               0.001506446               0.000325434              -0.000082940               0.000529790               0.000446851               0.000000000               0.000000000               0.000000000               0.000000000               0.000265898               0.001594098               0.000270574              -0.000099550               0.000564544               0.000464994               0.000000000               0.000000000               0.000000000               0.000000000               0.000248326               0.001673848               0.000227827              -0.000116109               0.000596647               0.000480538               0.000000000               0.000000000               0.000000000               0.000000000               0.000226094               0.001744764               0.000194535              -0.000133310               0.000626019               0.000492709               0.000000000               0.000000000               0.000000000               0.000000000               0.000202059               0.001808400               0.000162875              -0.000150278               0.000652887               0.000502609               0.000000000               0.000000000               0.000000000               0.000000000               0.000187164               0.001871895               0.000130936              -0.000163800               0.000678559               0.000514759               0.000000000               0.000000000               0.000000000               0.000000000               0.000183255               0.001938983               0.000098766              -0.000173652               0.000704205               0.000530553               0.000000000               0.000000000               0.000000000               0.000000000               0.000187054               0.002016580               0.000069987              -0.000181927               0.000732829               0.000550902               0.000000000               0.000000000               0.000000000               0.000000000               0.000193773               0.002106736               0.000049031              -0.000190676               0.000765797               0.000575121               0.000000000               0.000000000               0.000000000               0.000000000               0.000198604               0.002204269               0.000034757              -0.000201056               0.000801768               0.000600711               0.000000000               0.000000000               0.000000000               0.000000000               0.000195563               0.002306963               0.000019654              -0.000215034               0.000840658               0.000625624               0.000000000               0.000000000               0.000000000               0.000000000               0.000180013               0.002350769               0.000006454              -0.000226341               0.000859029               0.000632688               0.000000000               0.000000000               0.000000000               0.000000000               0.000497294               0.000379350               0.000375288               0.000139065               0.000080093               0.000219158               0.000000000               0.000000000               0.000000000               0.000000000               0.000489424               0.000599603               0.000443447               0.000108582               0.000163672               0.000272254               0.000000000               0.000000000               0.000000000               0.000000000               0.000429190               0.000899749               0.000478140               0.000048477               0.000283754               0.000332231               0.000000000               0.000000000               0.000000000               0.000000000               0.000383976               0.001105823               0.000441892               0.000005763               0.000366683               0.000372446               0.000000000               0.000000000               0.000000000               0.000000000               0.000349728               0.001254900               0.000388008              -0.000025715               0.000426867               0.000401152               0.000000000               0.000000000               0.000000000               0.000000000               0.000327691               0.001376253               0.000330879              -0.000049148               0.000475129               0.000425981               0.000000000               0.000000000               0.000000000               0.000000000               0.000308968               0.001483097               0.000279824              -0.000069524               0.000517536               0.000448011               0.000000000               0.000000000               0.000000000               0.000000000               0.000291131               0.001579410               0.000238588              -0.000088252               0.000555882               0.000467630               0.000000000               0.000000000               0.000000000               0.000000000               0.000270113               0.001661956               0.000204783              -0.000106452               0.000589464               0.000483012               0.000000000               0.000000000               0.000000000               0.000000000               0.000248432               0.001733174               0.000175670              -0.000123485               0.000618881               0.000495396               0.000000000               0.000000000               0.000000000               0.000000000               0.000230952               0.001806015               0.000148833              -0.000139145               0.000648381               0.000509236               0.000000000               0.000000000               0.000000000               0.000000000               0.000223703               0.001887144               0.000120410              -0.000152004               0.000679710               0.000527706               0.000000000               0.000000000               0.000000000               0.000000000               0.000228694               0.001982903               0.000092720              -0.000162102               0.000714995               0.000552893               0.000000000               0.000000000               0.000000000               0.000000000               0.000239601               0.002089790               0.000071512              -0.000171373               0.000753714               0.000582341               0.000000000               0.000000000               0.000000000               0.000000000               0.000249608               0.002202177               0.000052746              -0.000181669               0.000794608               0.000612939               0.000000000               0.000000000               0.000000000               0.000000000               0.000250680               0.002312698               0.000028676              -0.000195082               0.000835919               0.000640837               0.000000000               0.000000000               0.000000000               0.000000000               0.000236959               0.002358840               0.000011546              -0.000205995               0.000854937               0.000648942               0.000000000               0.000000000               0.000000000               0.000000000               0.000401845               0.000236517               0.000259655               0.000121126               0.000038463               0.000159589               0.000000000               0.000000000               0.000000000               0.000000000               0.000472383               0.000435755               0.000344646               0.000122673               0.000104359               0.000227032               0.000000000               0.000000000               0.000000000               0.000000000               0.000472021               0.000711276               0.000402660               0.000088097               0.000207724               0.000295821               0.000000000               0.000000000               0.000000000               0.000000000               0.000442468               0.000927400               0.000386140               0.000050000               0.000292464               0.000342463               0.000000000               0.000000000               0.000000000               0.000000000               0.000408939               0.001096594               0.000347474               0.000016277               0.000360102               0.000376379               0.000000000               0.000000000               0.000000000               0.000000000               0.000380518               0.001237143               0.000301821              -0.000011949               0.000416360               0.000404411               0.000000000               0.000000000               0.000000000               0.000000000               0.000359255               0.001360587               0.000259010              -0.000035353               0.000465309               0.000429956               0.000000000               0.000000000               0.000000000               0.000000000               0.000338441               0.001468077               0.000223637              -0.000056594               0.000508219               0.000451625               0.000000000               0.000000000               0.000000000               0.000000000               0.000318719               0.001561124               0.000194523              -0.000075621               0.000545576               0.000469955               0.000000000               0.000000000               0.000000000               0.000000000               0.000300132               0.001647791               0.000169532              -0.000093424               0.000580400               0.000486975               0.000000000               0.000000000               0.000000000               0.000000000               0.000283325               0.001737212               0.000146259              -0.000110904               0.000616033               0.000505129               0.000000000               0.000000000               0.000000000               0.000000000               0.000271979               0.001836166               0.000125637              -0.000127528               0.000654559               0.000527030               0.000000000               0.000000000               0.000000000               0.000000000               0.000277145               0.001950040               0.000106522              -0.000139825               0.000696615               0.000556790               0.000000000               0.000000000               0.000000000               0.000000000               0.000291345               0.002073430               0.000086825              -0.000149924               0.000741111               0.000591187               0.000000000               0.000000000               0.000000000               0.000000000               0.000303862               0.002199897               0.000064745              -0.000161039               0.000786971               0.000625933               0.000000000               0.000000000               0.000000000               0.000000000               0.000310343               0.002317787               0.000035525              -0.000173344               0.000830369               0.000657025               0.000000000               0.000000000               0.000000000               0.000000000               0.000304074               0.002368023               0.000016752              -0.000181975               0.000849991               0.000668017               0.000000000               0.000000000               0.000000000               0.000000000               0.000314829               0.000144013               0.000159928               0.000100058               0.000014651               0.000114709               0.000000000               0.000000000               0.000000000               0.000000000               0.000452041               0.000312843               0.000235186               0.000130409               0.000060810               0.000191219               0.000000000               0.000000000               0.000000000               0.000000000               0.000508017               0.000555613               0.000291859               0.000121053               0.000144851               0.000265905               0.000000000               0.000000000               0.000000000               0.000000000               0.000495216               0.000772724               0.000288034               0.000089114               0.000227867               0.000316982               0.000000000               0.000000000               0.000000000               0.000000000               0.000464383               0.000955845               0.000263636               0.000054662               0.000300391               0.000355053               0.000000000               0.000000000               0.000000000               0.000000000               0.000432150               0.001110516               0.000232553               0.000023241               0.000362421               0.000385663               0.000000000               0.000000000               0.000000000               0.000000000               0.000406728               0.001245850               0.000202250              -0.000003209               0.000416349               0.000413140               0.000000000               0.000000000               0.000000000               0.000000000               0.000383205               0.001360415               0.000177054              -0.000026350               0.000462250               0.000435900               0.000000000               0.000000000               0.000000000               0.000000000               0.000362238               0.001463945               0.000156181              -0.000047154               0.000503695               0.000456541               0.000000000               0.000000000               0.000000000               0.000000000               0.000344141               0.001569435               0.000136304              -0.000067126               0.000545515               0.000478389               0.000000000               0.000000000               0.000000000               0.000000000               0.000329703               0.001678147               0.000118318              -0.000086130               0.000588087               0.000501957               0.000000000               0.000000000               0.000000000               0.000000000               0.000324774               0.001795327               0.000106988              -0.000102625               0.000632645               0.000530019               0.000000000               0.000000000               0.000000000               0.000000000               0.000328574               0.001922348               0.000098570              -0.000117078               0.000679802               0.000562724               0.000000000               0.000000000               0.000000000               0.000000000               0.000341785               0.002056069               0.000084299              -0.000128839               0.000728296               0.000599457               0.000000000               0.000000000               0.000000000               0.000000000               0.000358578               0.002190134               0.000062235              -0.000139300               0.000776470               0.000637171               0.000000000               0.000000000               0.000000000               0.000000000               0.000371808               0.002313075               0.000033883              -0.000149706               0.000820919               0.000671213               0.000000000               0.000000000               0.000000000               0.000000000               0.000373446               0.002367596               0.000017583              -0.000155907               0.000841160               0.000685253               0.000000000               0.000000000               0.000000000               0.000000000               0.000254064               0.000089608               0.000075488               0.000084072               0.000001845               0.000085917               0.000000000               0.000000000               0.000000000               0.000000000               0.000436098               0.000234407               0.000118744               0.000134235               0.000033390               0.000167625               0.000000000               0.000000000               0.000000000               0.000000000               0.000530147               0.000452103               0.000152912               0.000142291               0.000103269               0.000245560               0.000000000               0.000000000               0.000000000               0.000000000               0.000532636               0.000667332               0.000154265               0.000116321               0.000183668               0.000299989               0.000000000               0.000000000               0.000000000               0.000000000               0.000503949               0.000857134               0.000142799               0.000081838               0.000258429               0.000340267               0.000000000               0.000000000               0.000000000               0.000000000               0.000471235               0.001021568               0.000127071               0.000049017               0.000324180               0.000373197               0.000000000               0.000000000               0.000000000               0.000000000               0.000441151               0.001162624               0.000111687               0.000020103               0.000380836               0.000400940               0.000000000               0.000000000               0.000000000               0.000000000               0.000414570               0.001282616               0.000098561              -0.000004863               0.000429156               0.000424292               0.000000000               0.000000000               0.000000000               0.000000000               0.000390937               0.001395292               0.000087874              -0.000027810               0.000474363               0.000446553               0.000000000               0.000000000               0.000000000               0.000000000               0.000374590               0.001511943               0.000075740              -0.000048522               0.000520150               0.000471628               0.000000000               0.000000000               0.000000000               0.000000000               0.000366549               0.001634919               0.000066757              -0.000066909               0.000567270               0.000500362               0.000000000               0.000000000               0.000000000               0.000000000               0.000367298               0.001767542               0.000063100              -0.000083206               0.000616910               0.000533704               0.000000000               0.000000000               0.000000000               0.000000000               0.000371314               0.001906679               0.000060035              -0.000099092               0.000668584               0.000569492               0.000000000               0.000000000               0.000000000               0.000000000               0.000379405               0.002043937               0.000054305              -0.000113215               0.000719044               0.000605829               0.000000000               0.000000000               0.000000000               0.000000000               0.000394439               0.002172110               0.000039366              -0.000123599               0.000765229               0.000641630               0.000000000               0.000000000               0.000000000               0.000000000               0.000419703               0.002295975               0.000018340              -0.000129608               0.000808520               0.000678912               0.000000000               0.000000000               0.000000000               0.000000000               0.000435550               0.002357144               0.000007540              -0.000131311               0.000829477               0.000698166               0.000000000               0.000000000               0.000000000               0.000000000               0.000232572               0.000069538               0.000000000               0.000078522              -0.000002995               0.000075527               0.000000000               0.000000000               0.000000000               0.000000000               0.000430413               0.000206944               0.000000000               0.000135535               0.000023802               0.000159337               0.000000000               0.000000000               0.000000000               0.000000000               0.000537101               0.000417279               0.000000000               0.000149252               0.000089341               0.000238593               0.000000000               0.000000000               0.000000000               0.000000000               0.000546488               0.000630257               0.000000000               0.000126149               0.000168034               0.000294183               0.000000000               0.000000000               0.000000000               0.000000000               0.000518584               0.000821020              -0.000000000               0.000091841               0.000243057               0.000334898               0.000000000               0.000000000               0.000000000               0.000000000               0.000485599               0.000989828               0.000000000               0.000058370               0.000310483               0.000368853               0.000000000               0.000000000               0.000000000               0.000000000               0.000453931               0.001131789               0.000000000               0.000028750               0.000367676               0.000396426               0.000000000               0.000000000               0.000000000               0.000000000               0.000425589               0.001254547               0.000000000               0.000002778               0.000417252               0.000420030               0.000000000               0.000000000               0.000000000               0.000000000               0.000401214               0.001370560              -0.000000000              -0.000020865               0.000463804               0.000442939               0.000000000               0.000000000               0.000000000               0.000000000               0.000384805               0.001487419              -0.000000000              -0.000041625               0.000509677               0.000468051               0.000000000               0.000000000               0.000000000               0.000000000               0.000382681               0.001619776               0.000000000              -0.000058967               0.000559575               0.000500609               0.000000000               0.000000000               0.000000000               0.000000000               0.000384047               0.001761647              -0.000000000              -0.000076188               0.000612606               0.000536418               0.000000000               0.000000000               0.000000000               0.000000000               0.000387617               0.001901846              -0.000000000              -0.000092374               0.000664734               0.000572359               0.000000000               0.000000000               0.000000000               0.000000000               0.000392932               0.002037732               0.000000000              -0.000107367               0.000715026               0.000607659               0.000000000               0.000000000               0.000000000               0.000000000               0.000404837               0.002161723              -0.000000000              -0.000118401               0.000760034               0.000641633               0.000000000               0.000000000               0.000000000               0.000000000               0.000437415               0.002284602               0.000000000              -0.000121544               0.000802041               0.000680497               0.000000000               0.000000000               0.000000000               0.000000000               0.000463141               0.002349044               0.000000000              -0.000119952               0.000822991               0.000703039               0.000000000               0.000000000               0.000000000               0.000000000               0.000296119               0.003310428               0.000000000              -0.000302758               0.001204384               0.000901626               0.000000000               0.000000000               0.000000000               0.000000000               0.000345600               0.002763028              -0.000000000              -0.000215778               0.000992926               0.000777148               0.000000000               0.000000000               0.000000000               0.000000000               0.000500874               0.002317761              -0.000000000              -0.000101892               0.000806543               0.000704651               0.000000000               0.000000000               0.000000000               0.000000000               0.000543826               0.002068379              -0.000000000              -0.000054613               0.000707657               0.000653044               0.000000000               0.000000000               0.000000000               0.000000000               0.000537140               0.001923724              -0.000000000              -0.000039038               0.000654248               0.000615210               0.000000000               0.000000000               0.000000000               0.000000000               0.000507976               0.001839707              -0.000000000              -0.000039472               0.000626387               0.000586915               0.000000000               0.000000000               0.000000000               0.000000000               0.000465581               0.001793192              -0.000000000              -0.000049556               0.000614243               0.000564687               0.000000000               0.000000000               0.000000000               0.000000000               0.000415604               0.001769722              -0.000000000              -0.000065363               0.000611689               0.000546326               0.000000000               0.000000000               0.000000000               0.000000000               0.000366291               0.001764237              -0.000000000              -0.000083170               0.000615796               0.000532626               0.000000000               0.000000000               0.000000000               0.000000000               0.000316983               0.001770452               0.000000000              -0.000102438               0.000624291               0.000521853               0.000000000               0.000000000               0.000000000               0.000000000               0.000265534               0.001788433               0.000000000              -0.000123979               0.000637465               0.000513486               0.000000000               0.000000000               0.000000000               0.000000000               0.000215764               0.001816043              -0.000000000              -0.000146093               0.000654039               0.000507946               0.000000000               0.000000000               0.000000000               0.000000000               0.000165872               0.001846212               0.000000000              -0.000168574               0.000671589               0.000503015               0.000000000               0.000000000               0.000000000               0.000000000               0.000116488               0.001875506               0.000000000              -0.000190755               0.000688747               0.000497993               0.000000000               0.000000000               0.000000000               0.000000000               0.000074670               0.001905166               0.000000000              -0.000210144               0.000705097               0.000494953               0.000000000               0.000000000               0.000000000               0.000000000               0.000037881               0.001940919               0.000000000              -0.000228409               0.000723103               0.000494694               0.000000000               0.000000000               0.000000000               0.000000000               0.000023143               0.001970742               0.000000000              -0.000237664               0.000736129               0.000498465               0.000000000               0.000000000               0.000000000               0.000000000               0.000315450               0.003259739              -0.000260633              -0.000289173               0.001182960               0.000893787               0.000000000               0.000000000               0.000000000               0.000000000               0.000353040               0.002726861              -0.000176925              -0.000208467               0.000978434               0.000769966               0.000000000               0.000000000               0.000000000               0.000000000               0.000495154               0.002297476              -0.000089721              -0.000101501               0.000799652               0.000698150               0.000000000               0.000000000               0.000000000               0.000000000               0.000532042               0.002058954              -0.000047874              -0.000057853               0.000705596               0.000647742               0.000000000               0.000000000               0.000000000               0.000000000               0.000521907               0.001920201              -0.000027170              -0.000044310               0.000654830               0.000610520               0.000000000               0.000000000               0.000000000               0.000000000               0.000492173               0.001840477              -0.000017096              -0.000045495               0.000628651               0.000583156               0.000000000               0.000000000               0.000000000               0.000000000               0.000450388               0.001795255              -0.000012491              -0.000055511               0.000616916               0.000561405               0.000000000               0.000000000               0.000000000               0.000000000               0.000403612               0.001773407              -0.000010545              -0.000070321               0.000614570               0.000544249               0.000000000               0.000000000               0.000000000               0.000000000               0.000355982               0.001766587              -0.000009206              -0.000087330               0.000617966               0.000530636               0.000000000               0.000000000               0.000000000               0.000000000               0.000306980               0.001773522              -0.000007357              -0.000106573               0.000626692               0.000520120               0.000000000               0.000000000               0.000000000               0.000000000               0.000256575               0.001790284              -0.000004435              -0.000127569               0.000639278               0.000511709               0.000000000               0.000000000               0.000000000               0.000000000               0.000206505               0.001815832              -0.000003959              -0.000149539               0.000655118               0.000505578               0.000000000               0.000000000               0.000000000               0.000000000               0.000157967               0.001843817              -0.000006629              -0.000171239               0.000671679               0.000500440               0.000000000               0.000000000               0.000000000               0.000000000               0.000114328               0.001871106              -0.000010460              -0.000191015               0.000687367               0.000496353               0.000000000               0.000000000               0.000000000               0.000000000               0.000075275               0.001898052              -0.000009676              -0.000209028               0.000702353               0.000493326               0.000000000               0.000000000               0.000000000               0.000000000               0.000037390               0.001929756              -0.000003591              -0.000227198               0.000718978               0.000491780               0.000000000               0.000000000               0.000000000               0.000000000               0.000021945               0.001956955              -0.000001069              -0.000236389               0.000731108               0.000494719               0.000000000               0.000000000               0.000000000               0.000000000               0.000371927               0.003114397              -0.000495229              -0.000249827               0.001121397               0.000871571               0.000000000               0.000000000               0.000000000               0.000000000               0.000374752               0.002623191              -0.000336130              -0.000187366               0.000936844               0.000749477               0.000000000               0.000000000               0.000000000               0.000000000               0.000477524               0.002242204              -0.000171755              -0.000101204               0.000781128               0.000679925               0.000000000               0.000000000               0.000000000               0.000000000               0.000496045               0.002032735              -0.000095223              -0.000068075               0.000700263               0.000632188               0.000000000               0.000000000               0.000000000               0.000000000               0.000479594               0.001911032              -0.000057823              -0.000059031               0.000656681               0.000597650               0.000000000               0.000000000               0.000000000               0.000000000               0.000449238               0.001840263              -0.000039603              -0.000061569               0.000633938               0.000572369               0.000000000               0.000000000               0.000000000               0.000000000               0.000410496               0.001799947              -0.000030612              -0.000071057               0.000623662               0.000552605               0.000000000               0.000000000               0.000000000               0.000000000               0.000367884               0.001778440              -0.000026464              -0.000084348               0.000620924               0.000536575               0.000000000               0.000000000               0.000000000               0.000000000               0.000325619               0.001773432              -0.000022879              -0.000099572               0.000624329               0.000524757               0.000000000               0.000000000               0.000000000               0.000000000               0.000279910               0.001779950              -0.000018023              -0.000117527               0.000632487               0.000514959               0.000000000               0.000000000               0.000000000               0.000000000               0.000232269               0.001796036              -0.000012599              -0.000137403               0.000644474               0.000507070               0.000000000               0.000000000               0.000000000               0.000000000               0.000187594               0.001817711              -0.000010409              -0.000156866               0.000658186               0.000501320               0.000000000               0.000000000               0.000000000               0.000000000               0.000145718               0.001839789              -0.000014624              -0.000175329               0.000671700               0.000496371               0.000000000               0.000000000               0.000000000               0.000000000               0.000106623               0.001859647              -0.000020809              -0.000192472               0.000684033               0.000491562               0.000000000               0.000000000               0.000000000               0.000000000               0.000069446               0.001880049              -0.000018442              -0.000208963               0.000696331               0.000487368               0.000000000               0.000000000               0.000000000               0.000000000               0.000032855               0.001903399              -0.000006757              -0.000225604               0.000709661               0.000484058               0.000000000               0.000000000               0.000000000               0.000000000               0.000017552               0.001922074              -0.000001287              -0.000233677               0.000718577               0.000484900               0.000000000               0.000000000               0.000000000               0.000000000               0.000449329               0.002888421              -0.000683211              -0.000192554               0.001026982               0.000834428               0.000000000               0.000000000               0.000000000               0.000000000               0.000401444               0.002464224              -0.000465193              -0.000157486               0.000873895               0.000716409               0.000000000               0.000000000               0.000000000               0.000000000               0.000448473               0.002161385              -0.000242809              -0.000101996               0.000754453               0.000652457               0.000000000               0.000000000               0.000000000               0.000000000               0.000442805               0.001993881              -0.000142294              -0.000083183               0.000692348               0.000609165               0.000000000               0.000000000               0.000000000               0.000000000               0.000418342               0.001896409              -0.000094113              -0.000080173               0.000658854               0.000578682               0.000000000               0.000000000               0.000000000               0.000000000               0.000388179               0.001837952              -0.000069173              -0.000084177               0.000640703               0.000556527               0.000000000               0.000000000               0.000000000               0.000000000               0.000354894               0.001804232              -0.000056733              -0.000092444               0.000632219               0.000539776               0.000000000               0.000000000               0.000000000               0.000000000               0.000319128               0.001786807              -0.000048818              -0.000103678               0.000630155               0.000526478               0.000000000               0.000000000               0.000000000               0.000000000               0.000283195               0.001784536              -0.000041373              -0.000116869               0.000633796               0.000516927               0.000000000               0.000000000               0.000000000               0.000000000               0.000243124               0.001791385              -0.000032194              -0.000132751               0.000641373               0.000508621               0.000000000               0.000000000               0.000000000               0.000000000               0.000202788               0.001806538              -0.000022873              -0.000149771               0.000652097               0.000502326               0.000000000               0.000000000               0.000000000               0.000000000               0.000164907               0.001821380              -0.000019701              -0.000165832               0.000662398               0.000496566               0.000000000               0.000000000               0.000000000               0.000000000               0.000129353               0.001833617              -0.000023580              -0.000180694               0.000671431               0.000490737               0.000000000               0.000000000               0.000000000               0.000000000               0.000095966               0.001844994              -0.000027935              -0.000194637               0.000679871               0.000485234               0.000000000               0.000000000               0.000000000               0.000000000               0.000063238               0.001858512              -0.000021259              -0.000208599               0.000689031               0.000480432               0.000000000               0.000000000               0.000000000               0.000000000               0.000030243               0.001870256              -0.000007480              -0.000222440               0.000697559               0.000475119               0.000000000               0.000000000               0.000000000               0.000000000               0.000015509               0.001877564              -0.000002073              -0.000228879               0.000702141               0.000473263               0.000000000               0.000000000               0.000000000               0.000000000               0.000529501               0.002601007              -0.000814173              -0.000126563               0.000909181               0.000782618               0.000000000               0.000000000               0.000000000               0.000000000               0.000425132               0.002267763              -0.000558460              -0.000124046               0.000797262               0.000673216               0.000000000               0.000000000               0.000000000               0.000000000               0.000409969               0.002061727              -0.000301485              -0.000103977               0.000721894               0.000617917               0.000000000               0.000000000               0.000000000               0.000000000               0.000380776               0.001944853              -0.000188906              -0.000100315               0.000681716               0.000581401               0.000000000               0.000000000               0.000000000               0.000000000               0.000351723               0.001876313              -0.000134381              -0.000102643               0.000659646               0.000557003               0.000000000               0.000000000               0.000000000               0.000000000               0.000323804               0.001834289              -0.000105435              -0.000107859               0.000647377               0.000539517               0.000000000               0.000000000               0.000000000               0.000000000               0.000295290               0.001809066              -0.000088038              -0.000115399               0.000641482               0.000526083               0.000000000               0.000000000               0.000000000               0.000000000               0.000265647               0.001797510              -0.000074610              -0.000125071               0.000640854               0.000515783               0.000000000               0.000000000               0.000000000               0.000000000               0.000235206               0.001797771              -0.000061074              -0.000136519               0.000644757               0.000508238               0.000000000               0.000000000               0.000000000               0.000000000               0.000203266               0.001808089              -0.000045802              -0.000149786               0.000652619               0.000502833               0.000000000               0.000000000               0.000000000               0.000000000               0.000171654               0.001820635              -0.000033186              -0.000163209               0.000661275               0.000498067               0.000000000               0.000000000               0.000000000               0.000000000               0.000143527               0.001828742              -0.000028679              -0.000174770               0.000667831               0.000493061               0.000000000               0.000000000               0.000000000               0.000000000               0.000115576               0.001832738              -0.000029789              -0.000185751               0.000672823               0.000487073               0.000000000               0.000000000               0.000000000               0.000000000               0.000085978               0.001836810              -0.000027982              -0.000197359               0.000678050               0.000480691               0.000000000               0.000000000               0.000000000               0.000000000               0.000055993               0.001846420              -0.000018047              -0.000209804               0.000685402               0.000475597               0.000000000               0.000000000               0.000000000               0.000000000               0.000025120               0.001854041              -0.000007251              -0.000222335               0.000692119               0.000469785               0.000000000               0.000000000               0.000000000               0.000000000               0.000011976               0.001859454              -0.000004488              -0.000227940               0.000695792               0.000467852               0.000000000               0.000000000               0.000000000               0.000000000               0.000601456               0.002278704              -0.000884018              -0.000059293               0.000779324               0.000720032               0.000000000               0.000000000               0.000000000               0.000000000               0.000442276               0.002052849              -0.000616776              -0.000090753               0.000714527               0.000623774               0.000000000               0.000000000               0.000000000               0.000000000               0.000368693               0.001953839              -0.000349540              -0.000105970               0.000686597               0.000580627               0.000000000               0.000000000               0.000000000               0.000000000               0.000323634               0.001890112              -0.000234198              -0.000114901               0.000668331               0.000553430               0.000000000               0.000000000               0.000000000               0.000000000               0.000291107               0.001848624              -0.000176341              -0.000121913               0.000656840               0.000534927               0.000000000               0.000000000               0.000000000               0.000000000               0.000266054               0.001823875              -0.000142924              -0.000128214               0.000650690               0.000522476               0.000000000               0.000000000               0.000000000               0.000000000               0.000242872               0.001810579              -0.000119410              -0.000135245               0.000648602               0.000513357               0.000000000               0.000000000               0.000000000               0.000000000               0.000217612               0.001808590              -0.000099056              -0.000144469               0.000651014               0.000506545               0.000000000               0.000000000               0.000000000               0.000000000               0.000191920               0.001817857              -0.000078428              -0.000155262               0.000657700               0.000502439               0.000000000               0.000000000               0.000000000               0.000000000               0.000167566               0.001832071              -0.000057487              -0.000166171               0.000666075               0.000499903               0.000000000               0.000000000               0.000000000               0.000000000               0.000144378               0.001841093              -0.000042742              -0.000175994               0.000672356               0.000496362               0.000000000               0.000000000               0.000000000               0.000000000               0.000125587               0.001843050              -0.000036728              -0.000183286               0.000675439               0.000492154               0.000000000               0.000000000               0.000000000               0.000000000               0.000106483               0.001843221              -0.000034243              -0.000190471               0.000677891               0.000487420               0.000000000               0.000000000               0.000000000               0.000000000               0.000081073               0.001849315              -0.000025953              -0.000200761               0.000683353               0.000482591               0.000000000               0.000000000               0.000000000               0.000000000               0.000053103               0.001863635              -0.000012734              -0.000213040               0.000692219               0.000479179               0.000000000               0.000000000               0.000000000               0.000000000               0.000024427               0.001879393              -0.000005164              -0.000225764               0.000701713               0.000475949               0.000000000               0.000000000               0.000000000               0.000000000               0.000014010               0.001892856              -0.000005559              -0.000231352               0.000708063               0.000476711               0.000000000               0.000000000               0.000000000               0.000000000               0.000652683               0.001949674              -0.000897007               0.000001046               0.000649536               0.000650582               0.000000000               0.000000000               0.000000000               0.000000000               0.000453083               0.001837488              -0.000644412              -0.000059781               0.000632416               0.000572636               0.000000000               0.000000000               0.000000000               0.000000000               0.000331590               0.001844740              -0.000388613              -0.000106246               0.000650323               0.000544076               0.000000000               0.000000000               0.000000000               0.000000000               0.000277734               0.001827761              -0.000276407              -0.000124320               0.000650688               0.000526368               0.000000000               0.000000000               0.000000000               0.000000000               0.000245895               0.001812168              -0.000214981              -0.000134310               0.000648820               0.000514510               0.000000000               0.000000000               0.000000000               0.000000000               0.000225263               0.001807100              -0.000175451              -0.000141414               0.000649499               0.000508085               0.000000000               0.000000000               0.000000000               0.000000000               0.000205753               0.001810497              -0.000145282              -0.000149154               0.000653211               0.000504057               0.000000000               0.000000000               0.000000000               0.000000000               0.000182108               0.001823159              -0.000117933              -0.000159604               0.000660915               0.000501311               0.000000000               0.000000000               0.000000000               0.000000000               0.000157737               0.001840707              -0.000090527              -0.000170937               0.000670542               0.000499605               0.000000000               0.000000000               0.000000000               0.000000000               0.000138081               0.001858213              -0.000067216              -0.000180496               0.000679563               0.000499068               0.000000000               0.000000000               0.000000000               0.000000000               0.000122049               0.001865509              -0.000052706              -0.000187420               0.000684303               0.000496883               0.000000000               0.000000000               0.000000000               0.000000000               0.000110011               0.001868820              -0.000045335              -0.000192348               0.000687050               0.000494702               0.000000000               0.000000000               0.000000000               0.000000000               0.000096192               0.001878822              -0.000037577              -0.000198780               0.000692528               0.000493747               0.000000000               0.000000000               0.000000000               0.000000000               0.000075617               0.001901299              -0.000023834              -0.000209305               0.000703528               0.000494223               0.000000000               0.000000000               0.000000000               0.000000000               0.000051808               0.001929383              -0.000010013              -0.000221744               0.000717036               0.000495292               0.000000000               0.000000000               0.000000000               0.000000000               0.000025851               0.001957468              -0.000004013              -0.000234989               0.000730812               0.000495823               0.000000000               0.000000000               0.000000000               0.000000000               0.000016431               0.001978519              -0.000005572              -0.000241153               0.000739884               0.000498731               0.000000000               0.000000000               0.000000000               0.000000000               0.000680041               0.001631852              -0.000862841               0.000051032               0.000526934               0.000577966               0.000000000               0.000000000               0.000000000               0.000000000               0.000456613               0.001632975              -0.000646632              -0.000032893               0.000555283               0.000522391               0.000000000               0.000000000               0.000000000               0.000000000               0.000302818               0.001734578              -0.000419813              -0.000103266               0.000612609               0.000509343               0.000000000               0.000000000               0.000000000               0.000000000               0.000248464               0.001758799              -0.000311685              -0.000126676               0.000628486               0.000501810               0.000000000               0.000000000               0.000000000               0.000000000               0.000221872               0.001772261              -0.000245700              -0.000138331               0.000636858               0.000498527               0.000000000               0.000000000               0.000000000               0.000000000               0.000203539               0.001788350              -0.000199064              -0.000147216               0.000645183               0.000497966               0.000000000               0.000000000               0.000000000               0.000000000               0.000184588               0.001809673              -0.000161983              -0.000156988               0.000655548               0.000498559               0.000000000               0.000000000               0.000000000               0.000000000               0.000161430               0.001836181              -0.000128972              -0.000168986               0.000668383               0.000499397               0.000000000               0.000000000               0.000000000               0.000000000               0.000136452               0.001861958              -0.000097930              -0.000181575               0.000681171               0.000499597               0.000000000               0.000000000               0.000000000               0.000000000               0.000118642               0.001882454              -0.000073711              -0.000190815               0.000691084               0.000500268               0.000000000               0.000000000               0.000000000               0.000000000               0.000109706               0.001898596              -0.000058672              -0.000196184               0.000698254               0.000502070               0.000000000               0.000000000               0.000000000               0.000000000               0.000101355               0.001921629              -0.000047540              -0.000202195               0.000707935               0.000505740               0.000000000               0.000000000               0.000000000               0.000000000               0.000087248               0.001957908              -0.000034367              -0.000212020               0.000723303               0.000511283               0.000000000               0.000000000               0.000000000               0.000000000               0.000068185               0.002004312              -0.000017717              -0.000224969               0.000743087               0.000518118               0.000000000               0.000000000               0.000000000               0.000000000               0.000047837               0.002053493              -0.000005028              -0.000238747               0.000764073               0.000525326               0.000000000               0.000000000               0.000000000               0.000000000               0.000024458               0.002100544              -0.000001021              -0.000253396               0.000784640               0.000531244               0.000000000               0.000000000               0.000000000               0.000000000               0.000014640               0.002132367              -0.000003815              -0.000261055               0.000797800               0.000536745               0.000000000               0.000000000               0.000000000               0.000000000               0.000695327               0.001350241              -0.000795612               0.000091966               0.000419420               0.000511386               0.000000000               0.000000000               0.000000000               0.000000000               0.000464115               0.001446792              -0.000634528              -0.000006807               0.000484528               0.000477721               0.000000000               0.000000000               0.000000000               0.000000000               0.000292768               0.001629765              -0.000452027              -0.000093933               0.000574560               0.000480628               0.000000000               0.000000000               0.000000000               0.000000000               0.000241210               0.001696411              -0.000347143              -0.000121598               0.000605997               0.000484400               0.000000000               0.000000000               0.000000000               0.000000000               0.000221923               0.001738136              -0.000275974              -0.000134046               0.000624055               0.000490009               0.000000000               0.000000000               0.000000000               0.000000000               0.000204474               0.001770462              -0.000220994              -0.000144630               0.000638358               0.000493728               0.000000000               0.000000000               0.000000000               0.000000000               0.000183714               0.001805485              -0.000176676              -0.000156793               0.000654087               0.000497294               0.000000000               0.000000000               0.000000000               0.000000000               0.000159448               0.001844714              -0.000140010              -0.000170796               0.000671830               0.000501035               0.000000000               0.000000000               0.000000000               0.000000000               0.000136931               0.001881108              -0.000110304              -0.000183789               0.000688293               0.000504504               0.000000000               0.000000000               0.000000000               0.000000000               0.000122804               0.001909724              -0.000084438              -0.000192664               0.000700789               0.000508126               0.000000000               0.000000000               0.000000000               0.000000000               0.000118319               0.001940360              -0.000062327              -0.000198175               0.000712839               0.000514664               0.000000000               0.000000000               0.000000000               0.000000000               0.000110642               0.001983876              -0.000044045              -0.000206493               0.000730116               0.000523623               0.000000000               0.000000000               0.000000000               0.000000000               0.000094366               0.002043685              -0.000027131              -0.000220073               0.000754579               0.000534506               0.000000000               0.000000000               0.000000000               0.000000000               0.000075333               0.002114812              -0.000009431              -0.000236101               0.000783630               0.000547530               0.000000000               0.000000000               0.000000000               0.000000000               0.000059394               0.002186929               0.000002840              -0.000251093               0.000812666               0.000561574               0.000000000               0.000000000               0.000000000               0.000000000               0.000046331               0.002253453               0.000006546              -0.000264307               0.000839246               0.000574939               0.000000000               0.000000000               0.000000000               0.000000000               0.000039928               0.002291542               0.000005093              -0.000271469               0.000854329               0.000582860               0.000000000               0.000000000               0.000000000               0.000000000               0.000689036               0.001074789              -0.000711532               0.000124038               0.000316913               0.000440951               0.000000000               0.000000000               0.000000000               0.000000000               0.000479508               0.001227740              -0.000616331               0.000026347               0.000400460               0.000426807               0.000000000               0.000000000               0.000000000               0.000000000               0.000308322               0.001472446              -0.000491084              -0.000068435               0.000513622               0.000445187               0.000000000               0.000000000               0.000000000               0.000000000               0.000254996               0.001585689              -0.000393722              -0.000102588               0.000562753               0.000460166               0.000000000               0.000000000               0.000000000               0.000000000               0.000235029               0.001653156              -0.000318260              -0.000118509               0.000590549               0.000472041               0.000000000               0.000000000               0.000000000               0.000000000               0.000219703               0.001702409              -0.000255620              -0.000130412               0.000610935               0.000480522               0.000000000               0.000000000               0.000000000               0.000000000               0.000200763               0.001751910              -0.000205481              -0.000143702               0.000631865               0.000488163               0.000000000               0.000000000               0.000000000               0.000000000               0.000178853               0.001802031              -0.000166988              -0.000158184               0.000653399               0.000495215               0.000000000               0.000000000               0.000000000               0.000000000               0.000157719               0.001850185              -0.000137037              -0.000172128               0.000674098               0.000501970               0.000000000               0.000000000               0.000000000               0.000000000               0.000143297               0.001896907              -0.000108401              -0.000183376               0.000693421               0.000510045               0.000000000               0.000000000               0.000000000               0.000000000               0.000134064               0.001939426              -0.000079823              -0.000192154               0.000710520               0.000518366               0.000000000               0.000000000               0.000000000               0.000000000               0.000127760               0.001990228              -0.000054029              -0.000200868               0.000730359               0.000529490               0.000000000               0.000000000               0.000000000               0.000000000               0.000117182               0.002057611              -0.000030757              -0.000213258               0.000756949               0.000543692               0.000000000               0.000000000               0.000000000               0.000000000               0.000105260               0.002141913              -0.000012730              -0.000228266               0.000790053               0.000561786               0.000000000               0.000000000               0.000000000               0.000000000               0.000095875               0.002232691              -0.000002243              -0.000243133               0.000825267               0.000582135               0.000000000               0.000000000               0.000000000               0.000000000               0.000091843               0.002320549               0.000001260              -0.000255627               0.000858717               0.000603091               0.000000000               0.000000000               0.000000000               0.000000000               0.000087089               0.002362128               0.000003041              -0.000262607               0.000874904               0.000612297               0.000000000               0.000000000               0.000000000               0.000000000               0.000651765               0.000810400              -0.000611901               0.000143110               0.000222427               0.000365537               0.000000000               0.000000000               0.000000000               0.000000000               0.000495443               0.001006864              -0.000582836               0.000059932               0.000315640               0.000375572               0.000000000               0.000000000               0.000000000               0.000000000               0.000342916               0.001296006              -0.000518876              -0.000033408               0.000443133               0.000409726               0.000000000               0.000000000               0.000000000               0.000000000               0.000286460               0.001450283              -0.000437273              -0.000073863               0.000508044               0.000434181               0.000000000               0.000000000               0.000000000               0.000000000               0.000261070               0.001544338              -0.000362727              -0.000095141               0.000546488               0.000451347               0.000000000               0.000000000               0.000000000               0.000000000               0.000246059               0.001616471              -0.000296381              -0.000109787               0.000575414               0.000465627               0.000000000               0.000000000               0.000000000               0.000000000               0.000230890               0.001683893              -0.000241932              -0.000123903               0.000602593               0.000478690               0.000000000               0.000000000               0.000000000               0.000000000               0.000211168               0.001745944              -0.000201089              -0.000139055               0.000628327               0.000489272               0.000000000               0.000000000               0.000000000               0.000000000               0.000189092               0.001805567              -0.000169504              -0.000154786               0.000653445               0.000498659               0.000000000               0.000000000               0.000000000               0.000000000               0.000170472               0.001863087              -0.000138203              -0.000168958               0.000677342               0.000508384               0.000000000               0.000000000               0.000000000               0.000000000               0.000158357               0.001916081              -0.000105396              -0.000180126               0.000698729               0.000518603               0.000000000               0.000000000               0.000000000               0.000000000               0.000152697               0.001973723              -0.000073648              -0.000189454               0.000721052               0.000531599               0.000000000               0.000000000               0.000000000               0.000000000               0.000150356               0.002041538              -0.000046083              -0.000198808               0.000746775               0.000547967               0.000000000               0.000000000               0.000000000               0.000000000               0.000149542               0.002124225              -0.000027316              -0.000209449               0.000777884               0.000568435               0.000000000               0.000000000               0.000000000               0.000000000               0.000147771               0.002217187              -0.000015631              -0.000221734               0.000812966               0.000591233               0.000000000               0.000000000               0.000000000               0.000000000               0.000145225               0.002314902              -0.000007633              -0.000234903               0.000849927               0.000615024               0.000000000               0.000000000               0.000000000               0.000000000               0.000135313               0.002357800              -0.000000239              -0.000243982               0.000867253               0.000623271               0.000000000               0.000000000               0.000000000               0.000000000               0.000585487               0.000573007              -0.000496855               0.000147930               0.000141690               0.000289620               0.000000000               0.000000000               0.000000000               0.000000000               0.000498603               0.000794324              -0.000524513               0.000087684               0.000235544               0.000323228               0.000000000               0.000000000               0.000000000               0.000000000               0.000384704               0.001101216              -0.000516083               0.000006611               0.000364865               0.000371476               0.000000000               0.000000000               0.000000000               0.000000000               0.000329825               0.001285846              -0.000456867              -0.000037047               0.000440960               0.000403913               0.000000000               0.000000000               0.000000000               0.000000000               0.000299411               0.001409310              -0.000389786              -0.000063885               0.000491060               0.000427175               0.000000000               0.000000000               0.000000000               0.000000000               0.000280976               0.001506446              -0.000325434              -0.000082940               0.000529790               0.000446851               0.000000000               0.000000000               0.000000000               0.000000000               0.000265898               0.001594098              -0.000270574              -0.000099550               0.000564544               0.000464994               0.000000000               0.000000000               0.000000000               0.000000000               0.000248326               0.001673848              -0.000227827              -0.000116109               0.000596647               0.000480538               0.000000000               0.000000000               0.000000000               0.000000000               0.000226094               0.001744764              -0.000194535              -0.000133310               0.000626019               0.000492709               0.000000000               0.000000000               0.000000000               0.000000000               0.000202059               0.001808400              -0.000162875              -0.000150278               0.000652887               0.000502609               0.000000000               0.000000000               0.000000000               0.000000000               0.000187164               0.001871895              -0.000130936              -0.000163800               0.000678559               0.000514759               0.000000000               0.000000000               0.000000000               0.000000000               0.000183255               0.001938983              -0.000098766              -0.000173652               0.000704205               0.000530553               0.000000000               0.000000000               0.000000000               0.000000000               0.000187054               0.002016580              -0.000069987              -0.000181927               0.000732829               0.000550902               0.000000000               0.000000000               0.000000000               0.000000000               0.000193773               0.002106736              -0.000049031              -0.000190676               0.000765797               0.000575121               0.000000000               0.000000000               0.000000000               0.000000000               0.000198604               0.002204269              -0.000034757              -0.000201056               0.000801768               0.000600711               0.000000000               0.000000000               0.000000000               0.000000000               0.000195563               0.002306963              -0.000019654              -0.000215034               0.000840658               0.000625624               0.000000000               0.000000000               0.000000000               0.000000000               0.000180013               0.002350769              -0.000006454              -0.000226341               0.000859029               0.000632688               0.000000000               0.000000000               0.000000000               0.000000000               0.000497294               0.000379350              -0.000375288               0.000139065               0.000080093               0.000219158               0.000000000               0.000000000               0.000000000               0.000000000               0.000489424               0.000599603              -0.000443447               0.000108582               0.000163672               0.000272254               0.000000000               0.000000000               0.000000000               0.000000000               0.000429190               0.000899749              -0.000478140               0.000048477               0.000283754               0.000332231               0.000000000               0.000000000               0.000000000               0.000000000               0.000383976               0.001105823              -0.000441892               0.000005763               0.000366683               0.000372446               0.000000000               0.000000000               0.000000000               0.000000000               0.000349728               0.001254900              -0.000388008              -0.000025715               0.000426867               0.000401152               0.000000000               0.000000000               0.000000000               0.000000000               0.000327691               0.001376253              -0.000330879              -0.000049148               0.000475129               0.000425981               0.000000000               0.000000000               0.000000000               0.000000000               0.000308968               0.001483097              -0.000279824              -0.000069524               0.000517536               0.000448011               0.000000000               0.000000000               0.000000000               0.000000000               0.000291131               0.001579410              -0.000238588              -0.000088252               0.000555882               0.000467630               0.000000000               0.000000000               0.000000000               0.000000000               0.000270113               0.001661956              -0.000204783              -0.000106452               0.000589464               0.000483012               0.000000000               0.000000000               0.000000000               0.000000000               0.000248432               0.001733174              -0.000175670              -0.000123485               0.000618881               0.000495396               0.000000000               0.000000000               0.000000000               0.000000000               0.000230952               0.001806015              -0.000148833              -0.000139145               0.000648381               0.000509236               0.000000000               0.000000000               0.000000000               0.000000000               0.000223703               0.001887144              -0.000120410              -0.000152004               0.000679710               0.000527706               0.000000000               0.000000000               0.000000000               0.000000000               0.000228694               0.001982903              -0.000092720              -0.000162102               0.000714995               0.000552893               0.000000000               0.000000000               0.000000000               0.000000000               0.000239601               0.002089790              -0.000071512              -0.000171373               0.000753714               0.000582341               0.000000000               0.000000000               0.000000000               0.000000000               0.000249608               0.002202177              -0.000052746              -0.000181669               0.000794608               0.000612939               0.000000000               0.000000000               0.000000000               0.000000000               0.000250680               0.002312698              -0.000028676              -0.000195082               0.000835919               0.000640837               0.000000000               0.000000000               0.000000000               0.000000000               0.000236959               0.002358840              -0.000011546              -0.000205995               0.000854937               0.000648942               0.000000000               0.000000000               0.000000000               0.000000000               0.000401845               0.000236517              -0.000259655               0.000121126               0.000038463               0.000159589               0.000000000               0.000000000               0.000000000               0.000000000               0.000472383               0.000435755              -0.000344646               0.000122673               0.000104359               0.000227032               0.000000000               0.000000000               0.000000000               0.000000000               0.000472021               0.000711276              -0.000402660               0.000088097               0.000207724               0.000295821               0.000000000               0.000000000               0.000000000               0.000000000               0.000442468               0.000927400              -0.000386140               0.000050000               0.000292464               0.000342463               0.000000000               0.000000000               0.000000000               0.000000000               0.000408939               0.001096594              -0.000347474               0.000016277               0.000360102               0.000376379               0.000000000               0.000000000               0.000000000               0.000000000               0.000380518               0.001237143              -0.000301821              -0.000011949               0.000416360               0.000404411               0.000000000               0.000000000               0.000000000               0.000000000               0.000359255               0.001360587              -0.000259010              -0.000035353               0.000465309               0.000429956               0.000000000               0.000000000               0.000000000               0.000000000               0.000338441               0.001468077              -0.000223637              -0.000056594               0.000508219               0.000451625               0.000000000               0.000000000               0.000000000               0.000000000               0.000318719               0.001561124              -0.000194523              -0.000075621               0.000545576               0.000469955               0.000000000               0.000000000               0.000000000               0.000000000               0.000300132               0.001647791              -0.000169532              -0.000093424               0.000580400               0.000486975               0.000000000               0.000000000               0.000000000               0.000000000               0.000283325               0.001737212              -0.000146259              -0.000110904               0.000616033               0.000505129               0.000000000               0.000000000               0.000000000               0.000000000               0.000271979               0.001836166              -0.000125637              -0.000127528               0.000654559               0.000527030               0.000000000               0.000000000               0.000000000               0.000000000               0.000277145               0.001950040              -0.000106522              -0.000139825               0.000696615               0.000556790               0.000000000               0.000000000               0.000000000               0.000000000               0.000291345               0.002073430              -0.000086825              -0.000149924               0.000741111               0.000591187               0.000000000               0.000000000               0.000000000               0.000000000               0.000303862               0.002199897              -0.000064745              -0.000161039               0.000786971               0.000625933               0.000000000               0.000000000               0.000000000               0.000000000               0.000310343               0.002317787              -0.000035525              -0.000173344               0.000830369               0.000657025               0.000000000               0.000000000               0.000000000               0.000000000               0.000304074               0.002368023              -0.000016752              -0.000181975               0.000849991               0.000668017               0.000000000               0.000000000               0.000000000               0.000000000               0.000314829               0.000144013              -0.000159928               0.000100058               0.000014651               0.000114709               0.000000000               0.000000000               0.000000000               0.000000000               0.000452041               0.000312843              -0.000235186               0.000130409               0.000060810               0.000191219               0.000000000               0.000000000               0.000000000               0.000000000               0.000508017               0.000555613              -0.000291859               0.000121053               0.000144851               0.000265905               0.000000000               0.000000000               0.000000000               0.000000000               0.000495216               0.000772724              -0.000288034               0.000089114               0.000227867               0.000316982               0.000000000               0.000000000               0.000000000               0.000000000               0.000464383               0.000955845              -0.000263636               0.000054662               0.000300391               0.000355053               0.000000000               0.000000000               0.000000000               0.000000000               0.000432150               0.001110516              -0.000232553               0.000023241               0.000362421               0.000385663               0.000000000               0.000000000               0.000000000               0.000000000               0.000406728               0.001245850              -0.000202250              -0.000003209               0.000416349               0.000413140               0.000000000               0.000000000               0.000000000               0.000000000               0.000383205               0.001360415              -0.000177054              -0.000026350               0.000462250               0.000435900               0.000000000               0.000000000               0.000000000               0.000000000               0.000362238               0.001463945              -0.000156181              -0.000047154               0.000503695               0.000456541               0.000000000               0.000000000               0.000000000               0.000000000               0.000344141               0.001569435              -0.000136304              -0.000067126               0.000545515               0.000478389               0.000000000               0.000000000               0.000000000               0.000000000               0.000329703               0.001678147              -0.000118318              -0.000086130               0.000588087               0.000501957               0.000000000               0.000000000               0.000000000               0.000000000               0.000324774               0.001795327              -0.000106988              -0.000102625               0.000632645               0.000530019               0.000000000               0.000000000               0.000000000               0.000000000               0.000328574               0.001922348              -0.000098570              -0.000117078               0.000679802               0.000562724               0.000000000               0.000000000               0.000000000               0.000000000               0.000341785               0.002056069              -0.000084299              -0.000128839               0.000728296               0.000599457               0.000000000               0.000000000               0.000000000               0.000000000               0.000358578               0.002190134              -0.000062235              -0.000139300               0.000776470               0.000637171               0.000000000               0.000000000               0.000000000               0.000000000               0.000371808               0.002313075              -0.000033883              -0.000149706               0.000820919               0.000671213               0.000000000               0.000000000               0.000000000               0.000000000               0.000373446               0.002367596              -0.000017583              -0.000155907               0.000841160               0.000685253               0.000000000               0.000000000               0.000000000               0.000000000               0.000254064               0.000089608              -0.000075488               0.000084072               0.000001845               0.000085917               0.000000000               0.000000000               0.000000000               0.000000000               0.000436098               0.000234407              -0.000118744               0.000134235               0.000033390               0.000167625               0.000000000               0.000000000               0.000000000               0.000000000               0.000530147               0.000452103              -0.000152912               0.000142291               0.000103269               0.000245560               0.000000000               0.000000000               0.000000000               0.000000000               0.000532636               0.000667332              -0.000154265               0.000116321               0.000183668               0.000299989               0.000000000               0.000000000               0.000000000               0.000000000               0.000503949               0.000857134              -0.000142799               0.000081838               0.000258429               0.000340267               0.000000000               0.000000000               0.000000000               0.000000000               0.000471235               0.001021568              -0.000127071               0.000049017               0.000324180               0.000373197               0.000000000               0.000000000               0.000000000               0.000000000               0.000441151               0.001162624              -0.000111687               0.000020103               0.000380836               0.000400940               0.000000000               0.000000000               0.000000000               0.000000000               0.000414570               0.001282616              -0.000098561              -0.000004863               0.000429156               0.000424292               0.000000000               0.000000000               0.000000000               0.000000000               0.000390937               0.001395292              -0.000087874              -0.000027810               0.000474363               0.000446553               0.000000000               0.000000000               0.000000000               0.000000000               0.000374590               0.001511943              -0.000075740              -0.000048522               0.000520150               0.000471628               0.000000000               0.000000000               0.000000000               0.000000000               0.000366549               0.001634919              -0.000066757              -0.000066909               0.000567270               0.000500362               0.000000000               0.000000000               0.000000000               0.000000000               0.000367298               0.001767542              -0.000063100              -0.000083206               0.000616910               0.000533704               0.000000000               0.000000000               0.000000000               0.000000000               0.000371314               0.001906679              -0.000060035              -0.000099092               0.000668584               0.000569492               0.000000000               0.000000000               0.000000000               0.000000000               0.000379405               0.002043937              -0.000054305              -0.000113215               0.000719044               0.000605829               0.000000000               0.000000000               0.000000000               0.000000000               0.000394439               0.002172110              -0.000039366              -0.000123599               0.000765229               0.000641630               0.000000000               0.000000000               0.000000000               0.000000000               0.000419703               0.002295975              -0.000018340              -0.000129608               0.000808520               0.000678912               0.000000000               0.000000000               0.000000000               0.000000000               0.000435550               0.002357144              -0.000007540              -0.000131311               0.000829477               0.000698166               0.000000000               0.000000000               0.000000000               0.000000000               0.000000000               0.000000000               0.000000000               0.000000000               0.000000000               0.000000000               0.000000000               0.000000000               0.000000000               0.000000000               0.000000000               0.000000000               0.000000000               0.000000000               0.000000000               0.000000000               0.000000000               0.000000000               0.000000000               0.000000000               0.000000000               0.000000000               0.000000000               0.000000000               0.000000000               0.000000000               0.000000000               0.000000000               0.000000000               0.000000000               0.000000000               0.000000000               0.000000000               0.000000000               0.000000000               0.000000000               0.000000000               0.000000000               0.000000000               0.000000000               0.000000000               0.000000000               0.000000000               0.000000000               0.000000000               0.000000000               0.000000000               0.000000000               0.000000000               0.000000000               0.000000000               0.000000000               0.000000000               0.000000000               0.000000000               0.000000000               0.000000000               0.000000000               0.000000000               0.000000000               0.000000000               0.000000000               0.000000000               0.000000000               0.000000000               0.000000000               0.000000000               0.000000000               0.000000000               0.000000000               0.000000000               0.000000000               0.000000000               0.000000000               0.000000000               0.000000000               0.000000000               0.000000000               0.000000000               0.000000000               0.000000000               0.000000000               0.000000000               0.000000000               0.000000000               0.000000000               0.000000000               0.000000000               0.000000000               0.000000000               0.000000000               0.000000000               0.000000000               0.000000000               0.000000000               0.000000000               0.000000000               0.000000000               0.000000000               0.000000000               0.000000000               0.000000000               0.000000000               0.000000000               0.000000000               0.000000000               0.000000000               0.000000000               0.000000000               0.000000000               0.000000000               0.000000000               0.000000000               0.000000000               0.000000000               0.000000000               0.000000000               0.000000000               0.000000000               0.000000000               0.000000000               0.000000000               0.000000000               0.000000000               0.000000000               0.000000000               0.000000000               0.000000000               0.000000000               0.000000000               0.000000000               0.000000000               0.000000000               0.000000000               0.000000000               0.000000000               0.000000000               0.000000000               0.000000000               0.000000000               0.000000000               0.000000000               0.000000000               0.000000000               0.000000000               0.000000000               0.000000000               0.000000000               0.000000000               0.000000000               0.000000000               0.000000000               0.000000000               0.000000000               0.000000000               0.000000000               0.000000000               0.000000000               0.000000000               0.000000000               0.000000000               0.000000000               0.000000000               0.000000000               0.000000000               0.000000000               0.000000000               0.000000000               0.000000000               0.000000000               0.000000000               0.000000000               0.000000000               0.000000000               0.000000000               0.000000000               0.000000000               0.000000000               0.000000000               0.000000000               0.000000000               0.000000000               0.000000000               0.000000000               0.000000000               0.000000000               0.000000000               0.000000000               0.000000000               0.000000000               0.000000000               0.000000000               0.000000000               0.000000000               0.000000000               0.000000000               0.000000000               0.000000000               0.000000000               0.000000000               0.000000000               0.000000000               0.000000000               0.000000000               0.000000000               0.000000000               0.000000000               0.000000000               0.000000000               0.000000000               0.000000000               0.000000000               0.000000000               0.000000000               0.000000000               0.000000000               0.000000000               0.000000000               0.000000000               0.000000000               0.000000000               0.000000000               0.000000000               0.000000000               0.000000000               0.000000000               0.000000000               0.000000000               0.000000000               0.000000000               0.000000000               0.000000000               0.000000000               0.000000000               0.000000000               0.000000000               0.000000000               0.000000000               0.000000000               0.000000000               0.000000000               0.000000000               0.000000000               0.000000000               0.000000000               0.000000000               0.000000000               0.000000000               0.000000000               0.000000000               0.000000000               0.000000000               0.000000000               0.000000000               0.000000000               0.000000000               0.000000000               0.000000000               0.000000000               0.000000000               0.000000000               0.000000000               0.000000000               0.000000000               0.000000000               0.000000000               0.000000000               0.000000000               0.000000000               0.000000000               0.000000000               0.000000000               0.000000000               0.000000000               0.000000000               0.000000000               0.000000000               0.000000000               0.000000000               0.000000000               0.000000000               0.000000000               0.000000000               0.000000000               0.000000000               0.000000000               0.000000000               0.000000000               0.000000000               0.000000000               0.000000000               0.000000000               0.000000000               0.000000000               0.000000000               0.000000000               0.000000000               0.000000000               0.000000000               0.000000000               0.000000000               0.000000000               0.000000000               0.000000000               0.000000000               0.000000000               0.000000000               0.000000000               0.000000000               0.000000000               0.000000000               0.000000000               0.000000000               0.000000000               0.000000000               0.000000000               0.000000000               0.000000000               0.000000000               0.000000000               0.000000000               0.000000000               0.000000000               0.000000000               0.000000000               0.000000000               0.000000000               0.000000000               0.000000000               0.000000000               0.000000000               0.000000000               0.000000000               0.000000000               0.000000000               0.000000000               0.000000000               0.000000000               0.000000000               0.000000000               0.000315450               0.003259739               0.000260633              -0.000289173               0.001182960               0.000893787               0.000000000               0.000000000               0.000000000               0.000000000               0.000353040               0.002726861               0.000176925              -0.000208467               0.000978434               0.000769966               0.000000000               0.000000000               0.000000000               0.000000000               0.000495154               0.002297476               0.000089721              -0.000101501               0.000799652               0.000698150               0.000000000               0.000000000               0.000000000               0.000000000               0.000532042               0.002058954               0.000047874              -0.000057853               0.000705596               0.000647742               0.000000000               0.000000000               0.000000000               0.000000000               0.000521907               0.001920201               0.000027170              -0.000044310               0.000654830               0.000610520               0.000000000               0.000000000               0.000000000               0.000000000               0.000492173               0.001840477               0.000017096              -0.000045495               0.000628651               0.000583156               0.000000000               0.000000000               0.000000000               0.000000000               0.000450388               0.001795255               0.000012491              -0.000055511               0.000616916               0.000561405               0.000000000               0.000000000               0.000000000               0.000000000               0.000403612               0.001773407               0.000010545              -0.000070321               0.000614570               0.000544249               0.000000000               0.000000000               0.000000000               0.000000000               0.000355982               0.001766587               0.000009206              -0.000087330               0.000617966               0.000530636               0.000000000               0.000000000               0.000000000               0.000000000               0.000306980               0.001773522               0.000007357              -0.000106573               0.000626692               0.000520120               0.000000000               0.000000000               0.000000000               0.000000000               0.000256575               0.001790284               0.000004435              -0.000127569               0.000639278               0.000511709               0.000000000               0.000000000               0.000000000               0.000000000               0.000206505               0.001815832               0.000003959              -0.000149539               0.000655118               0.000505578               0.000000000               0.000000000               0.000000000               0.000000000               0.000157967               0.001843817               0.000006629              -0.000171239               0.000671679               0.000500440               0.000000000               0.000000000               0.000000000               0.000000000               0.000114328               0.001871106               0.000010460              -0.000191015               0.000687367               0.000496353               0.000000000               0.000000000               0.000000000               0.000000000               0.000075275               0.001898052               0.000009676              -0.000209028               0.000702353               0.000493326               0.000000000               0.000000000               0.000000000               0.000000000               0.000037390               0.001929756               0.000003591              -0.000227198               0.000718978               0.000491780               0.000000000               0.000000000               0.000000000               0.000000000               0.000021945               0.001956955               0.000001069              -0.000236389               0.000731108               0.000494719               0.000000000               0.000000000               0.000000000               0.000000000               0.000371927               0.003114397               0.000495229              -0.000249827               0.001121397               0.000871571               0.000000000               0.000000000               0.000000000               0.000000000               0.000374752               0.002623191               0.000336130              -0.000187366               0.000936844               0.000749477               0.000000000               0.000000000               0.000000000               0.000000000               0.000477524               0.002242204               0.000171755              -0.000101204               0.000781128               0.000679925               0.000000000               0.000000000               0.000000000               0.000000000               0.000496045               0.002032735               0.000095223              -0.000068075               0.000700263               0.000632188               0.000000000               0.000000000               0.000000000               0.000000000               0.000479594               0.001911032               0.000057823              -0.000059031               0.000656681               0.000597650               0.000000000               0.000000000               0.000000000               0.000000000               0.000449238               0.001840263               0.000039603              -0.000061569               0.000633938               0.000572369               0.000000000               0.000000000               0.000000000               0.000000000               0.000410496               0.001799947               0.000030612              -0.000071057               0.000623662               0.000552605               0.000000000               0.000000000               0.000000000               0.000000000               0.000367884               0.001778440               0.000026464              -0.000084348               0.000620924               0.000536575               0.000000000               0.000000000               0.000000000               0.000000000               0.000325619               0.001773432               0.000022879              -0.000099572               0.000624329               0.000524757               0.000000000               0.000000000               0.000000000               0.000000000               0.000279910               0.001779950               0.000018023              -0.000117527               0.000632487               0.000514959               0.000000000               0.000000000               0.000000000               0.000000000               0.000232269               0.001796036               0.000012599              -0.000137403               0.000644474               0.000507070               0.000000000               0.000000000               0.000000000               0.000000000               0.000187594               0.001817711               0.000010409              -0.000156866               0.000658186               0.000501320               0.000000000               0.000000000               0.000000000               0.000000000               0.000145718               0.001839789               0.000014624              -0.000175329               0.000671700               0.000496371               0.000000000               0.000000000               0.000000000               0.000000000               0.000106623               0.001859647               0.000020809              -0.000192472               0.000684033               0.000491562               0.000000000               0.000000000               0.000000000               0.000000000               0.000069446               0.001880049               0.000018442              -0.000208963               0.000696331               0.000487368               0.000000000               0.000000000               0.000000000               0.000000000               0.000032855               0.001903399               0.000006757              -0.000225604               0.000709661               0.000484058               0.000000000               0.000000000               0.000000000               0.000000000               0.000017552               0.001922074               0.000001287              -0.000233677               0.000718577               0.000484900               0.000000000               0.000000000               0.000000000               0.000000000               0.000449329               0.002888421               0.000683211              -0.000192554               0.001026982               0.000834428               0.000000000               0.000000000               0.000000000               0.000000000               0.000401444               0.002464224               0.000465193              -0.000157486               0.000873895               0.000716409               0.000000000               0.000000000               0.000000000               0.000000000               0.000448473               0.002161385               0.000242809              -0.000101996               0.000754453               0.000652457               0.000000000               0.000000000               0.000000000               0.000000000               0.000442805               0.001993881               0.000142294              -0.000083183               0.000692348               0.000609165               0.000000000               0.000000000               0.000000000               0.000000000               0.000418342               0.001896409               0.000094113              -0.000080173               0.000658854               0.000578682               0.000000000               0.000000000               0.000000000               0.000000000               0.000388179               0.001837952               0.000069173              -0.000084177               0.000640703               0.000556527               0.000000000               0.000000000               0.000000000               0.000000000               0.000354894               0.001804232               0.000056733              -0.000092444               0.000632219               0.000539776               0.000000000               0.000000000               0.000000000               0.000000000               0.000319128               0.001786807               0.000048818              -0.000103678               0.000630155               0.000526478               0.000000000               0.000000000               0.000000000               0.000000000               0.000283195               0.001784536               0.000041373              -0.000116869               0.000633796               0.000516927               0.000000000               0.000000000               0.000000000               0.000000000               0.000243124               0.001791385               0.000032194              -0.000132751               0.000641373               0.000508621               0.000000000               0.000000000               0.000000000               0.000000000               0.000202788               0.001806538               0.000022873              -0.000149771               0.000652097               0.000502326               0.000000000               0.000000000               0.000000000               0.000000000               0.000164907               0.001821380               0.000019701              -0.000165832               0.000662398               0.000496566               0.000000000               0.000000000               0.000000000               0.000000000               0.000129353               0.001833617               0.000023580              -0.000180694               0.000671431               0.000490737               0.000000000               0.000000000               0.000000000               0.000000000               0.000095966               0.001844994               0.000027935              -0.000194637               0.000679871               0.000485234               0.000000000               0.000000000               0.000000000               0.000000000               0.000063238               0.001858512               0.000021259              -0.000208599               0.000689031               0.000480432               0.000000000               0.000000000               0.000000000               0.000000000               0.000030243               0.001870256               0.000007480              -0.000222440               0.000697559               0.000475119               0.000000000               0.000000000               0.000000000               0.000000000               0.000015509               0.001877564               0.000002073              -0.000228879               0.000702141               0.000473263               0.000000000               0.000000000               0.000000000               0.000000000               0.000529501               0.002601007               0.000814173              -0.000126563               0.000909181               0.000782618               0.000000000               0.000000000               0.000000000               0.000000000               0.000425132               0.002267763               0.000558460              -0.000124046               0.000797262               0.000673216               0.000000000               0.000000000               0.000000000               0.000000000               0.000409969               0.002061727               0.000301485              -0.000103977               0.000721894               0.000617917               0.000000000               0.000000000               0.000000000               0.000000000               0.000380776               0.001944853               0.000188906              -0.000100315               0.000681716               0.000581401               0.000000000               0.000000000               0.000000000               0.000000000               0.000351723               0.001876313               0.000134381              -0.000102643               0.000659646               0.000557003               0.000000000               0.000000000               0.000000000               0.000000000               0.000323804               0.001834289               0.000105435              -0.000107859               0.000647377               0.000539517               0.000000000               0.000000000               0.000000000               0.000000000               0.000295290               0.001809066               0.000088038              -0.000115399               0.000641482               0.000526083               0.000000000               0.000000000               0.000000000               0.000000000               0.000265647               0.001797510               0.000074610              -0.000125071               0.000640854               0.000515783               0.000000000               0.000000000               0.000000000               0.000000000               0.000235206               0.001797771               0.000061074              -0.000136519               0.000644757               0.000508238               0.000000000               0.000000000               0.000000000               0.000000000               0.000203266               0.001808089               0.000045802              -0.000149786               0.000652619               0.000502833               0.000000000               0.000000000               0.000000000               0.000000000               0.000171654               0.001820635               0.000033186              -0.000163209               0.000661275               0.000498067               0.000000000               0.000000000               0.000000000               0.000000000               0.000143527               0.001828742               0.000028679              -0.000174770               0.000667831               0.000493061               0.000000000               0.000000000               0.000000000               0.000000000               0.000115576               0.001832738               0.000029789              -0.000185751               0.000672823               0.000487073               0.000000000               0.000000000               0.000000000               0.000000000               0.000085978               0.001836810               0.000027982              -0.000197359               0.000678050               0.000480691               0.000000000               0.000000000               0.000000000               0.000000000               0.000055993               0.001846420               0.000018047              -0.000209804               0.000685402               0.000475597               0.000000000               0.000000000               0.000000000               0.000000000               0.000025120               0.001854041               0.000007251              -0.000222335               0.000692119               0.000469785               0.000000000               0.000000000               0.000000000               0.000000000               0.000011976               0.001859454               0.000004488              -0.000227940               0.000695792               0.000467852               0.000000000               0.000000000               0.000000000               0.000000000               0.000601456               0.002278704               0.000884018              -0.000059293               0.000779324               0.000720032               0.000000000               0.000000000               0.000000000               0.000000000               0.000442276               0.002052849               0.000616776              -0.000090753               0.000714527               0.000623774               0.000000000               0.000000000               0.000000000               0.000000000               0.000368693               0.001953839               0.000349540              -0.000105970               0.000686597               0.000580627               0.000000000               0.000000000               0.000000000               0.000000000               0.000323634               0.001890112               0.000234198              -0.000114901               0.000668331               0.000553430               0.000000000               0.000000000               0.000000000               0.000000000               0.000291107               0.001848624               0.000176341              -0.000121913               0.000656840               0.000534927               0.000000000               0.000000000               0.000000000               0.000000000               0.000266054               0.001823875               0.000142924              -0.000128214               0.000650690               0.000522476               0.000000000               0.000000000               0.000000000               0.000000000               0.000242872               0.001810579               0.000119410              -0.000135245               0.000648602               0.000513357               0.000000000               0.000000000               0.000000000               0.000000000               0.000217612               0.001808590               0.000099056              -0.000144469               0.000651014               0.000506545               0.000000000               0.000000000               0.000000000               0.000000000               0.000191920               0.001817857               0.000078428              -0.000155262               0.000657700               0.000502439               0.000000000               0.000000000               0.000000000               0.000000000               0.000167566               0.001832071               0.000057487              -0.000166171               0.000666075               0.000499903               0.000000000               0.000000000               0.000000000               0.000000000               0.000144378               0.001841093               0.000042742              -0.000175994               0.000672356               0.000496362               0.000000000               0.000000000               0.000000000               0.000000000               0.000125587               0.001843050               0.000036728              -0.000183286               0.000675439               0.000492154               0.000000000               0.000000000               0.000000000               0.000000000               0.000106483               0.001843221               0.000034243              -0.000190471               0.000677891               0.000487420               0.000000000               0.000000000               0.000000000               0.000000000               0.000081073               0.001849315               0.000025953              -0.000200761               0.000683353               0.000482591               0.000000000               0.000000000               0.000000000               0.000000000               0.000053103               0.001863635               0.000012734              -0.000213040               0.000692219               0.000479179               0.000000000               0.000000000               0.000000000               0.000000000               0.000024427               0.001879393               0.000005164              -0.000225764               0.000701713               0.000475949               0.000000000               0.000000000               0.000000000               0.000000000               0.000014010               0.001892856               0.000005559              -0.000231352               0.000708063               0.000476711               0.000000000               0.000000000               0.000000000               0.000000000               0.000652683               0.001949674               0.000897007               0.000001046               0.000649536               0.000650582               0.000000000               0.000000000               0.000000000               0.000000000               0.000453083               0.001837488               0.000644412              -0.000059781               0.000632416               0.000572636               0.000000000               0.000000000               0.000000000               0.000000000               0.000331590               0.001844740               0.000388613              -0.000106246               0.000650323               0.000544076               0.000000000               0.000000000               0.000000000               0.000000000               0.000277734               0.001827761               0.000276407              -0.000124320               0.000650688               0.000526368               0.000000000               0.000000000               0.000000000               0.000000000               0.000245895               0.001812168               0.000214981              -0.000134310               0.000648820               0.000514510               0.000000000               0.000000000               0.000000000               0.000000000               0.000225263               0.001807100               0.000175451              -0.000141414               0.000649499               0.000508085               0.000000000               0.000000000               0.000000000               0.000000000               0.000205753               0.001810497               0.000145282              -0.000149154               0.000653211               0.000504057               0.000000000               0.000000000               0.000000000               0.000000000               0.000182108               0.001823159               0.000117933              -0.000159604               0.000660915               0.000501311               0.000000000               0.000000000               0.000000000               0.000000000               0.000157737               0.001840707               0.000090527              -0.000170937               0.000670542               0.000499605               0.000000000               0.000000000               0.000000000               0.000000000               0.000138081               0.001858213               0.000067216              -0.000180496               0.000679563               0.000499068               0.000000000               0.000000000               0.000000000               0.000000000               0.000122049               0.001865509               0.000052706              -0.000187420               0.000684303               0.000496883               0.000000000               0.000000000               0.000000000               0.000000000               0.000110011               0.001868820               0.000045335              -0.000192348               0.000687050               0.000494702               0.000000000               0.000000000               0.000000000               0.000000000               0.000096192               0.001878822               0.000037577              -0.000198780               0.000692528               0.000493747               0.000000000               0.000000000               0.000000000               0.000000000               0.000075617               0.001901299               0.000023834              -0.000209305               0.000703528               0.000494223               0.000000000               0.000000000               0.000000000               0.000000000               0.000051808               0.001929383               0.000010013              -0.000221744               0.000717036               0.000495292               0.000000000               0.000000000               0.000000000               0.000000000               0.000025851               0.001957468               0.000004013              -0.000234989               0.000730812               0.000495823               0.000000000               0.000000000               0.000000000               0.000000000               0.000016431               0.001978519               0.000005572              -0.000241153               0.000739884               0.000498731               0.000000000               0.000000000               0.000000000               0.000000000               0.000680041               0.001631852               0.000862841               0.000051032               0.000526934               0.000577966               0.000000000               0.000000000               0.000000000               0.000000000               0.000456613               0.001632975               0.000646632              -0.000032893               0.000555283               0.000522391               0.000000000               0.000000000               0.000000000               0.000000000               0.000302818               0.001734578               0.000419813              -0.000103266               0.000612609               0.000509343               0.000000000               0.000000000               0.000000000               0.000000000               0.000248464               0.001758799               0.000311685              -0.000126676               0.000628486               0.000501810               0.000000000               0.000000000               0.000000000               0.000000000               0.000221872               0.001772261               0.000245700              -0.000138331               0.000636858               0.000498527               0.000000000               0.000000000               0.000000000               0.000000000               0.000203539               0.001788350               0.000199064              -0.000147216               0.000645183               0.000497966               0.000000000               0.000000000               0.000000000               0.000000000               0.000184588               0.001809673               0.000161983              -0.000156988               0.000655548               0.000498559               0.000000000               0.000000000               0.000000000               0.000000000               0.000161430               0.001836181               0.000128972              -0.000168986               0.000668383               0.000499397               0.000000000               0.000000000               0.000000000               0.000000000               0.000136452               0.001861958               0.000097930              -0.000181575               0.000681171               0.000499597               0.000000000               0.000000000               0.000000000               0.000000000               0.000118642               0.001882454               0.000073711              -0.000190815               0.000691084               0.000500268               0.000000000               0.000000000               0.000000000               0.000000000               0.000109706               0.001898596               0.000058672              -0.000196184               0.000698254               0.000502070               0.000000000               0.000000000               0.000000000               0.000000000               0.000101355               0.001921629               0.000047540              -0.000202195               0.000707935               0.000505740               0.000000000               0.000000000               0.000000000               0.000000000               0.000087248               0.001957908               0.000034367              -0.000212020               0.000723303               0.000511283               0.000000000               0.000000000               0.000000000               0.000000000               0.000068185               0.002004312               0.000017717              -0.000224969               0.000743087               0.000518118               0.000000000               0.000000000               0.000000000               0.000000000               0.000047837               0.002053493               0.000005028              -0.000238747               0.000764073               0.000525326               0.000000000               0.000000000               0.000000000               0.000000000               0.000024458               0.002100544               0.000001021              -0.000253396               0.000784640               0.000531244               0.000000000               0.000000000               0.000000000               0.000000000               0.000014640               0.002132367               0.000003815              -0.000261055               0.000797800               0.000536745               0.000000000               0.000000000               0.000000000               0.000000000               0.000695327               0.001350241               0.000795612               0.000091966               0.000419420               0.000511386               0.000000000               0.000000000               0.000000000               0.000000000               0.000464115               0.001446792               0.000634528              -0.000006807               0.000484528               0.000477721               0.000000000               0.000000000               0.000000000               0.000000000               0.000292768               0.001629765               0.000452027              -0.000093933               0.000574560               0.000480628               0.000000000               0.000000000               0.000000000               0.000000000               0.000241210               0.001696411               0.000347143              -0.000121598               0.000605997               0.000484400               0.000000000               0.000000000               0.000000000               0.000000000               0.000221923               0.001738136               0.000275974              -0.000134046               0.000624055               0.000490009               0.000000000               0.000000000               0.000000000               0.000000000               0.000204474               0.001770462               0.000220994              -0.000144630               0.000638358               0.000493728               0.000000000               0.000000000               0.000000000               0.000000000               0.000183714               0.001805485               0.000176676              -0.000156793               0.000654087               0.000497294               0.000000000               0.000000000               0.000000000               0.000000000               0.000159448               0.001844714               0.000140010              -0.000170796               0.000671830               0.000501035               0.000000000               0.000000000               0.000000000               0.000000000               0.000136931               0.001881108               0.000110304              -0.000183789               0.000688293               0.000504504               0.000000000               0.000000000               0.000000000               0.000000000               0.000122804               0.001909724               0.000084438              -0.000192664               0.000700789               0.000508126               0.000000000               0.000000000               0.000000000               0.000000000               0.000118319               0.001940360               0.000062327              -0.000198175               0.000712839               0.000514664               0.000000000               0.000000000               0.000000000               0.000000000               0.000110642               0.001983876               0.000044045              -0.000206493               0.000730116               0.000523623               0.000000000               0.000000000               0.000000000               0.000000000               0.000094366               0.002043685               0.000027131              -0.000220073               0.000754579               0.000534506               0.000000000               0.000000000               0.000000000               0.000000000               0.000075333               0.002114812               0.000009431              -0.000236101               0.000783630               0.000547530               0.000000000               0.000000000               0.000000000               0.000000000               0.000059394               0.002186929              -0.000002840              -0.000251093               0.000812666               0.000561574               0.000000000               0.000000000               0.000000000               0.000000000               0.000046331               0.002253453              -0.000006546              -0.000264307               0.000839246               0.000574939               0.000000000               0.000000000               0.000000000               0.000000000               0.000039928               0.002291542              -0.000005093              -0.000271469               0.000854329               0.000582860               0.000000000               0.000000000               0.000000000               0.000000000               0.000689036               0.001074789               0.000711532               0.000124038               0.000316913               0.000440951               0.000000000               0.000000000               0.000000000               0.000000000               0.000479508               0.001227740               0.000616331               0.000026347               0.000400460               0.000426807               0.000000000               0.000000000               0.000000000               0.000000000               0.000308322               0.001472446               0.000491084              -0.000068435               0.000513622               0.000445187               0.000000000               0.000000000               0.000000000               0.000000000               0.000254996               0.001585689               0.000393722              -0.000102588               0.000562753               0.000460166               0.000000000               0.000000000               0.000000000               0.000000000               0.000235029               0.001653156               0.000318260              -0.000118509               0.000590549               0.000472041               0.000000000               0.000000000               0.000000000               0.000000000               0.000219703               0.001702409               0.000255620              -0.000130412               0.000610935               0.000480522               0.000000000               0.000000000               0.000000000               0.000000000               0.000200763               0.001751910               0.000205481              -0.000143702               0.000631865               0.000488163               0.000000000               0.000000000               0.000000000               0.000000000               0.000178853               0.001802031               0.000166988              -0.000158184               0.000653399               0.000495215               0.000000000               0.000000000               0.000000000               0.000000000               0.000157719               0.001850185               0.000137037              -0.000172128               0.000674098               0.000501970               0.000000000               0.000000000               0.000000000               0.000000000               0.000143297               0.001896907               0.000108401              -0.000183376               0.000693421               0.000510045               0.000000000               0.000000000               0.000000000               0.000000000               0.000134064               0.001939426               0.000079823              -0.000192154               0.000710520               0.000518366               0.000000000               0.000000000               0.000000000               0.000000000               0.000127760               0.001990228               0.000054029              -0.000200868               0.000730359               0.000529490               0.000000000               0.000000000               0.000000000               0.000000000               0.000117182               0.002057611               0.000030757              -0.000213258               0.000756949               0.000543692               0.000000000               0.000000000               0.000000000               0.000000000               0.000105260               0.002141913               0.000012730              -0.000228266               0.000790053               0.000561786               0.000000000               0.000000000               0.000000000               0.000000000               0.000095875               0.002232691               0.000002243              -0.000243133               0.000825267               0.000582135               0.000000000               0.000000000               0.000000000               0.000000000               0.000091843               0.002320549              -0.000001260              -0.000255627               0.000858717               0.000603091               0.000000000               0.000000000               0.000000000               0.000000000               0.000087089               0.002362128              -0.000003041              -0.000262607               0.000874904               0.000612297               0.000000000               0.000000000               0.000000000               0.000000000               0.000651765               0.000810400               0.000611901               0.000143110               0.000222427               0.000365537               0.000000000               0.000000000               0.000000000               0.000000000               0.000495443               0.001006864               0.000582836               0.000059932               0.000315640               0.000375572               0.000000000               0.000000000               0.000000000               0.000000000               0.000342916               0.001296006               0.000518876              -0.000033408               0.000443133               0.000409726               0.000000000               0.000000000               0.000000000               0.000000000               0.000286460               0.001450283               0.000437273              -0.000073863               0.000508044               0.000434181               0.000000000               0.000000000               0.000000000               0.000000000               0.000261070               0.001544338               0.000362727              -0.000095141               0.000546488               0.000451347               0.000000000               0.000000000               0.000000000               0.000000000               0.000246059               0.001616471               0.000296381              -0.000109787               0.000575414               0.000465627               0.000000000               0.000000000               0.000000000               0.000000000               0.000230890               0.001683893               0.000241932              -0.000123903               0.000602593               0.000478690               0.000000000               0.000000000               0.000000000               0.000000000               0.000211168               0.001745944               0.000201089              -0.000139055               0.000628327               0.000489272               0.000000000               0.000000000               0.000000000               0.000000000               0.000189092               0.001805567               0.000169504              -0.000154786               0.000653445               0.000498659               0.000000000               0.000000000               0.000000000               0.000000000               0.000170472               0.001863087               0.000138203              -0.000168958               0.000677342               0.000508384               0.000000000               0.000000000               0.000000000               0.000000000               0.000158357               0.001916081               0.000105396              -0.000180126               0.000698729               0.000518603               0.000000000               0.000000000               0.000000000               0.000000000               0.000152697               0.001973723               0.000073648              -0.000189454               0.000721052               0.000531599               0.000000000               0.000000000               0.000000000               0.000000000               0.000150356               0.002041538               0.000046083              -0.000198808               0.000746775               0.000547967               0.000000000               0.000000000               0.000000000               0.000000000               0.000149542               0.002124225               0.000027316              -0.000209449               0.000777884               0.000568435               0.000000000               0.000000000               0.000000000               0.000000000               0.000147771               0.002217187               0.000015631              -0.000221734               0.000812966               0.000591233               0.000000000               0.000000000               0.000000000               0.000000000               0.000145225               0.002314902               0.000007633              -0.000234903               0.000849927               0.000615024               0.000000000               0.000000000               0.000000000               0.000000000               0.000135313               0.002357800               0.000000239              -0.000243982               0.000867253               0.000623271               0.000000000               0.000000000               0.000000000               0.000000000               0.000585487               0.000573007               0.000496855               0.000147930               0.000141690               0.000289620               0.000000000               0.000000000               0.000000000               0.000000000               0.000498603               0.000794324               0.000524513               0.000087684               0.000235544               0.000323228               0.000000000               0.000000000               0.000000000               0.000000000               0.000384704               0.001101216               0.000516083               0.000006611               0.000364865               0.000371476               0.000000000               0.000000000               0.000000000               0.000000000               0.000329825               0.001285846               0.000456867              -0.000037047               0.000440960               0.000403913               0.000000000               0.000000000               0.000000000               0.000000000               0.000299411               0.001409310               0.000389786              -0.000063885               0.000491060               0.000427175               0.000000000               0.000000000               0.000000000               0.000000000               0.000280976               0.001506446               0.000325434              -0.000082940               0.000529790               0.000446851               0.000000000               0.000000000               0.000000000               0.000000000               0.000265898               0.001594098               0.000270574              -0.000099550               0.000564544               0.000464994               0.000000000               0.000000000               0.000000000               0.000000000               0.000248326               0.001673848               0.000227827              -0.000116109               0.000596647               0.000480538               0.000000000               0.000000000               0.000000000               0.000000000               0.000226094               0.001744764               0.000194535              -0.000133310               0.000626019               0.000492709               0.000000000               0.000000000               0.000000000               0.000000000               0.000202059               0.001808400               0.000162875              -0.000150278               0.000652887               0.000502609               0.000000000               0.000000000               0.000000000               0.000000000               0.000187164               0.001871895               0.000130936              -0.000163800               0.000678559               0.000514759               0.000000000               0.000000000               0.000000000               0.000000000               0.000183255               0.001938983               0.000098766              -0.000173652               0.000704205               0.000530553               0.000000000               0.000000000               0.000000000               0.000000000               0.000187054               0.002016580               0.000069987              -0.000181927               0.000732829               0.000550902               0.000000000               0.000000000               0.000000000               0.000000000               0.000193773               0.002106736               0.000049031              -0.000190676               0.000765797               0.000575121               0.000000000               0.000000000               0.000000000               0.000000000               0.000198604               0.002204269               0.000034757              -0.000201056               0.000801768               0.000600711               0.000000000               0.000000000               0.000000000               0.000000000               0.000195563               0.002306963               0.000019654              -0.000215034               0.000840658               0.000625624               0.000000000               0.000000000               0.000000000               0.000000000               0.000180013               0.002350769               0.000006454              -0.000226341               0.000859029               0.000632688               0.000000000               0.000000000               0.000000000               0.000000000               0.000497294               0.000379350               0.000375288               0.000139065               0.000080093               0.000219158               0.000000000               0.000000000               0.000000000               0.000000000               0.000489424               0.000599603               0.000443447               0.000108582               0.000163672               0.000272254               0.000000000               0.000000000               0.000000000               0.000000000               0.000429190               0.000899749               0.000478140               0.000048477               0.000283754               0.000332231               0.000000000               0.000000000               0.000000000               0.000000000               0.000383976               0.001105823               0.000441892               0.000005763               0.000366683               0.000372446               0.000000000               0.000000000               0.000000000               0.000000000               0.000349728               0.001254900               0.000388008              -0.000025715               0.000426867               0.000401152               0.000000000               0.000000000               0.000000000               0.000000000               0.000327691               0.001376253               0.000330879              -0.000049148               0.000475129               0.000425981               0.000000000               0.000000000               0.000000000               0.000000000               0.000308968               0.001483097               0.000279824              -0.000069524               0.000517536               0.000448011               0.000000000               0.000000000               0.000000000               0.000000000               0.000291131               0.001579410               0.000238588              -0.000088252               0.000555882               0.000467630               0.000000000               0.000000000               0.000000000               0.000000000               0.000270113               0.001661956               0.000204783              -0.000106452               0.000589464               0.000483012               0.000000000               0.000000000               0.000000000               0.000000000               0.000248432               0.001733174               0.000175670              -0.000123485               0.000618881               0.000495396               0.000000000               0.000000000               0.000000000               0.000000000               0.000230952               0.001806015               0.000148833              -0.000139145               0.000648381               0.000509236               0.000000000               0.000000000               0.000000000               0.000000000               0.000223703               0.001887144               0.000120410              -0.000152004               0.000679710               0.000527706               0.000000000               0.000000000               0.000000000               0.000000000               0.000228694               0.001982903               0.000092720              -0.000162102               0.000714995               0.000552893               0.000000000               0.000000000               0.000000000               0.000000000               0.000239601               0.002089790               0.000071512              -0.000171373               0.000753714               0.000582341               0.000000000               0.000000000               0.000000000               0.000000000               0.000249608               0.002202177               0.000052746              -0.000181669               0.000794608               0.000612939               0.000000000               0.000000000               0.000000000               0.000000000               0.000250680               0.002312698               0.000028676              -0.000195082               0.000835919               0.000640837               0.000000000               0.000000000               0.000000000               0.000000000               0.000236959               0.002358840               0.000011546              -0.000205995               0.000854937               0.000648942               0.000000000               0.000000000               0.000000000               0.000000000               0.000401845               0.000236517               0.000259655               0.000121126               0.000038463               0.000159589               0.000000000               0.000000000               0.000000000               0.000000000               0.000472383               0.000435755               0.000344646               0.000122673               0.000104359               0.000227032               0.000000000               0.000000000               0.000000000               0.000000000               0.000472021               0.000711276               0.000402660               0.000088097               0.000207724               0.000295821               0.000000000               0.000000000               0.000000000               0.000000000               0.000442468               0.000927400               0.000386140               0.000050000               0.000292464               0.000342463               0.000000000               0.000000000               0.000000000               0.000000000               0.000408939               0.001096594               0.000347474               0.000016277               0.000360102               0.000376379               0.000000000               0.000000000               0.000000000               0.000000000               0.000380518               0.001237143               0.000301821              -0.000011949               0.000416360               0.000404411               0.000000000               0.000000000               0.000000000               0.000000000               0.000359255               0.001360587               0.000259010              -0.000035353               0.000465309               0.000429956               0.000000000               0.000000000               0.000000000               0.000000000               0.000338441               0.001468077               0.000223637              -0.000056594               0.000508219               0.000451625               0.000000000               0.000000000               0.000000000               0.000000000               0.000318719               0.001561124               0.000194523              -0.000075621               0.000545576               0.000469955               0.000000000               0.000000000               0.000000000               0.000000000               0.000300132               0.001647791               0.000169532              -0.000093424               0.000580400               0.000486975               0.000000000               0.000000000               0.000000000               0.000000000               0.000283325               0.001737212               0.000146259              -0.000110904               0.000616033               0.000505129               0.000000000               0.000000000               0.000000000               0.000000000               0.000271979               0.001836166               0.000125637              -0.000127528               0.000654559               0.000527030               0.000000000               0.000000000               0.000000000               0.000000000               0.000277145               0.001950040               0.000106522              -0.000139825               0.000696615               0.000556790               0.000000000               0.000000000               0.000000000               0.000000000               0.000291345               0.002073430               0.000086825              -0.000149924               0.000741111               0.000591187               0.000000000               0.000000000               0.000000000               0.000000000               0.000303862               0.002199897               0.000064745              -0.000161039               0.000786971               0.000625933               0.000000000               0.000000000               0.000000000               0.000000000               0.000310343               0.002317787               0.000035525              -0.000173344               0.000830369               0.000657025               0.000000000               0.000000000               0.000000000               0.000000000               0.000304074               0.002368023               0.000016752              -0.000181975               0.000849991               0.000668017               0.000000000               0.000000000               0.000000000               0.000000000               0.000314829               0.000144013               0.000159928               0.000100058               0.000014651               0.000114709               0.000000000               0.000000000               0.000000000               0.000000000               0.000452041               0.000312843               0.000235186               0.000130409               0.000060810               0.000191219               0.000000000               0.000000000               0.000000000               0.000000000               0.000508017               0.000555613               0.000291859               0.000121053               0.000144851               0.000265905               0.000000000               0.000000000               0.000000000               0.000000000               0.000495216               0.000772724               0.000288034               0.000089114               0.000227867               0.000316982               0.000000000               0.000000000               0.000000000               0.000000000               0.000464383               0.000955845               0.000263636               0.000054662               0.000300391               0.000355053               0.000000000               0.000000000               0.000000000               0.000000000               0.000432150               0.001110516               0.000232553               0.000023241               0.000362421               0.000385663               0.000000000               0.000000000               0.000000000               0.000000000               0.000406728               0.001245850               0.000202250              -0.000003209               0.000416349               0.000413140               0.000000000               0.000000000               0.000000000               0.000000000               0.000383205               0.001360415               0.000177054              -0.000026350               0.000462250               0.000435900               0.000000000               0.000000000               0.000000000               0.000000000               0.000362238               0.001463945               0.000156181              -0.000047154               0.000503695               0.000456541               0.000000000               0.000000000               0.000000000               0.000000000               0.000344141               0.001569435               0.000136304              -0.000067126               0.000545515               0.000478389               0.000000000               0.000000000               0.000000000               0.000000000               0.000329703               0.001678147               0.000118318              -0.000086130               0.000588087               0.000501957               0.000000000               0.000000000               0.000000000               0.000000000               0.000324774               0.001795327               0.000106988              -0.000102625               0.000632645               0.000530019               0.000000000               0.000000000               0.000000000               0.000000000               0.000328574               0.001922348               0.000098570              -0.000117078               0.000679802               0.000562724               0.000000000               0.000000000               0.000000000               0.000000000               0.000341785               0.002056069               0.000084299              -0.000128839               0.000728296               0.000599457               0.000000000               0.000000000               0.000000000               0.000000000               0.000358578               0.002190134               0.000062235              -0.000139300               0.000776470               0.000637171               0.000000000               0.000000000               0.000000000               0.000000000               0.000371808               0.002313075               0.000033883              -0.000149706               0.000820919               0.000671213               0.000000000               0.000000000               0.000000000               0.000000000               0.000373446               0.002367596               0.000017583              -0.000155907               0.000841160               0.000685253               0.000000000               0.000000000               0.000000000               0.000000000               0.000254064               0.000089608               0.000075488               0.000084072               0.000001845               0.000085917               0.000000000               0.000000000               0.000000000               0.000000000               0.000436098               0.000234407               0.000118744               0.000134235               0.000033390               0.000167625               0.000000000               0.000000000               0.000000000               0.000000000               0.000530147               0.000452103               0.000152912               0.000142291               0.000103269               0.000245560               0.000000000               0.000000000               0.000000000               0.000000000               0.000532636               0.000667332               0.000154265               0.000116321               0.000183668               0.000299989               0.000000000               0.000000000               0.000000000               0.000000000               0.000503949               0.000857134               0.000142799               0.000081838               0.000258429               0.000340267               0.000000000               0.000000000               0.000000000               0.000000000               0.000471235               0.001021568               0.000127071               0.000049017               0.000324180               0.000373197               0.000000000               0.000000000               0.000000000               0.000000000               0.000441151               0.001162624               0.000111687               0.000020103               0.000380836               0.000400940               0.000000000               0.000000000               0.000000000               0.000000000               0.000414570               0.001282616               0.000098561              -0.000004863               0.000429156               0.000424292               0.000000000               0.000000000               0.000000000               0.000000000               0.000390937               0.001395292               0.000087874              -0.000027810               0.000474363               0.000446553               0.000000000               0.000000000               0.000000000               0.000000000               0.000374590               0.001511943               0.000075740              -0.000048522               0.000520150               0.000471628               0.000000000               0.000000000               0.000000000               0.000000000               0.000366549               0.001634919               0.000066757              -0.000066909               0.000567270               0.000500362               0.000000000               0.000000000               0.000000000               0.000000000               0.000367298               0.001767542               0.000063100              -0.000083206               0.000616910               0.000533704               0.000000000               0.000000000               0.000000000               0.000000000               0.000371314               0.001906679               0.000060035              -0.000099092               0.000668584               0.000569492               0.000000000               0.000000000               0.000000000               0.000000000               0.000379405               0.002043937               0.000054305              -0.000113215               0.000719044               0.000605829               0.000000000               0.000000000               0.000000000               0.000000000               0.000394439               0.002172110               0.000039366              -0.000123599               0.000765229               0.000641630               0.000000000               0.000000000               0.000000000               0.000000000               0.000419703               0.002295975               0.000018340              -0.000129608               0.000808520               0.000678912               0.000000000               0.000000000               0.000000000               0.000000000               0.000435550               0.002357144               0.000007540              -0.000131311               0.000829477               0.000698166               0.000000000               0.000000000               0.000000000               0.000000000               0.000000000               0.000000000               0.000000000               0.000000000               0.000000000               0.000000000               0.000000000               0.000000000               0.000000000               0.000000000               0.000000000               0.000000000               0.000000000               0.000000000               0.000000000               0.000000000               0.000000000               0.000000000               0.000000000               0.000000000               0.000000000               0.000000000               0.000000000               0.000000000               0.000000000               0.000000000               0.000000000               0.000000000               0.000000000               0.000000000               0.000000000               0.000000000               0.000000000               0.000000000               0.000000000               0.000000000               0.000000000               0.000000000               0.000000000               0.000000000               0.000000000               0.000000000               0.000000000               0.000000000               0.000000000               0.000000000               0.000000000               0.000000000               0.000000000               0.000000000               0.000000000               0.000000000               0.000000000               0.000000000               0.000000000               0.000000000               0.000000000               0.000000000               0.000000000               0.000000000               0.000000000               0.000000000               0.000000000               0.000000000               0.000000000               0.000000000               0.000000000               0.000000000               0.000000000               0.000000000               0.000000000               0.000000000               0.000000000               0.000000000               0.000000000               0.000000000               0.000000000               0.000000000               0.000000000               0.000000000               0.000000000               0.000000000               0.000000000               0.000000000               0.000000000               0.000000000               0.000000000               0.000000000               0.000000000               0.000000000               0.000000000               0.000000000               0.000000000               0.000000000               0.000000000               0.000000000               0.000000000               0.000000000               0.000000000               0.000000000               0.000000000               0.000000000               0.000000000               0.000000000               0.000000000               0.000000000               0.000000000               0.000000000               0.000000000               0.000000000               0.000000000               0.000000000               0.000000000               0.000000000               0.000000000               0.000000000               0.000000000               0.000000000               0.000000000               0.000000000               0.000000000               0.000000000               0.000000000               0.000000000               0.000000000               0.000000000               0.000000000               0.000000000               0.000000000               0.000000000               0.000000000               0.000000000               0.000000000               0.000000000               0.000000000               0.000000000               0.000000000               0.000000000               0.000000000               0.000000000               0.000000000               0.000000000               0.000000000               0.000000000               0.000000000               0.000000000               0.000000000               0.000000000               0.000000000               0.000000000               0.000000000               0.000000000               0.000000000               0.000000000               0.000000000               0.000000000               0.000000000               0.000000000               0.000000000               0.000000000               0.000000000               0.000000000               0.000000000               0.000000000               0.000000000               0.000000000               0.000000000               0.000000000               0.000000000               0.000000000 </DataArray>
</PointData>
</Piece>
</UnstructuredGrid> </VTKFile>
