<?xml version="1.0"?>
<VTKFile type="UnstructuredGrid" version="0.1">
<UnstructuredGrid>
<Piece NumberOfPoints="      1156" NumberOfCells="      1024">
<Points>
<DataArray type="Float64"                                    Name="coordinates"                                                      NumberOfComponents=" 3" format="ascii">
              0.133000000               0.000000000               0.000000000               0.155937500               0.000000000               0.000000000               0.178875000               0.000000000               0.000000000               0.201812500               0.000000000               0.000000000               0.224750000               0.000000000               0.000000000               0.247687500               0.000000000               0.000000000               0.270625000               0.000000000               0.000000000               0.293562500               0.000000000               0.000000000               0.316500000               0.000000000               0.000000000               0.339437500               0.000000000               0.000000000               0.362375000               0.000000000               0.000000000               0.385312500               0.000000000               0.000000000               0.408250000               0.000000000               0.000000000               0.431187500               0.000000000               0.000000000               0.454125000               0.000000000               0.000000000               0.477062500               0.000000000               0.000000000               0.500000000               0.000000000               0.000000000               0.132359569               0.013036280               0.000000000               0.155337096               0.016127762               0.000000000               0.178314623               0.019219245               0.000000000               0.201292150               0.022310727               0.000000000               0.224269676               0.025402210               0.000000000               0.247247203               0.028493692               0.000000000               0.270224730               0.031585175               0.000000000               0.293202257               0.034676657               0.000000000               0.316179784               0.037768140               0.000000000               0.339157311               0.040859622               0.000000000               0.362134838               0.043951105               0.000000000               0.385112365               0.047042587               0.000000000               0.408089892               0.050134070               0.000000000               0.431067419               0.053225552               0.000000000               0.454044946               0.056317035               0.000000000               0.477022473               0.059408517               0.000000000               0.500000000               0.062500000               0.000000000               0.130444442               0.025947013               0.000000000               0.153541665               0.032137825               0.000000000               0.176638887               0.038328636               0.000000000               0.199736109               0.044519448               0.000000000               0.222833332               0.050710260               0.000000000               0.245930554               0.056901071               0.000000000               0.269027776               0.063091883               0.000000000               0.292124999               0.069282695               0.000000000               0.315222221               0.075473506               0.000000000               0.338319444               0.081664318               0.000000000               0.361416666               0.087855130               0.000000000               0.384513888               0.094045942               0.000000000               0.407611111               0.100236753               0.000000000               0.430708333               0.106427565               0.000000000               0.453805555               0.112618377               0.000000000               0.476902778               0.118809188               0.000000000               0.500000000               0.125000000               0.000000000               0.127273065               0.038607862               0.000000000               0.150568498               0.047913621               0.000000000               0.173863932               0.057219379               0.000000000               0.197159365               0.066525138               0.000000000               0.220454798               0.075830897               0.000000000               0.243750232               0.085136655               0.000000000               0.267045665               0.094442414               0.000000000               0.290341099               0.103748172               0.000000000               0.313636532               0.113053931               0.000000000               0.336931966               0.122359690               0.000000000               0.360227399               0.131665448               0.000000000               0.383522833               0.140971207               0.000000000               0.406818266               0.150276966               0.000000000               0.430113700               0.159582724               0.000000000               0.453409133               0.168888483               0.000000000               0.476704567               0.178194241               0.000000000               0.500000000               0.187500000               0.000000000               0.122875978               0.050896897               0.000000000               0.146446229               0.063340840               0.000000000               0.170016481               0.075784784               0.000000000               0.193586732               0.088228728               0.000000000               0.217156983               0.100672672               0.000000000               0.240727235               0.113116616               0.000000000               0.264297486               0.125560560               0.000000000               0.287867738               0.138004504               0.000000000               0.311437989               0.150448448               0.000000000               0.335008240               0.162892392               0.000000000               0.358578492               0.175336336               0.000000000               0.382148743               0.187780280               0.000000000               0.405718994               0.200224224               0.000000000               0.429289246               0.212668168               0.000000000               0.452859497               0.225112112               0.000000000               0.476429749               0.237556056               0.000000000               0.500000000               0.250000000               0.000000000               0.117295528               0.062695766               0.000000000               0.141214558               0.078308531               0.000000000               0.165133587               0.093921295               0.000000000               0.189052617               0.109534060               0.000000000               0.212971646               0.125146824               0.000000000               0.236890676               0.140759589               0.000000000               0.260809705               0.156372354               0.000000000               0.284728735               0.171985118               0.000000000               0.308647764               0.187597883               0.000000000               0.332566794               0.203210648               0.000000000               0.356485823               0.218823412               0.000000000               0.380404853               0.234436177               0.000000000               0.404323882               0.250048941               0.000000000               0.428242912               0.265661706               0.000000000               0.452161941               0.281274471               0.000000000               0.476080971               0.296887235               0.000000000               0.500000000               0.312500000               0.000000000               0.110585458               0.073890841               0.000000000               0.134923867               0.092710163               0.000000000               0.159262276               0.111529486               0.000000000               0.183600685               0.130348808               0.000000000               0.207939094               0.149168131               0.000000000               0.232277503               0.167987453               0.000000000               0.256615912               0.186806776               0.000000000               0.280954320               0.205626098               0.000000000               0.305292729               0.224445420               0.000000000               0.329631138               0.243264743               0.000000000               0.353969547               0.262084065               0.000000000               0.378307956               0.280903388               0.000000000               0.402646365               0.299722710               0.000000000               0.426984773               0.318542033               0.000000000               0.451323182               0.337361355               0.000000000               0.475661591               0.356180678               0.000000000               0.500000000               0.375000000               0.000000000               0.102810390               0.084374307               0.000000000               0.127634741               0.106444663               0.000000000               0.152459092               0.128515018               0.000000000               0.177283442               0.150585374               0.000000000               0.202107793               0.172655730               0.000000000               0.226932143               0.194726086               0.000000000               0.251756494               0.216796442               0.000000000               0.276580845               0.238866798               0.000000000               0.301405195               0.260937153               0.000000000               0.326229546               0.283007509               0.000000000               0.351053896               0.305077865               0.000000000               0.375878247               0.327148221               0.000000000               0.400702598               0.349218577               0.000000000               0.425526948               0.371288933               0.000000000               0.450351299               0.393359288               0.000000000               0.475175649               0.415429644               0.000000000               0.500000000               0.437500000               0.000000000               0.094045202               0.094045202               0.000000000               0.119417377               0.119417377               0.000000000               0.144789552               0.144789552               0.000000000               0.170161727               0.170161727               0.000000000               0.195533901               0.195533901               0.000000000               0.220906076               0.220906076               0.000000000               0.246278251               0.246278251               0.000000000               0.271650426               0.271650426               0.000000000               0.297022601               0.297022601               0.000000000               0.322394776               0.322394776               0.000000000               0.347766951               0.347766951               0.000000000               0.373139126               0.373139126               0.000000000               0.398511300               0.398511300               0.000000000               0.423883475               0.423883475               0.000000000               0.449255650               0.449255650               0.000000000               0.474627825               0.474627825               0.000000000               0.500000000               0.500000000               0.000000000               0.084374307               0.102810390               0.000000000               0.106444663               0.127634741               0.000000000               0.128515018               0.152459092               0.000000000               0.150585374               0.177283442               0.000000000               0.172655730               0.202107793               0.000000000               0.194726086               0.226932143               0.000000000               0.216796442               0.251756494               0.000000000               0.238866798               0.276580845               0.000000000               0.260937153               0.301405195               0.000000000               0.283007509               0.326229546               0.000000000               0.305077865               0.351053896               0.000000000               0.327148221               0.375878247               0.000000000               0.349218577               0.400702598               0.000000000               0.371288933               0.425526948               0.000000000               0.393359288               0.450351299               0.000000000               0.415429644               0.475175649               0.000000000               0.437500000               0.500000000               0.000000000               0.073890841               0.110585458               0.000000000               0.092710163               0.134923867               0.000000000               0.111529486               0.159262276               0.000000000               0.130348808               0.183600685               0.000000000               0.149168131               0.207939094               0.000000000               0.167987453               0.232277503               0.000000000               0.186806776               0.256615912               0.000000000               0.205626098               0.280954320               0.000000000               0.224445420               0.305292729               0.000000000               0.243264743               0.329631138               0.000000000               0.262084065               0.353969547               0.000000000               0.280903388               0.378307956               0.000000000               0.299722710               0.402646365               0.000000000               0.318542033               0.426984773               0.000000000               0.337361355               0.451323182               0.000000000               0.356180678               0.475661591               0.000000000               0.375000000               0.500000000               0.000000000               0.062695766               0.117295528               0.000000000               0.078308531               0.141214558               0.000000000               0.093921295               0.165133587               0.000000000               0.109534060               0.189052617               0.000000000               0.125146824               0.212971646               0.000000000               0.140759589               0.236890676               0.000000000               0.156372354               0.260809705               0.000000000               0.171985118               0.284728735               0.000000000               0.187597883               0.308647764               0.000000000               0.203210648               0.332566794               0.000000000               0.218823412               0.356485823               0.000000000               0.234436177               0.380404853               0.000000000               0.250048941               0.404323882               0.000000000               0.265661706               0.428242912               0.000000000               0.281274471               0.452161941               0.000000000               0.296887235               0.476080971               0.000000000               0.312500000               0.500000000               0.000000000               0.050896897               0.122875978               0.000000000               0.063340840               0.146446229               0.000000000               0.075784784               0.170016481               0.000000000               0.088228728               0.193586732               0.000000000               0.100672672               0.217156983               0.000000000               0.113116616               0.240727235               0.000000000               0.125560560               0.264297486               0.000000000               0.138004504               0.287867738               0.000000000               0.150448448               0.311437989               0.000000000               0.162892392               0.335008240               0.000000000               0.175336336               0.358578492               0.000000000               0.187780280               0.382148743               0.000000000               0.200224224               0.405718994               0.000000000               0.212668168               0.429289246               0.000000000               0.225112112               0.452859497               0.000000000               0.237556056               0.476429749               0.000000000               0.250000000               0.500000000               0.000000000               0.038607862               0.127273065               0.000000000               0.047913621               0.150568498               0.000000000               0.057219379               0.173863932               0.000000000               0.066525138               0.197159365               0.000000000               0.075830897               0.220454798               0.000000000               0.085136655               0.243750232               0.000000000               0.094442414               0.267045665               0.000000000               0.103748172               0.290341099               0.000000000               0.113053931               0.313636532               0.000000000               0.122359690               0.336931966               0.000000000               0.131665448               0.360227399               0.000000000               0.140971207               0.383522833               0.000000000               0.150276966               0.406818266               0.000000000               0.159582724               0.430113700               0.000000000               0.168888483               0.453409133               0.000000000               0.178194241               0.476704567               0.000000000               0.187500000               0.500000000               0.000000000               0.025947013               0.130444442               0.000000000               0.032137825               0.153541665               0.000000000               0.038328636               0.176638887               0.000000000               0.044519448               0.199736109               0.000000000               0.050710260               0.222833332               0.000000000               0.056901071               0.245930554               0.000000000               0.063091883               0.269027776               0.000000000               0.069282695               0.292124999               0.000000000               0.075473506               0.315222221               0.000000000               0.081664318               0.338319444               0.000000000               0.087855130               0.361416666               0.000000000               0.094045942               0.384513888               0.000000000               0.100236753               0.407611111               0.000000000               0.106427565               0.430708333               0.000000000               0.112618377               0.453805555               0.000000000               0.118809188               0.476902778               0.000000000               0.125000000               0.500000000               0.000000000               0.013036280               0.132359569               0.000000000               0.016127762               0.155337096               0.000000000               0.019219245               0.178314623               0.000000000               0.022310727               0.201292150               0.000000000               0.025402210               0.224269676               0.000000000               0.028493692               0.247247203               0.000000000               0.031585175               0.270224730               0.000000000               0.034676657               0.293202257               0.000000000               0.037768140               0.316179784               0.000000000               0.040859622               0.339157311               0.000000000               0.043951105               0.362134838               0.000000000               0.047042587               0.385112365               0.000000000               0.050134070               0.408089892               0.000000000               0.053225552               0.431067419               0.000000000               0.056317035               0.454044946               0.000000000               0.059408517               0.477022473               0.000000000               0.062500000               0.500000000               0.000000000               0.000000000               0.133000000               0.000000000               0.000000000               0.155937500               0.000000000               0.000000000               0.178875000               0.000000000               0.000000000               0.201812500               0.000000000               0.000000000               0.224750000               0.000000000               0.000000000               0.247687500               0.000000000               0.000000000               0.270625000               0.000000000               0.000000000               0.293562500               0.000000000               0.000000000               0.316500000               0.000000000               0.000000000               0.339437500               0.000000000               0.000000000               0.362375000               0.000000000               0.000000000               0.385312500               0.000000000               0.000000000               0.408250000               0.000000000               0.000000000               0.431187500               0.000000000               0.000000000               0.454125000               0.000000000               0.000000000               0.477062500               0.000000000               0.000000000               0.500000000               0.000000000               0.133000000               0.000000000               0.000000000               0.155937500               0.000000000               0.000000000               0.178875000               0.000000000               0.000000000               0.201812500               0.000000000               0.000000000               0.224750000               0.000000000               0.000000000               0.247687500               0.000000000               0.000000000               0.270625000               0.000000000               0.000000000               0.293562500               0.000000000               0.000000000               0.316500000               0.000000000               0.000000000               0.339437500               0.000000000               0.000000000               0.362375000               0.000000000               0.000000000               0.385312500               0.000000000               0.000000000               0.408250000               0.000000000               0.000000000               0.431187500               0.000000000               0.000000000               0.454125000               0.000000000               0.000000000               0.477062500               0.000000000               0.000000000               0.500000000               0.000000000               0.000000000               0.132359569              -0.013036280               0.000000000               0.155337096              -0.016127762               0.000000000               0.178314623              -0.019219245               0.000000000               0.201292150              -0.022310727               0.000000000               0.224269676              -0.025402210               0.000000000               0.247247203              -0.028493692               0.000000000               0.270224730              -0.031585175               0.000000000               0.293202257              -0.034676657               0.000000000               0.316179784              -0.037768140               0.000000000               0.339157311              -0.040859622               0.000000000               0.362134838              -0.043951105               0.000000000               0.385112365              -0.047042587               0.000000000               0.408089892              -0.050134070               0.000000000               0.431067419              -0.053225552               0.000000000               0.454044946              -0.056317035               0.000000000               0.477022473              -0.059408517               0.000000000               0.500000000              -0.062500000               0.000000000               0.130444442              -0.025947013               0.000000000               0.153541665              -0.032137825               0.000000000               0.176638887              -0.038328636               0.000000000               0.199736109              -0.044519448               0.000000000               0.222833332              -0.050710260               0.000000000               0.245930554              -0.056901071               0.000000000               0.269027776              -0.063091883               0.000000000               0.292124999              -0.069282695               0.000000000               0.315222221              -0.075473506               0.000000000               0.338319444              -0.081664318               0.000000000               0.361416666              -0.087855130               0.000000000               0.384513888              -0.094045942               0.000000000               0.407611111              -0.100236753               0.000000000               0.430708333              -0.106427565               0.000000000               0.453805555              -0.112618377               0.000000000               0.476902778              -0.118809188               0.000000000               0.500000000              -0.125000000               0.000000000               0.127273065              -0.038607862               0.000000000               0.150568498              -0.047913621               0.000000000               0.173863932              -0.057219379               0.000000000               0.197159365              -0.066525138               0.000000000               0.220454798              -0.075830897               0.000000000               0.243750232              -0.085136655               0.000000000               0.267045665              -0.094442414               0.000000000               0.290341099              -0.103748172               0.000000000               0.313636532              -0.113053931               0.000000000               0.336931966              -0.122359690               0.000000000               0.360227399              -0.131665448               0.000000000               0.383522833              -0.140971207               0.000000000               0.406818266              -0.150276966               0.000000000               0.430113700              -0.159582724               0.000000000               0.453409133              -0.168888483               0.000000000               0.476704567              -0.178194241               0.000000000               0.500000000              -0.187500000               0.000000000               0.122875978              -0.050896897               0.000000000               0.146446229              -0.063340840               0.000000000               0.170016481              -0.075784784               0.000000000               0.193586732              -0.088228728               0.000000000               0.217156983              -0.100672672               0.000000000               0.240727235              -0.113116616               0.000000000               0.264297486              -0.125560560               0.000000000               0.287867738              -0.138004504               0.000000000               0.311437989              -0.150448448               0.000000000               0.335008240              -0.162892392               0.000000000               0.358578492              -0.175336336               0.000000000               0.382148743              -0.187780280               0.000000000               0.405718994              -0.200224224               0.000000000               0.429289246              -0.212668168               0.000000000               0.452859497              -0.225112112               0.000000000               0.476429749              -0.237556056               0.000000000               0.500000000              -0.250000000               0.000000000               0.117295528              -0.062695766               0.000000000               0.141214558              -0.078308531               0.000000000               0.165133587              -0.093921295               0.000000000               0.189052617              -0.109534060               0.000000000               0.212971646              -0.125146824               0.000000000               0.236890676              -0.140759589               0.000000000               0.260809705              -0.156372354               0.000000000               0.284728735              -0.171985118               0.000000000               0.308647764              -0.187597883               0.000000000               0.332566794              -0.203210648               0.000000000               0.356485823              -0.218823412               0.000000000               0.380404853              -0.234436177               0.000000000               0.404323882              -0.250048941               0.000000000               0.428242912              -0.265661706               0.000000000               0.452161941              -0.281274471               0.000000000               0.476080971              -0.296887235               0.000000000               0.500000000              -0.312500000               0.000000000               0.110585458              -0.073890841               0.000000000               0.134923867              -0.092710163               0.000000000               0.159262276              -0.111529486               0.000000000               0.183600685              -0.130348808               0.000000000               0.207939094              -0.149168131               0.000000000               0.232277503              -0.167987453               0.000000000               0.256615912              -0.186806776               0.000000000               0.280954320              -0.205626098               0.000000000               0.305292729              -0.224445420               0.000000000               0.329631138              -0.243264743               0.000000000               0.353969547              -0.262084065               0.000000000               0.378307956              -0.280903388               0.000000000               0.402646365              -0.299722710               0.000000000               0.426984773              -0.318542033               0.000000000               0.451323182              -0.337361355               0.000000000               0.475661591              -0.356180678               0.000000000               0.500000000              -0.375000000               0.000000000               0.102810390              -0.084374307               0.000000000               0.127634741              -0.106444663               0.000000000               0.152459092              -0.128515018               0.000000000               0.177283442              -0.150585374               0.000000000               0.202107793              -0.172655730               0.000000000               0.226932143              -0.194726086               0.000000000               0.251756494              -0.216796442               0.000000000               0.276580845              -0.238866798               0.000000000               0.301405195              -0.260937153               0.000000000               0.326229546              -0.283007509               0.000000000               0.351053896              -0.305077865               0.000000000               0.375878247              -0.327148221               0.000000000               0.400702598              -0.349218577               0.000000000               0.425526948              -0.371288933               0.000000000               0.450351299              -0.393359288               0.000000000               0.475175649              -0.415429644               0.000000000               0.500000000              -0.437500000               0.000000000               0.094045202              -0.094045202               0.000000000               0.119417377              -0.119417377               0.000000000               0.144789552              -0.144789552               0.000000000               0.170161727              -0.170161727               0.000000000               0.195533901              -0.195533901               0.000000000               0.220906076              -0.220906076               0.000000000               0.246278251              -0.246278251               0.000000000               0.271650426              -0.271650426               0.000000000               0.297022601              -0.297022601               0.000000000               0.322394776              -0.322394776               0.000000000               0.347766951              -0.347766951               0.000000000               0.373139126              -0.373139126               0.000000000               0.398511300              -0.398511300               0.000000000               0.423883475              -0.423883475               0.000000000               0.449255650              -0.449255650               0.000000000               0.474627825              -0.474627825               0.000000000               0.500000000              -0.500000000               0.000000000               0.084374307              -0.102810390               0.000000000               0.106444663              -0.127634741               0.000000000               0.128515018              -0.152459092               0.000000000               0.150585374              -0.177283442               0.000000000               0.172655730              -0.202107793               0.000000000               0.194726086              -0.226932143               0.000000000               0.216796442              -0.251756494               0.000000000               0.238866798              -0.276580845               0.000000000               0.260937153              -0.301405195               0.000000000               0.283007509              -0.326229546               0.000000000               0.305077865              -0.351053896               0.000000000               0.327148221              -0.375878247               0.000000000               0.349218577              -0.400702598               0.000000000               0.371288933              -0.425526948               0.000000000               0.393359288              -0.450351299               0.000000000               0.415429644              -0.475175649               0.000000000               0.437500000              -0.500000000               0.000000000               0.073890841              -0.110585458               0.000000000               0.092710163              -0.134923867               0.000000000               0.111529486              -0.159262276               0.000000000               0.130348808              -0.183600685               0.000000000               0.149168131              -0.207939094               0.000000000               0.167987453              -0.232277503               0.000000000               0.186806776              -0.256615912               0.000000000               0.205626098              -0.280954320               0.000000000               0.224445420              -0.305292729               0.000000000               0.243264743              -0.329631138               0.000000000               0.262084065              -0.353969547               0.000000000               0.280903388              -0.378307956               0.000000000               0.299722710              -0.402646365               0.000000000               0.318542033              -0.426984773               0.000000000               0.337361355              -0.451323182               0.000000000               0.356180678              -0.475661591               0.000000000               0.375000000              -0.500000000               0.000000000               0.062695766              -0.117295528               0.000000000               0.078308531              -0.141214558               0.000000000               0.093921295              -0.165133587               0.000000000               0.109534060              -0.189052617               0.000000000               0.125146824              -0.212971646               0.000000000               0.140759589              -0.236890676               0.000000000               0.156372354              -0.260809705               0.000000000               0.171985118              -0.284728735               0.000000000               0.187597883              -0.308647764               0.000000000               0.203210648              -0.332566794               0.000000000               0.218823412              -0.356485823               0.000000000               0.234436177              -0.380404853               0.000000000               0.250048941              -0.404323882               0.000000000               0.265661706              -0.428242912               0.000000000               0.281274471              -0.452161941               0.000000000               0.296887235              -0.476080971               0.000000000               0.312500000              -0.500000000               0.000000000               0.050896897              -0.122875978               0.000000000               0.063340840              -0.146446229               0.000000000               0.075784784              -0.170016481               0.000000000               0.088228728              -0.193586732               0.000000000               0.100672672              -0.217156983               0.000000000               0.113116616              -0.240727235               0.000000000               0.125560560              -0.264297486               0.000000000               0.138004504              -0.287867738               0.000000000               0.150448448              -0.311437989               0.000000000               0.162892392              -0.335008240               0.000000000               0.175336336              -0.358578492               0.000000000               0.187780280              -0.382148743               0.000000000               0.200224224              -0.405718994               0.000000000               0.212668168              -0.429289246               0.000000000               0.225112112              -0.452859497               0.000000000               0.237556056              -0.476429749               0.000000000               0.250000000              -0.500000000               0.000000000               0.038607862              -0.127273065               0.000000000               0.047913621              -0.150568498               0.000000000               0.057219379              -0.173863932               0.000000000               0.066525138              -0.197159365               0.000000000               0.075830897              -0.220454798               0.000000000               0.085136655              -0.243750232               0.000000000               0.094442414              -0.267045665               0.000000000               0.103748172              -0.290341099               0.000000000               0.113053931              -0.313636532               0.000000000               0.122359690              -0.336931966               0.000000000               0.131665448              -0.360227399               0.000000000               0.140971207              -0.383522833               0.000000000               0.150276966              -0.406818266               0.000000000               0.159582724              -0.430113700               0.000000000               0.168888483              -0.453409133               0.000000000               0.178194241              -0.476704567               0.000000000               0.187500000              -0.500000000               0.000000000               0.025947013              -0.130444442               0.000000000               0.032137825              -0.153541665               0.000000000               0.038328636              -0.176638887               0.000000000               0.044519448              -0.199736109               0.000000000               0.050710260              -0.222833332               0.000000000               0.056901071              -0.245930554               0.000000000               0.063091883              -0.269027776               0.000000000               0.069282695              -0.292124999               0.000000000               0.075473506              -0.315222221               0.000000000               0.081664318              -0.338319444               0.000000000               0.087855130              -0.361416666               0.000000000               0.094045942              -0.384513888               0.000000000               0.100236753              -0.407611111               0.000000000               0.106427565              -0.430708333               0.000000000               0.112618377              -0.453805555               0.000000000               0.118809188              -0.476902778               0.000000000               0.125000000              -0.500000000               0.000000000               0.013036280              -0.132359569               0.000000000               0.016127762              -0.155337096               0.000000000               0.019219245              -0.178314623               0.000000000               0.022310727              -0.201292150               0.000000000               0.025402210              -0.224269676               0.000000000               0.028493692              -0.247247203               0.000000000               0.031585175              -0.270224730               0.000000000               0.034676657              -0.293202257               0.000000000               0.037768140              -0.316179784               0.000000000               0.040859622              -0.339157311               0.000000000               0.043951105              -0.362134838               0.000000000               0.047042587              -0.385112365               0.000000000               0.050134070              -0.408089892               0.000000000               0.053225552              -0.431067419               0.000000000               0.056317035              -0.454044946               0.000000000               0.059408517              -0.477022473               0.000000000               0.062500000              -0.500000000               0.000000000               0.000000000              -0.133000000               0.000000000               0.000000000              -0.155937500               0.000000000               0.000000000              -0.178875000               0.000000000               0.000000000              -0.201812500               0.000000000               0.000000000              -0.224750000               0.000000000               0.000000000              -0.247687500               0.000000000               0.000000000              -0.270625000               0.000000000               0.000000000              -0.293562500               0.000000000               0.000000000              -0.316500000               0.000000000               0.000000000              -0.339437500               0.000000000               0.000000000              -0.362375000               0.000000000               0.000000000              -0.385312500               0.000000000               0.000000000              -0.408250000               0.000000000               0.000000000              -0.431187500               0.000000000               0.000000000              -0.454125000               0.000000000               0.000000000              -0.477062500               0.000000000               0.000000000              -0.500000000               0.000000000              -0.133000000               0.000000000               0.000000000              -0.155937500               0.000000000               0.000000000              -0.178875000               0.000000000               0.000000000              -0.201812500               0.000000000               0.000000000              -0.224750000               0.000000000               0.000000000              -0.247687500               0.000000000               0.000000000              -0.270625000               0.000000000               0.000000000              -0.293562500               0.000000000               0.000000000              -0.316500000               0.000000000               0.000000000              -0.339437500               0.000000000               0.000000000              -0.362375000               0.000000000               0.000000000              -0.385312500               0.000000000               0.000000000              -0.408250000               0.000000000               0.000000000              -0.431187500               0.000000000               0.000000000              -0.454125000               0.000000000               0.000000000              -0.477062500               0.000000000               0.000000000              -0.500000000               0.000000000               0.000000000              -0.132359569              -0.013036280               0.000000000              -0.155337096              -0.016127762               0.000000000              -0.178314623              -0.019219245               0.000000000              -0.201292150              -0.022310727               0.000000000              -0.224269676              -0.025402210               0.000000000              -0.247247203              -0.028493692               0.000000000              -0.270224730              -0.031585175               0.000000000              -0.293202257              -0.034676657               0.000000000              -0.316179784              -0.037768140               0.000000000              -0.339157311              -0.040859622               0.000000000              -0.362134838              -0.043951105               0.000000000              -0.385112365              -0.047042587               0.000000000              -0.408089892              -0.050134070               0.000000000              -0.431067419              -0.053225552               0.000000000              -0.454044946              -0.056317035               0.000000000              -0.477022473              -0.059408517               0.000000000              -0.500000000              -0.062500000               0.000000000              -0.130444442              -0.025947013               0.000000000              -0.153541665              -0.032137825               0.000000000              -0.176638887              -0.038328636               0.000000000              -0.199736109              -0.044519448               0.000000000              -0.222833332              -0.050710260               0.000000000              -0.245930554              -0.056901071               0.000000000              -0.269027776              -0.063091883               0.000000000              -0.292124999              -0.069282695               0.000000000              -0.315222221              -0.075473506               0.000000000              -0.338319444              -0.081664318               0.000000000              -0.361416666              -0.087855130               0.000000000              -0.384513888              -0.094045942               0.000000000              -0.407611111              -0.100236753               0.000000000              -0.430708333              -0.106427565               0.000000000              -0.453805555              -0.112618377               0.000000000              -0.476902778              -0.118809188               0.000000000              -0.500000000              -0.125000000               0.000000000              -0.127273065              -0.038607862               0.000000000              -0.150568498              -0.047913621               0.000000000              -0.173863932              -0.057219379               0.000000000              -0.197159365              -0.066525138               0.000000000              -0.220454798              -0.075830897               0.000000000              -0.243750232              -0.085136655               0.000000000              -0.267045665              -0.094442414               0.000000000              -0.290341099              -0.103748172               0.000000000              -0.313636532              -0.113053931               0.000000000              -0.336931966              -0.122359690               0.000000000              -0.360227399              -0.131665448               0.000000000              -0.383522833              -0.140971207               0.000000000              -0.406818266              -0.150276966               0.000000000              -0.430113700              -0.159582724               0.000000000              -0.453409133              -0.168888483               0.000000000              -0.476704567              -0.178194241               0.000000000              -0.500000000              -0.187500000               0.000000000              -0.122875978              -0.050896897               0.000000000              -0.146446229              -0.063340840               0.000000000              -0.170016481              -0.075784784               0.000000000              -0.193586732              -0.088228728               0.000000000              -0.217156983              -0.100672672               0.000000000              -0.240727235              -0.113116616               0.000000000              -0.264297486              -0.125560560               0.000000000              -0.287867738              -0.138004504               0.000000000              -0.311437989              -0.150448448               0.000000000              -0.335008240              -0.162892392               0.000000000              -0.358578492              -0.175336336               0.000000000              -0.382148743              -0.187780280               0.000000000              -0.405718994              -0.200224224               0.000000000              -0.429289246              -0.212668168               0.000000000              -0.452859497              -0.225112112               0.000000000              -0.476429749              -0.237556056               0.000000000              -0.500000000              -0.250000000               0.000000000              -0.117295528              -0.062695766               0.000000000              -0.141214558              -0.078308531               0.000000000              -0.165133587              -0.093921295               0.000000000              -0.189052617              -0.109534060               0.000000000              -0.212971646              -0.125146824               0.000000000              -0.236890676              -0.140759589               0.000000000              -0.260809705              -0.156372354               0.000000000              -0.284728735              -0.171985118               0.000000000              -0.308647764              -0.187597883               0.000000000              -0.332566794              -0.203210648               0.000000000              -0.356485823              -0.218823412               0.000000000              -0.380404853              -0.234436177               0.000000000              -0.404323882              -0.250048941               0.000000000              -0.428242912              -0.265661706               0.000000000              -0.452161941              -0.281274471               0.000000000              -0.476080971              -0.296887235               0.000000000              -0.500000000              -0.312500000               0.000000000              -0.110585458              -0.073890841               0.000000000              -0.134923867              -0.092710163               0.000000000              -0.159262276              -0.111529486               0.000000000              -0.183600685              -0.130348808               0.000000000              -0.207939094              -0.149168131               0.000000000              -0.232277503              -0.167987453               0.000000000              -0.256615912              -0.186806776               0.000000000              -0.280954320              -0.205626098               0.000000000              -0.305292729              -0.224445420               0.000000000              -0.329631138              -0.243264743               0.000000000              -0.353969547              -0.262084065               0.000000000              -0.378307956              -0.280903388               0.000000000              -0.402646365              -0.299722710               0.000000000              -0.426984773              -0.318542033               0.000000000              -0.451323182              -0.337361355               0.000000000              -0.475661591              -0.356180678               0.000000000              -0.500000000              -0.375000000               0.000000000              -0.102810390              -0.084374307               0.000000000              -0.127634741              -0.106444663               0.000000000              -0.152459092              -0.128515018               0.000000000              -0.177283442              -0.150585374               0.000000000              -0.202107793              -0.172655730               0.000000000              -0.226932143              -0.194726086               0.000000000              -0.251756494              -0.216796442               0.000000000              -0.276580845              -0.238866798               0.000000000              -0.301405195              -0.260937153               0.000000000              -0.326229546              -0.283007509               0.000000000              -0.351053896              -0.305077865               0.000000000              -0.375878247              -0.327148221               0.000000000              -0.400702598              -0.349218577               0.000000000              -0.425526948              -0.371288933               0.000000000              -0.450351299              -0.393359288               0.000000000              -0.475175649              -0.415429644               0.000000000              -0.500000000              -0.437500000               0.000000000              -0.094045202              -0.094045202               0.000000000              -0.119417377              -0.119417377               0.000000000              -0.144789552              -0.144789552               0.000000000              -0.170161727              -0.170161727               0.000000000              -0.195533901              -0.195533901               0.000000000              -0.220906076              -0.220906076               0.000000000              -0.246278251              -0.246278251               0.000000000              -0.271650426              -0.271650426               0.000000000              -0.297022601              -0.297022601               0.000000000              -0.322394776              -0.322394776               0.000000000              -0.347766951              -0.347766951               0.000000000              -0.373139126              -0.373139126               0.000000000              -0.398511300              -0.398511300               0.000000000              -0.423883475              -0.423883475               0.000000000              -0.449255650              -0.449255650               0.000000000              -0.474627825              -0.474627825               0.000000000              -0.500000000              -0.500000000               0.000000000              -0.084374307              -0.102810390               0.000000000              -0.106444663              -0.127634741               0.000000000              -0.128515018              -0.152459092               0.000000000              -0.150585374              -0.177283442               0.000000000              -0.172655730              -0.202107793               0.000000000              -0.194726086              -0.226932143               0.000000000              -0.216796442              -0.251756494               0.000000000              -0.238866798              -0.276580845               0.000000000              -0.260937153              -0.301405195               0.000000000              -0.283007509              -0.326229546               0.000000000              -0.305077865              -0.351053896               0.000000000              -0.327148221              -0.375878247               0.000000000              -0.349218577              -0.400702598               0.000000000              -0.371288933              -0.425526948               0.000000000              -0.393359288              -0.450351299               0.000000000              -0.415429644              -0.475175649               0.000000000              -0.437500000              -0.500000000               0.000000000              -0.073890841              -0.110585458               0.000000000              -0.092710163              -0.134923867               0.000000000              -0.111529486              -0.159262276               0.000000000              -0.130348808              -0.183600685               0.000000000              -0.149168131              -0.207939094               0.000000000              -0.167987453              -0.232277503               0.000000000              -0.186806776              -0.256615912               0.000000000              -0.205626098              -0.280954320               0.000000000              -0.224445420              -0.305292729               0.000000000              -0.243264743              -0.329631138               0.000000000              -0.262084065              -0.353969547               0.000000000              -0.280903388              -0.378307956               0.000000000              -0.299722710              -0.402646365               0.000000000              -0.318542033              -0.426984773               0.000000000              -0.337361355              -0.451323182               0.000000000              -0.356180678              -0.475661591               0.000000000              -0.375000000              -0.500000000               0.000000000              -0.062695766              -0.117295528               0.000000000              -0.078308531              -0.141214558               0.000000000              -0.093921295              -0.165133587               0.000000000              -0.109534060              -0.189052617               0.000000000              -0.125146824              -0.212971646               0.000000000              -0.140759589              -0.236890676               0.000000000              -0.156372354              -0.260809705               0.000000000              -0.171985118              -0.284728735               0.000000000              -0.187597883              -0.308647764               0.000000000              -0.203210648              -0.332566794               0.000000000              -0.218823412              -0.356485823               0.000000000              -0.234436177              -0.380404853               0.000000000              -0.250048941              -0.404323882               0.000000000              -0.265661706              -0.428242912               0.000000000              -0.281274471              -0.452161941               0.000000000              -0.296887235              -0.476080971               0.000000000              -0.312500000              -0.500000000               0.000000000              -0.050896897              -0.122875978               0.000000000              -0.063340840              -0.146446229               0.000000000              -0.075784784              -0.170016481               0.000000000              -0.088228728              -0.193586732               0.000000000              -0.100672672              -0.217156983               0.000000000              -0.113116616              -0.240727235               0.000000000              -0.125560560              -0.264297486               0.000000000              -0.138004504              -0.287867738               0.000000000              -0.150448448              -0.311437989               0.000000000              -0.162892392              -0.335008240               0.000000000              -0.175336336              -0.358578492               0.000000000              -0.187780280              -0.382148743               0.000000000              -0.200224224              -0.405718994               0.000000000              -0.212668168              -0.429289246               0.000000000              -0.225112112              -0.452859497               0.000000000              -0.237556056              -0.476429749               0.000000000              -0.250000000              -0.500000000               0.000000000              -0.038607862              -0.127273065               0.000000000              -0.047913621              -0.150568498               0.000000000              -0.057219379              -0.173863932               0.000000000              -0.066525138              -0.197159365               0.000000000              -0.075830897              -0.220454798               0.000000000              -0.085136655              -0.243750232               0.000000000              -0.094442414              -0.267045665               0.000000000              -0.103748172              -0.290341099               0.000000000              -0.113053931              -0.313636532               0.000000000              -0.122359690              -0.336931966               0.000000000              -0.131665448              -0.360227399               0.000000000              -0.140971207              -0.383522833               0.000000000              -0.150276966              -0.406818266               0.000000000              -0.159582724              -0.430113700               0.000000000              -0.168888483              -0.453409133               0.000000000              -0.178194241              -0.476704567               0.000000000              -0.187500000              -0.500000000               0.000000000              -0.025947013              -0.130444442               0.000000000              -0.032137825              -0.153541665               0.000000000              -0.038328636              -0.176638887               0.000000000              -0.044519448              -0.199736109               0.000000000              -0.050710260              -0.222833332               0.000000000              -0.056901071              -0.245930554               0.000000000              -0.063091883              -0.269027776               0.000000000              -0.069282695              -0.292124999               0.000000000              -0.075473506              -0.315222221               0.000000000              -0.081664318              -0.338319444               0.000000000              -0.087855130              -0.361416666               0.000000000              -0.094045942              -0.384513888               0.000000000              -0.100236753              -0.407611111               0.000000000              -0.106427565              -0.430708333               0.000000000              -0.112618377              -0.453805555               0.000000000              -0.118809188              -0.476902778               0.000000000              -0.125000000              -0.500000000               0.000000000              -0.013036280              -0.132359569               0.000000000              -0.016127762              -0.155337096               0.000000000              -0.019219245              -0.178314623               0.000000000              -0.022310727              -0.201292150               0.000000000              -0.025402210              -0.224269676               0.000000000              -0.028493692              -0.247247203               0.000000000              -0.031585175              -0.270224730               0.000000000              -0.034676657              -0.293202257               0.000000000              -0.037768140              -0.316179784               0.000000000              -0.040859622              -0.339157311               0.000000000              -0.043951105              -0.362134838               0.000000000              -0.047042587              -0.385112365               0.000000000              -0.050134070              -0.408089892               0.000000000              -0.053225552              -0.431067419               0.000000000              -0.056317035              -0.454044946               0.000000000              -0.059408517              -0.477022473               0.000000000              -0.062500000              -0.500000000               0.000000000               0.000000000              -0.133000000               0.000000000               0.000000000              -0.155937500               0.000000000               0.000000000              -0.178875000               0.000000000               0.000000000              -0.201812500               0.000000000               0.000000000              -0.224750000               0.000000000               0.000000000              -0.247687500               0.000000000               0.000000000              -0.270625000               0.000000000               0.000000000              -0.293562500               0.000000000               0.000000000              -0.316500000               0.000000000               0.000000000              -0.339437500               0.000000000               0.000000000              -0.362375000               0.000000000               0.000000000              -0.385312500               0.000000000               0.000000000              -0.408250000               0.000000000               0.000000000              -0.431187500               0.000000000               0.000000000              -0.454125000               0.000000000               0.000000000              -0.477062500               0.000000000               0.000000000              -0.500000000               0.000000000              -0.133000000               0.000000000               0.000000000              -0.155937500               0.000000000               0.000000000              -0.178875000               0.000000000               0.000000000              -0.201812500               0.000000000               0.000000000              -0.224750000               0.000000000               0.000000000              -0.247687500               0.000000000               0.000000000              -0.270625000               0.000000000               0.000000000              -0.293562500               0.000000000               0.000000000              -0.316500000               0.000000000               0.000000000              -0.339437500               0.000000000               0.000000000              -0.362375000               0.000000000               0.000000000              -0.385312500               0.000000000               0.000000000              -0.408250000               0.000000000               0.000000000              -0.431187500               0.000000000               0.000000000              -0.454125000               0.000000000               0.000000000              -0.477062500               0.000000000               0.000000000              -0.500000000               0.000000000               0.000000000              -0.132359569               0.013036280               0.000000000              -0.155337096               0.016127762               0.000000000              -0.178314623               0.019219245               0.000000000              -0.201292150               0.022310727               0.000000000              -0.224269676               0.025402210               0.000000000              -0.247247203               0.028493692               0.000000000              -0.270224730               0.031585175               0.000000000              -0.293202257               0.034676657               0.000000000              -0.316179784               0.037768140               0.000000000              -0.339157311               0.040859622               0.000000000              -0.362134838               0.043951105               0.000000000              -0.385112365               0.047042587               0.000000000              -0.408089892               0.050134070               0.000000000              -0.431067419               0.053225552               0.000000000              -0.454044946               0.056317035               0.000000000              -0.477022473               0.059408517               0.000000000              -0.500000000               0.062500000               0.000000000              -0.130444442               0.025947013               0.000000000              -0.153541665               0.032137825               0.000000000              -0.176638887               0.038328636               0.000000000              -0.199736109               0.044519448               0.000000000              -0.222833332               0.050710260               0.000000000              -0.245930554               0.056901071               0.000000000              -0.269027776               0.063091883               0.000000000              -0.292124999               0.069282695               0.000000000              -0.315222221               0.075473506               0.000000000              -0.338319444               0.081664318               0.000000000              -0.361416666               0.087855130               0.000000000              -0.384513888               0.094045942               0.000000000              -0.407611111               0.100236753               0.000000000              -0.430708333               0.106427565               0.000000000              -0.453805555               0.112618377               0.000000000              -0.476902778               0.118809188               0.000000000              -0.500000000               0.125000000               0.000000000              -0.127273065               0.038607862               0.000000000              -0.150568498               0.047913621               0.000000000              -0.173863932               0.057219379               0.000000000              -0.197159365               0.066525138               0.000000000              -0.220454798               0.075830897               0.000000000              -0.243750232               0.085136655               0.000000000              -0.267045665               0.094442414               0.000000000              -0.290341099               0.103748172               0.000000000              -0.313636532               0.113053931               0.000000000              -0.336931966               0.122359690               0.000000000              -0.360227399               0.131665448               0.000000000              -0.383522833               0.140971207               0.000000000              -0.406818266               0.150276966               0.000000000              -0.430113700               0.159582724               0.000000000              -0.453409133               0.168888483               0.000000000              -0.476704567               0.178194241               0.000000000              -0.500000000               0.187500000               0.000000000              -0.122875978               0.050896897               0.000000000              -0.146446229               0.063340840               0.000000000              -0.170016481               0.075784784               0.000000000              -0.193586732               0.088228728               0.000000000              -0.217156983               0.100672672               0.000000000              -0.240727235               0.113116616               0.000000000              -0.264297486               0.125560560               0.000000000              -0.287867738               0.138004504               0.000000000              -0.311437989               0.150448448               0.000000000              -0.335008240               0.162892392               0.000000000              -0.358578492               0.175336336               0.000000000              -0.382148743               0.187780280               0.000000000              -0.405718994               0.200224224               0.000000000              -0.429289246               0.212668168               0.000000000              -0.452859497               0.225112112               0.000000000              -0.476429749               0.237556056               0.000000000              -0.500000000               0.250000000               0.000000000              -0.117295528               0.062695766               0.000000000              -0.141214558               0.078308531               0.000000000              -0.165133587               0.093921295               0.000000000              -0.189052617               0.109534060               0.000000000              -0.212971646               0.125146824               0.000000000              -0.236890676               0.140759589               0.000000000              -0.260809705               0.156372354               0.000000000              -0.284728735               0.171985118               0.000000000              -0.308647764               0.187597883               0.000000000              -0.332566794               0.203210648               0.000000000              -0.356485823               0.218823412               0.000000000              -0.380404853               0.234436177               0.000000000              -0.404323882               0.250048941               0.000000000              -0.428242912               0.265661706               0.000000000              -0.452161941               0.281274471               0.000000000              -0.476080971               0.296887235               0.000000000              -0.500000000               0.312500000               0.000000000              -0.110585458               0.073890841               0.000000000              -0.134923867               0.092710163               0.000000000              -0.159262276               0.111529486               0.000000000              -0.183600685               0.130348808               0.000000000              -0.207939094               0.149168131               0.000000000              -0.232277503               0.167987453               0.000000000              -0.256615912               0.186806776               0.000000000              -0.280954320               0.205626098               0.000000000              -0.305292729               0.224445420               0.000000000              -0.329631138               0.243264743               0.000000000              -0.353969547               0.262084065               0.000000000              -0.378307956               0.280903388               0.000000000              -0.402646365               0.299722710               0.000000000              -0.426984773               0.318542033               0.000000000              -0.451323182               0.337361355               0.000000000              -0.475661591               0.356180678               0.000000000              -0.500000000               0.375000000               0.000000000              -0.102810390               0.084374307               0.000000000              -0.127634741               0.106444663               0.000000000              -0.152459092               0.128515018               0.000000000              -0.177283442               0.150585374               0.000000000              -0.202107793               0.172655730               0.000000000              -0.226932143               0.194726086               0.000000000              -0.251756494               0.216796442               0.000000000              -0.276580845               0.238866798               0.000000000              -0.301405195               0.260937153               0.000000000              -0.326229546               0.283007509               0.000000000              -0.351053896               0.305077865               0.000000000              -0.375878247               0.327148221               0.000000000              -0.400702598               0.349218577               0.000000000              -0.425526948               0.371288933               0.000000000              -0.450351299               0.393359288               0.000000000              -0.475175649               0.415429644               0.000000000              -0.500000000               0.437500000               0.000000000              -0.094045202               0.094045202               0.000000000              -0.119417377               0.119417377               0.000000000              -0.144789552               0.144789552               0.000000000              -0.170161727               0.170161727               0.000000000              -0.195533901               0.195533901               0.000000000              -0.220906076               0.220906076               0.000000000              -0.246278251               0.246278251               0.000000000              -0.271650426               0.271650426               0.000000000              -0.297022601               0.297022601               0.000000000              -0.322394776               0.322394776               0.000000000              -0.347766951               0.347766951               0.000000000              -0.373139126               0.373139126               0.000000000              -0.398511300               0.398511300               0.000000000              -0.423883475               0.423883475               0.000000000              -0.449255650               0.449255650               0.000000000              -0.474627825               0.474627825               0.000000000              -0.500000000               0.500000000               0.000000000              -0.084374307               0.102810390               0.000000000              -0.106444663               0.127634741               0.000000000              -0.128515018               0.152459092               0.000000000              -0.150585374               0.177283442               0.000000000              -0.172655730               0.202107793               0.000000000              -0.194726086               0.226932143               0.000000000              -0.216796442               0.251756494               0.000000000              -0.238866798               0.276580845               0.000000000              -0.260937153               0.301405195               0.000000000              -0.283007509               0.326229546               0.000000000              -0.305077865               0.351053896               0.000000000              -0.327148221               0.375878247               0.000000000              -0.349218577               0.400702598               0.000000000              -0.371288933               0.425526948               0.000000000              -0.393359288               0.450351299               0.000000000              -0.415429644               0.475175649               0.000000000              -0.437500000               0.500000000               0.000000000              -0.073890841               0.110585458               0.000000000              -0.092710163               0.134923867               0.000000000              -0.111529486               0.159262276               0.000000000              -0.130348808               0.183600685               0.000000000              -0.149168131               0.207939094               0.000000000              -0.167987453               0.232277503               0.000000000              -0.186806776               0.256615912               0.000000000              -0.205626098               0.280954320               0.000000000              -0.224445420               0.305292729               0.000000000              -0.243264743               0.329631138               0.000000000              -0.262084065               0.353969547               0.000000000              -0.280903388               0.378307956               0.000000000              -0.299722710               0.402646365               0.000000000              -0.318542033               0.426984773               0.000000000              -0.337361355               0.451323182               0.000000000              -0.356180678               0.475661591               0.000000000              -0.375000000               0.500000000               0.000000000              -0.062695766               0.117295528               0.000000000              -0.078308531               0.141214558               0.000000000              -0.093921295               0.165133587               0.000000000              -0.109534060               0.189052617               0.000000000              -0.125146824               0.212971646               0.000000000              -0.140759589               0.236890676               0.000000000              -0.156372354               0.260809705               0.000000000              -0.171985118               0.284728735               0.000000000              -0.187597883               0.308647764               0.000000000              -0.203210648               0.332566794               0.000000000              -0.218823412               0.356485823               0.000000000              -0.234436177               0.380404853               0.000000000              -0.250048941               0.404323882               0.000000000              -0.265661706               0.428242912               0.000000000              -0.281274471               0.452161941               0.000000000              -0.296887235               0.476080971               0.000000000              -0.312500000               0.500000000               0.000000000              -0.050896897               0.122875978               0.000000000              -0.063340840               0.146446229               0.000000000              -0.075784784               0.170016481               0.000000000              -0.088228728               0.193586732               0.000000000              -0.100672672               0.217156983               0.000000000              -0.113116616               0.240727235               0.000000000              -0.125560560               0.264297486               0.000000000              -0.138004504               0.287867738               0.000000000              -0.150448448               0.311437989               0.000000000              -0.162892392               0.335008240               0.000000000              -0.175336336               0.358578492               0.000000000              -0.187780280               0.382148743               0.000000000              -0.200224224               0.405718994               0.000000000              -0.212668168               0.429289246               0.000000000              -0.225112112               0.452859497               0.000000000              -0.237556056               0.476429749               0.000000000              -0.250000000               0.500000000               0.000000000              -0.038607862               0.127273065               0.000000000              -0.047913621               0.150568498               0.000000000              -0.057219379               0.173863932               0.000000000              -0.066525138               0.197159365               0.000000000              -0.075830897               0.220454798               0.000000000              -0.085136655               0.243750232               0.000000000              -0.094442414               0.267045665               0.000000000              -0.103748172               0.290341099               0.000000000              -0.113053931               0.313636532               0.000000000              -0.122359690               0.336931966               0.000000000              -0.131665448               0.360227399               0.000000000              -0.140971207               0.383522833               0.000000000              -0.150276966               0.406818266               0.000000000              -0.159582724               0.430113700               0.000000000              -0.168888483               0.453409133               0.000000000              -0.178194241               0.476704567               0.000000000              -0.187500000               0.500000000               0.000000000              -0.025947013               0.130444442               0.000000000              -0.032137825               0.153541665               0.000000000              -0.038328636               0.176638887               0.000000000              -0.044519448               0.199736109               0.000000000              -0.050710260               0.222833332               0.000000000              -0.056901071               0.245930554               0.000000000              -0.063091883               0.269027776               0.000000000              -0.069282695               0.292124999               0.000000000              -0.075473506               0.315222221               0.000000000              -0.081664318               0.338319444               0.000000000              -0.087855130               0.361416666               0.000000000              -0.094045942               0.384513888               0.000000000              -0.100236753               0.407611111               0.000000000              -0.106427565               0.430708333               0.000000000              -0.112618377               0.453805555               0.000000000              -0.118809188               0.476902778               0.000000000              -0.125000000               0.500000000               0.000000000              -0.013036280               0.132359569               0.000000000              -0.016127762               0.155337096               0.000000000              -0.019219245               0.178314623               0.000000000              -0.022310727               0.201292150               0.000000000              -0.025402210               0.224269676               0.000000000              -0.028493692               0.247247203               0.000000000              -0.031585175               0.270224730               0.000000000              -0.034676657               0.293202257               0.000000000              -0.037768140               0.316179784               0.000000000              -0.040859622               0.339157311               0.000000000              -0.043951105               0.362134838               0.000000000              -0.047042587               0.385112365               0.000000000              -0.050134070               0.408089892               0.000000000              -0.053225552               0.431067419               0.000000000              -0.056317035               0.454044946               0.000000000              -0.059408517               0.477022473               0.000000000              -0.062500000               0.500000000               0.000000000               0.000000000               0.133000000               0.000000000               0.000000000               0.155937500               0.000000000               0.000000000               0.178875000               0.000000000               0.000000000               0.201812500               0.000000000               0.000000000               0.224750000               0.000000000               0.000000000               0.247687500               0.000000000               0.000000000               0.270625000               0.000000000               0.000000000               0.293562500               0.000000000               0.000000000               0.316500000               0.000000000               0.000000000               0.339437500               0.000000000               0.000000000               0.362375000               0.000000000               0.000000000               0.385312500               0.000000000               0.000000000               0.408250000               0.000000000               0.000000000               0.431187500               0.000000000               0.000000000               0.454125000               0.000000000               0.000000000               0.477062500               0.000000000               0.000000000               0.500000000               0.000000000 </DataArray>
</Points>
<Cells>
<DataArray type="Int32"                                    Name="connectivity"                                                      NumberOfComponents=" 1" format="ascii">
         0          1         18         17          1          2         19         18          2          3         20         19          3          4         21         20          4          5         22         21          5          6         23         22          6          7         24         23          7          8         25         24          8          9         26         25          9         10         27         26         10         11         28         27         11         12         29         28         12         13         30         29         13         14         31         30         14         15         32         31         15         16         33         32         17         18         35         34         18         19         36         35         19         20         37         36         20         21         38         37         21         22         39         38         22         23         40         39         23         24         41         40         24         25         42         41         25         26         43         42         26         27         44         43         27         28         45         44         28         29         46         45         29         30         47         46         30         31         48         47         31         32         49         48         32         33         50         49         34         35         52         51         35         36         53         52         36         37         54         53         37         38         55         54         38         39         56         55         39         40         57         56         40         41         58         57         41         42         59         58         42         43         60         59         43         44         61         60         44         45         62         61         45         46         63         62         46         47         64         63         47         48         65         64         48         49         66         65         49         50         67         66         51         52         69         68         52         53         70         69         53         54         71         70         54         55         72         71         55         56         73         72         56         57         74         73         57         58         75         74         58         59         76         75         59         60         77         76         60         61         78         77         61         62         79         78         62         63         80         79         63         64         81         80         64         65         82         81         65         66         83         82         66         67         84         83         68         69         86         85         69         70         87         86         70         71         88         87         71         72         89         88         72         73         90         89         73         74         91         90         74         75         92         91         75         76         93         92         76         77         94         93         77         78         95         94         78         79         96         95         79         80         97         96         80         81         98         97         81         82         99         98         82         83        100         99         83         84        101        100         85         86        103        102         86         87        104        103         87         88        105        104         88         89        106        105         89         90        107        106         90         91        108        107         91         92        109        108         92         93        110        109         93         94        111        110         94         95        112        111         95         96        113        112         96         97        114        113         97         98        115        114         98         99        116        115         99        100        117        116        100        101        118        117        102        103        120        119        103        104        121        120        104        105        122        121        105        106        123        122        106        107        124        123        107        108        125        124        108        109        126        125        109        110        127        126        110        111        128        127        111        112        129        128        112        113        130        129        113        114        131        130        114        115        132        131        115        116        133        132        116        117        134        133        117        118        135        134        119        120        137        136        120        121        138        137        121        122        139        138        122        123        140        139        123        124        141        140        124        125        142        141        125        126        143        142        126        127        144        143        127        128        145        144        128        129        146        145        129        130        147        146        130        131        148        147        131        132        149        148        132        133        150        149        133        134        151        150        134        135        152        151        136        137        154        153        137        138        155        154        138        139        156        155        139        140        157        156        140        141        158        157        141        142        159        158        142        143        160        159        143        144        161        160        144        145        162        161        145        146        163        162        146        147        164        163        147        148        165        164        148        149        166        165        149        150        167        166        150        151        168        167        151        152        169        168        153        154        171        170        154        155        172        171        155        156        173        172        156        157        174        173        157        158        175        174        158        159        176        175        159        160        177        176        160        161        178        177        161        162        179        178        162        163        180        179        163        164        181        180        164        165        182        181        165        166        183        182        166        167        184        183        167        168        185        184        168        169        186        185        170        171        188        187        171        172        189        188        172        173        190        189        173        174        191        190        174        175        192        191        175        176        193        192        176        177        194        193        177        178        195        194        178        179        196        195        179        180        197        196        180        181        198        197        181        182        199        198        182        183        200        199        183        184        201        200        184        185        202        201        185        186        203        202        187        188        205        204        188        189        206        205        189        190        207        206        190        191        208        207        191        192        209        208        192        193        210        209        193        194        211        210        194        195        212        211        195        196        213        212        196        197        214        213        197        198        215        214        198        199        216        215        199        200        217        216        200        201        218        217        201        202        219        218        202        203        220        219        204        205        222        221        205        206        223        222        206        207        224        223        207        208        225        224        208        209        226        225        209        210        227        226        210        211        228        227        211        212        229        228        212        213        230        229        213        214        231        230        214        215        232        231        215        216        233        232        216        217        234        233        217        218        235        234        218        219        236        235        219        220        237        236        221        222        239        238        222        223        240        239        223        224        241        240        224        225        242        241        225        226        243        242        226        227        244        243        227        228        245        244        228        229        246        245        229        230        247        246        230        231        248        247        231        232        249        248        232        233        250        249        233        234        251        250        234        235        252        251        235        236        253        252        236        237        254        253        238        239        256        255        239        240        257        256        240        241        258        257        241        242        259        258        242        243        260        259        243        244        261        260        244        245        262        261        245        246        263        262        246        247        264        263        247        248        265        264        248        249        266        265        249        250        267        266        250        251        268        267        251        252        269        268        252        253        270        269        253        254        271        270        255        256        273        272        256        257        274        273        257        258        275        274        258        259        276        275        259        260        277        276        260        261        278        277        261        262        279        278        262        263        280        279        263        264        281        280        264        265        282        281        265        266        283        282        266        267        284        283        267        268        285        284        268        269        286        285        269        270        287        286        270        271        288        287        306        307          1          0        307        308          2          1        308        309          3          2        309        310          4          3        310        311          5          4        311        312          6          5        312        313          7          6        313        314          8          7        314        315          9          8        315        316         10          9        316        317         11         10        317        318         12         11        318        319         13         12        319        320         14         13        320        321         15         14        321        322         16         15        323        324        307        306        324        325        308        307        325        326        309        308        326        327        310        309        327        328        311        310        328        329        312        311        329        330        313        312        330        331        314        313        331        332        315        314        332        333        316        315        333        334        317        316        334        335        318        317        335        336        319        318        336        337        320        319        337        338        321        320        338        339        322        321        340        341        324        323        341        342        325        324        342        343        326        325        343        344        327        326        344        345        328        327        345        346        329        328        346        347        330        329        347        348        331        330        348        349        332        331        349        350        333        332        350        351        334        333        351        352        335        334        352        353        336        335        353        354        337        336        354        355        338        337        355        356        339        338        357        358        341        340        358        359        342        341        359        360        343        342        360        361        344        343        361        362        345        344        362        363        346        345        363        364        347        346        364        365        348        347        365        366        349        348        366        367        350        349        367        368        351        350        368        369        352        351        369        370        353        352        370        371        354        353        371        372        355        354        372        373        356        355        374        375        358        357        375        376        359        358        376        377        360        359        377        378        361        360        378        379        362        361        379        380        363        362        380        381        364        363        381        382        365        364        382        383        366        365        383        384        367        366        384        385        368        367        385        386        369        368        386        387        370        369        387        388        371        370        388        389        372        371        389        390        373        372        391        392        375        374        392        393        376        375        393        394        377        376        394        395        378        377        395        396        379        378        396        397        380        379        397        398        381        380        398        399        382        381        399        400        383        382        400        401        384        383        401        402        385        384        402        403        386        385        403        404        387        386        404        405        388        387        405        406        389        388        406        407        390        389        408        409        392        391        409        410        393        392        410        411        394        393        411        412        395        394        412        413        396        395        413        414        397        396        414        415        398        397        415        416        399        398        416        417        400        399        417        418        401        400        418        419        402        401        419        420        403        402        420        421        404        403        421        422        405        404        422        423        406        405        423        424        407        406        425        426        409        408        426        427        410        409        427        428        411        410        428        429        412        411        429        430        413        412        430        431        414        413        431        432        415        414        432        433        416        415        433        434        417        416        434        435        418        417        435        436        419        418        436        437        420        419        437        438        421        420        438        439        422        421        439        440        423        422        440        441        424        423        442        443        426        425        443        444        427        426        444        445        428        427        445        446        429        428        446        447        430        429        447        448        431        430        448        449        432        431        449        450        433        432        450        451        434        433        451        452        435        434        452        453        436        435        453        454        437        436        454        455        438        437        455        456        439        438        456        457        440        439        457        458        441        440        459        460        443        442        460        461        444        443        461        462        445        444        462        463        446        445        463        464        447        446        464        465        448        447        465        466        449        448        466        467        450        449        467        468        451        450        468        469        452        451        469        470        453        452        470        471        454        453        471        472        455        454        472        473        456        455        473        474        457        456        474        475        458        457        476        477        460        459        477        478        461        460        478        479        462        461        479        480        463        462        480        481        464        463        481        482        465        464        482        483        466        465        483        484        467        466        484        485        468        467        485        486        469        468        486        487        470        469        487        488        471        470        488        489        472        471        489        490        473        472        490        491        474        473        491        492        475        474        493        494        477        476        494        495        478        477        495        496        479        478        496        497        480        479        497        498        481        480        498        499        482        481        499        500        483        482        500        501        484        483        501        502        485        484        502        503        486        485        503        504        487        486        504        505        488        487        505        506        489        488        506        507        490        489        507        508        491        490        508        509        492        491        510        511        494        493        511        512        495        494        512        513        496        495        513        514        497        496        514        515        498        497        515        516        499        498        516        517        500        499        517        518        501        500        518        519        502        501        519        520        503        502        520        521        504        503        521        522        505        504        522        523        506        505        523        524        507        506        524        525        508        507        525        526        509        508        527        528        511        510        528        529        512        511        529        530        513        512        530        531        514        513        531        532        515        514        532        533        516        515        533        534        517        516        534        535        518        517        535        536        519        518        536        537        520        519        537        538        521        520        538        539        522        521        539        540        523        522        540        541        524        523        541        542        525        524        542        543        526        525        544        545        528        527        545        546        529        528        546        547        530        529        547        548        531        530        548        549        532        531        549        550        533        532        550        551        534        533        551        552        535        534        552        553        536        535        553        554        537        536        554        555        538        537        555        556        539        538        556        557        540        539        557        558        541        540        558        559        542        541        559        560        543        542        561        562        545        544        562        563        546        545        563        564        547        546        564        565        548        547        565        566        549        548        566        567        550        549        567        568        551        550        568        569        552        551        569        570        553        552        570        571        554        553        571        572        555        554        572        573        556        555        573        574        557        556        574        575        558        557        575        576        559        558        576        577        560        559        578        579        596        595        579        580        597        596        580        581        598        597        581        582        599        598        582        583        600        599        583        584        601        600        584        585        602        601        585        586        603        602        586        587        604        603        587        588        605        604        588        589        606        605        589        590        607        606        590        591        608        607        591        592        609        608        592        593        610        609        593        594        611        610        595        596        613        612        596        597        614        613        597        598        615        614        598        599        616        615        599        600        617        616        600        601        618        617        601        602        619        618        602        603        620        619        603        604        621        620        604        605        622        621        605        606        623        622        606        607        624        623        607        608        625        624        608        609        626        625        609        610        627        626        610        611        628        627        612        613        630        629        613        614        631        630        614        615        632        631        615        616        633        632        616        617        634        633        617        618        635        634        618        619        636        635        619        620        637        636        620        621        638        637        621        622        639        638        622        623        640        639        623        624        641        640        624        625        642        641        625        626        643        642        626        627        644        643        627        628        645        644        629        630        647        646        630        631        648        647        631        632        649        648        632        633        650        649        633        634        651        650        634        635        652        651        635        636        653        652        636        637        654        653        637        638        655        654        638        639        656        655        639        640        657        656        640        641        658        657        641        642        659        658        642        643        660        659        643        644        661        660        644        645        662        661        646        647        664        663        647        648        665        664        648        649        666        665        649        650        667        666        650        651        668        667        651        652        669        668        652        653        670        669        653        654        671        670        654        655        672        671        655        656        673        672        656        657        674        673        657        658        675        674        658        659        676        675        659        660        677        676        660        661        678        677        661        662        679        678        663        664        681        680        664        665        682        681        665        666        683        682        666        667        684        683        667        668        685        684        668        669        686        685        669        670        687        686        670        671        688        687        671        672        689        688        672        673        690        689        673        674        691        690        674        675        692        691        675        676        693        692        676        677        694        693        677        678        695        694        678        679        696        695        680        681        698        697        681        682        699        698        682        683        700        699        683        684        701        700        684        685        702        701        685        686        703        702        686        687        704        703        687        688        705        704        688        689        706        705        689        690        707        706        690        691        708        707        691        692        709        708        692        693        710        709        693        694        711        710        694        695        712        711        695        696        713        712        697        698        715        714        698        699        716        715        699        700        717        716        700        701        718        717        701        702        719        718        702        703        720        719        703        704        721        720        704        705        722        721        705        706        723        722        706        707        724        723        707        708        725        724        708        709        726        725        709        710        727        726        710        711        728        727        711        712        729        728        712        713        730        729        714        715        732        731        715        716        733        732        716        717        734        733        717        718        735        734        718        719        736        735        719        720        737        736        720        721        738        737        721        722        739        738        722        723        740        739        723        724        741        740        724        725        742        741        725        726        743        742        726        727        744        743        727        728        745        744        728        729        746        745        729        730        747        746        731        732        749        748        732        733        750        749        733        734        751        750        734        735        752        751        735        736        753        752        736        737        754        753        737        738        755        754        738        739        756        755        739        740        757        756        740        741        758        757        741        742        759        758        742        743        760        759        743        744        761        760        744        745        762        761        745        746        763        762        746        747        764        763        748        749        766        765        749        750        767        766        750        751        768        767        751        752        769        768        752        753        770        769        753        754        771        770        754        755        772        771        755        756        773        772        756        757        774        773        757        758        775        774        758        759        776        775        759        760        777        776        760        761        778        777        761        762        779        778        762        763        780        779        763        764        781        780        765        766        783        782        766        767        784        783        767        768        785        784        768        769        786        785        769        770        787        786        770        771        788        787        771        772        789        788        772        773        790        789        773        774        791        790        774        775        792        791        775        776        793        792        776        777        794        793        777        778        795        794        778        779        796        795        779        780        797        796        780        781        798        797        782        783        800        799        783        784        801        800        784        785        802        801        785        786        803        802        786        787        804        803        787        788        805        804        788        789        806        805        789        790        807        806        790        791        808        807        791        792        809        808        792        793        810        809        793        794        811        810        794        795        812        811        795        796        813        812        796        797        814        813        797        798        815        814        799        800        817        816        800        801        818        817        801        802        819        818        802        803        820        819        803        804        821        820        804        805        822        821        805        806        823        822        806        807        824        823        807        808        825        824        808        809        826        825        809        810        827        826        810        811        828        827        811        812        829        828        812        813        830        829        813        814        831        830        814        815        832        831        816        817        834        833        817        818        835        834        818        819        836        835        819        820        837        836        820        821        838        837        821        822        839        838        822        823        840        839        823        824        841        840        824        825        842        841        825        826        843        842        826        827        844        843        827        828        845        844        828        829        846        845        829        830        847        846        830        831        848        847        831        832        849        848        833        834        562        561        834        835        563        562        835        836        564        563        836        837        565        564        837        838        566        565        838        839        567        566        839        840        568        567        840        841        569        568        841        842        570        569        842        843        571        570        843        844        572        571        844        845        573        572        845        846        574        573        846        847        575        574        847        848        576        575        848        849        577        576        884        885        579        578        885        886        580        579        886        887        581        580        887        888        582        581        888        889        583        582        889        890        584        583        890        891        585        584        891        892        586        585        892        893        587        586        893        894        588        587        894        895        589        588        895        896        590        589        896        897        591        590        897        898        592        591        898        899        593        592        899        900        594        593        901        902        885        884        902        903        886        885        903        904        887        886        904        905        888        887        905        906        889        888        906        907        890        889        907        908        891        890        908        909        892        891        909        910        893        892        910        911        894        893        911        912        895        894        912        913        896        895        913        914        897        896        914        915        898        897        915        916        899        898        916        917        900        899        918        919        902        901        919        920        903        902        920        921        904        903        921        922        905        904        922        923        906        905        923        924        907        906        924        925        908        907        925        926        909        908        926        927        910        909        927        928        911        910        928        929        912        911        929        930        913        912        930        931        914        913        931        932        915        914        932        933        916        915        933        934        917        916        935        936        919        918        936        937        920        919        937        938        921        920        938        939        922        921        939        940        923        922        940        941        924        923        941        942        925        924        942        943        926        925        943        944        927        926        944        945        928        927        945        946        929        928        946        947        930        929        947        948        931        930        948        949        932        931        949        950        933        932        950        951        934        933        952        953        936        935        953        954        937        936        954        955        938        937        955        956        939        938        956        957        940        939        957        958        941        940        958        959        942        941        959        960        943        942        960        961        944        943        961        962        945        944        962        963        946        945        963        964        947        946        964        965        948        947        965        966        949        948        966        967        950        949        967        968        951        950        969        970        953        952        970        971        954        953        971        972        955        954        972        973        956        955        973        974        957        956        974        975        958        957        975        976        959        958        976        977        960        959        977        978        961        960        978        979        962        961        979        980        963        962        980        981        964        963        981        982        965        964        982        983        966        965        983        984        967        966        984        985        968        967        986        987        970        969        987        988        971        970        988        989        972        971        989        990        973        972        990        991        974        973        991        992        975        974        992        993        976        975        993        994        977        976        994        995        978        977        995        996        979        978        996        997        980        979        997        998        981        980        998        999        982        981        999       1000        983        982       1000       1001        984        983       1001       1002        985        984       1003       1004        987        986       1004       1005        988        987       1005       1006        989        988       1006       1007        990        989       1007       1008        991        990       1008       1009        992        991       1009       1010        993        992       1010       1011        994        993       1011       1012        995        994       1012       1013        996        995       1013       1014        997        996       1014       1015        998        997       1015       1016        999        998       1016       1017       1000        999       1017       1018       1001       1000       1018       1019       1002       1001       1020       1021       1004       1003       1021       1022       1005       1004       1022       1023       1006       1005       1023       1024       1007       1006       1024       1025       1008       1007       1025       1026       1009       1008       1026       1027       1010       1009       1027       1028       1011       1010       1028       1029       1012       1011       1029       1030       1013       1012       1030       1031       1014       1013       1031       1032       1015       1014       1032       1033       1016       1015       1033       1034       1017       1016       1034       1035       1018       1017       1035       1036       1019       1018       1037       1038       1021       1020       1038       1039       1022       1021       1039       1040       1023       1022       1040       1041       1024       1023       1041       1042       1025       1024       1042       1043       1026       1025       1043       1044       1027       1026       1044       1045       1028       1027       1045       1046       1029       1028       1046       1047       1030       1029       1047       1048       1031       1030       1048       1049       1032       1031       1049       1050       1033       1032       1050       1051       1034       1033       1051       1052       1035       1034       1052       1053       1036       1035       1054       1055       1038       1037       1055       1056       1039       1038       1056       1057       1040       1039       1057       1058       1041       1040       1058       1059       1042       1041       1059       1060       1043       1042       1060       1061       1044       1043       1061       1062       1045       1044       1062       1063       1046       1045       1063       1064       1047       1046       1064       1065       1048       1047       1065       1066       1049       1048       1066       1067       1050       1049       1067       1068       1051       1050       1068       1069       1052       1051       1069       1070       1053       1052       1071       1072       1055       1054       1072       1073       1056       1055       1073       1074       1057       1056       1074       1075       1058       1057       1075       1076       1059       1058       1076       1077       1060       1059       1077       1078       1061       1060       1078       1079       1062       1061       1079       1080       1063       1062       1080       1081       1064       1063       1081       1082       1065       1064       1082       1083       1066       1065       1083       1084       1067       1066       1084       1085       1068       1067       1085       1086       1069       1068       1086       1087       1070       1069       1088       1089       1072       1071       1089       1090       1073       1072       1090       1091       1074       1073       1091       1092       1075       1074       1092       1093       1076       1075       1093       1094       1077       1076       1094       1095       1078       1077       1095       1096       1079       1078       1096       1097       1080       1079       1097       1098       1081       1080       1098       1099       1082       1081       1099       1100       1083       1082       1100       1101       1084       1083       1101       1102       1085       1084       1102       1103       1086       1085       1103       1104       1087       1086       1105       1106       1089       1088       1106       1107       1090       1089       1107       1108       1091       1090       1108       1109       1092       1091       1109       1110       1093       1092       1110       1111       1094       1093       1111       1112       1095       1094       1112       1113       1096       1095       1113       1114       1097       1096       1114       1115       1098       1097       1115       1116       1099       1098       1116       1117       1100       1099       1117       1118       1101       1100       1118       1119       1102       1101       1119       1120       1103       1102       1120       1121       1104       1103       1122       1123       1106       1105       1123       1124       1107       1106       1124       1125       1108       1107       1125       1126       1109       1108       1126       1127       1110       1109       1127       1128       1111       1110       1128       1129       1112       1111       1129       1130       1113       1112       1130       1131       1114       1113       1131       1132       1115       1114       1132       1133       1116       1115       1133       1134       1117       1116       1134       1135       1118       1117       1135       1136       1119       1118       1136       1137       1120       1119       1137       1138       1121       1120        272        273       1123       1122        273        274       1124       1123        274        275       1125       1124        275        276       1126       1125        276        277       1127       1126        277        278       1128       1127        278        279       1129       1128        279        280       1130       1129        280        281       1131       1130        281        282       1132       1131        282        283       1133       1132        283        284       1134       1133        284        285       1135       1134        285        286       1136       1135        286        287       1137       1136        287        288       1138       1137 </DataArray>
<DataArray type="Int32"                                    Name="offsets"                                                      NumberOfComponents=" 1" format="ascii">
         4          8         12         16         20         24         28         32         36         40         44         48         52         56         60         64         68         72         76         80         84         88         92         96        100        104        108        112        116        120        124        128        132        136        140        144        148        152        156        160        164        168        172        176        180        184        188        192        196        200        204        208        212        216        220        224        228        232        236        240        244        248        252        256        260        264        268        272        276        280        284        288        292        296        300        304        308        312        316        320        324        328        332        336        340        344        348        352        356        360        364        368        372        376        380        384        388        392        396        400        404        408        412        416        420        424        428        432        436        440        444        448        452        456        460        464        468        472        476        480        484        488        492        496        500        504        508        512        516        520        524        528        532        536        540        544        548        552        556        560        564        568        572        576        580        584        588        592        596        600        604        608        612        616        620        624        628        632        636        640        644        648        652        656        660        664        668        672        676        680        684        688        692        696        700        704        708        712        716        720        724        728        732        736        740        744        748        752        756        760        764        768        772        776        780        784        788        792        796        800        804        808        812        816        820        824        828        832        836        840        844        848        852        856        860        864        868        872        876        880        884        888        892        896        900        904        908        912        916        920        924        928        932        936        940        944        948        952        956        960        964        968        972        976        980        984        988        992        996       1000       1004       1008       1012       1016       1020       1024       1028       1032       1036       1040       1044       1048       1052       1056       1060       1064       1068       1072       1076       1080       1084       1088       1092       1096       1100       1104       1108       1112       1116       1120       1124       1128       1132       1136       1140       1144       1148       1152       1156       1160       1164       1168       1172       1176       1180       1184       1188       1192       1196       1200       1204       1208       1212       1216       1220       1224       1228       1232       1236       1240       1244       1248       1252       1256       1260       1264       1268       1272       1276       1280       1284       1288       1292       1296       1300       1304       1308       1312       1316       1320       1324       1328       1332       1336       1340       1344       1348       1352       1356       1360       1364       1368       1372       1376       1380       1384       1388       1392       1396       1400       1404       1408       1412       1416       1420       1424       1428       1432       1436       1440       1444       1448       1452       1456       1460       1464       1468       1472       1476       1480       1484       1488       1492       1496       1500       1504       1508       1512       1516       1520       1524       1528       1532       1536       1540       1544       1548       1552       1556       1560       1564       1568       1572       1576       1580       1584       1588       1592       1596       1600       1604       1608       1612       1616       1620       1624       1628       1632       1636       1640       1644       1648       1652       1656       1660       1664       1668       1672       1676       1680       1684       1688       1692       1696       1700       1704       1708       1712       1716       1720       1724       1728       1732       1736       1740       1744       1748       1752       1756       1760       1764       1768       1772       1776       1780       1784       1788       1792       1796       1800       1804       1808       1812       1816       1820       1824       1828       1832       1836       1840       1844       1848       1852       1856       1860       1864       1868       1872       1876       1880       1884       1888       1892       1896       1900       1904       1908       1912       1916       1920       1924       1928       1932       1936       1940       1944       1948       1952       1956       1960       1964       1968       1972       1976       1980       1984       1988       1992       1996       2000       2004       2008       2012       2016       2020       2024       2028       2032       2036       2040       2044       2048       2052       2056       2060       2064       2068       2072       2076       2080       2084       2088       2092       2096       2100       2104       2108       2112       2116       2120       2124       2128       2132       2136       2140       2144       2148       2152       2156       2160       2164       2168       2172       2176       2180       2184       2188       2192       2196       2200       2204       2208       2212       2216       2220       2224       2228       2232       2236       2240       2244       2248       2252       2256       2260       2264       2268       2272       2276       2280       2284       2288       2292       2296       2300       2304       2308       2312       2316       2320       2324       2328       2332       2336       2340       2344       2348       2352       2356       2360       2364       2368       2372       2376       2380       2384       2388       2392       2396       2400       2404       2408       2412       2416       2420       2424       2428       2432       2436       2440       2444       2448       2452       2456       2460       2464       2468       2472       2476       2480       2484       2488       2492       2496       2500       2504       2508       2512       2516       2520       2524       2528       2532       2536       2540       2544       2548       2552       2556       2560       2564       2568       2572       2576       2580       2584       2588       2592       2596       2600       2604       2608       2612       2616       2620       2624       2628       2632       2636       2640       2644       2648       2652       2656       2660       2664       2668       2672       2676       2680       2684       2688       2692       2696       2700       2704       2708       2712       2716       2720       2724       2728       2732       2736       2740       2744       2748       2752       2756       2760       2764       2768       2772       2776       2780       2784       2788       2792       2796       2800       2804       2808       2812       2816       2820       2824       2828       2832       2836       2840       2844       2848       2852       2856       2860       2864       2868       2872       2876       2880       2884       2888       2892       2896       2900       2904       2908       2912       2916       2920       2924       2928       2932       2936       2940       2944       2948       2952       2956       2960       2964       2968       2972       2976       2980       2984       2988       2992       2996       3000       3004       3008       3012       3016       3020       3024       3028       3032       3036       3040       3044       3048       3052       3056       3060       3064       3068       3072       3076       3080       3084       3088       3092       3096       3100       3104       3108       3112       3116       3120       3124       3128       3132       3136       3140       3144       3148       3152       3156       3160       3164       3168       3172       3176       3180       3184       3188       3192       3196       3200       3204       3208       3212       3216       3220       3224       3228       3232       3236       3240       3244       3248       3252       3256       3260       3264       3268       3272       3276       3280       3284       3288       3292       3296       3300       3304       3308       3312       3316       3320       3324       3328       3332       3336       3340       3344       3348       3352       3356       3360       3364       3368       3372       3376       3380       3384       3388       3392       3396       3400       3404       3408       3412       3416       3420       3424       3428       3432       3436       3440       3444       3448       3452       3456       3460       3464       3468       3472       3476       3480       3484       3488       3492       3496       3500       3504       3508       3512       3516       3520       3524       3528       3532       3536       3540       3544       3548       3552       3556       3560       3564       3568       3572       3576       3580       3584       3588       3592       3596       3600       3604       3608       3612       3616       3620       3624       3628       3632       3636       3640       3644       3648       3652       3656       3660       3664       3668       3672       3676       3680       3684       3688       3692       3696       3700       3704       3708       3712       3716       3720       3724       3728       3732       3736       3740       3744       3748       3752       3756       3760       3764       3768       3772       3776       3780       3784       3788       3792       3796       3800       3804       3808       3812       3816       3820       3824       3828       3832       3836       3840       3844       3848       3852       3856       3860       3864       3868       3872       3876       3880       3884       3888       3892       3896       3900       3904       3908       3912       3916       3920       3924       3928       3932       3936       3940       3944       3948       3952       3956       3960       3964       3968       3972       3976       3980       3984       3988       3992       3996       4000       4004       4008       4012       4016       4020       4024       4028       4032       4036       4040       4044       4048       4052       4056       4060       4064       4068       4072       4076       4080       4084       4088       4092       4096 </DataArray>
<DataArray type="UInt8"                                    Name="types"                                                      NumberOfComponents=" 1" format="ascii">
         9          9          9          9          9          9          9          9          9          9          9          9          9          9          9          9          9          9          9          9          9          9          9          9          9          9          9          9          9          9          9          9          9          9          9          9          9          9          9          9          9          9          9          9          9          9          9          9          9          9          9          9          9          9          9          9          9          9          9          9          9          9          9          9          9          9          9          9          9          9          9          9          9          9          9          9          9          9          9          9          9          9          9          9          9          9          9          9          9          9          9          9          9          9          9          9          9          9          9          9          9          9          9          9          9          9          9          9          9          9          9          9          9          9          9          9          9          9          9          9          9          9          9          9          9          9          9          9          9          9          9          9          9          9          9          9          9          9          9          9          9          9          9          9          9          9          9          9          9          9          9          9          9          9          9          9          9          9          9          9          9          9          9          9          9          9          9          9          9          9          9          9          9          9          9          9          9          9          9          9          9          9          9          9          9          9          9          9          9          9          9          9          9          9          9          9          9          9          9          9          9          9          9          9          9          9          9          9          9          9          9          9          9          9          9          9          9          9          9          9          9          9          9          9          9          9          9          9          9          9          9          9          9          9          9          9          9          9          9          9          9          9          9          9          9          9          9          9          9          9          9          9          9          9          9          9          9          9          9          9          9          9          9          9          9          9          9          9          9          9          9          9          9          9          9          9          9          9          9          9          9          9          9          9          9          9          9          9          9          9          9          9          9          9          9          9          9          9          9          9          9          9          9          9          9          9          9          9          9          9          9          9          9          9          9          9          9          9          9          9          9          9          9          9          9          9          9          9          9          9          9          9          9          9          9          9          9          9          9          9          9          9          9          9          9          9          9          9          9          9          9          9          9          9          9          9          9          9          9          9          9          9          9          9          9          9          9          9          9          9          9          9          9          9          9          9          9          9          9          9          9          9          9          9          9          9          9          9          9          9          9          9          9          9          9          9          9          9          9          9          9          9          9          9          9          9          9          9          9          9          9          9          9          9          9          9          9          9          9          9          9          9          9          9          9          9          9          9          9          9          9          9          9          9          9          9          9          9          9          9          9          9          9          9          9          9          9          9          9          9          9          9          9          9          9          9          9          9          9          9          9          9          9          9          9          9          9          9          9          9          9          9          9          9          9          9          9          9          9          9          9          9          9          9          9          9          9          9          9          9          9          9          9          9          9          9          9          9          9          9          9          9          9          9          9          9          9          9          9          9          9          9          9          9          9          9          9          9          9          9          9          9          9          9          9          9          9          9          9          9          9          9          9          9          9          9          9          9          9          9          9          9          9          9          9          9          9          9          9          9          9          9          9          9          9          9          9          9          9          9          9          9          9          9          9          9          9          9          9          9          9          9          9          9          9          9          9          9          9          9          9          9          9          9          9          9          9          9          9          9          9          9          9          9          9          9          9          9          9          9          9          9          9          9          9          9          9          9          9          9          9          9          9          9          9          9          9          9          9          9          9          9          9          9          9          9          9          9          9          9          9          9          9          9          9          9          9          9          9          9          9          9          9          9          9          9          9          9          9          9          9          9          9          9          9          9          9          9          9          9          9          9          9          9          9          9          9          9          9          9          9          9          9          9          9          9          9          9          9          9          9          9          9          9          9          9          9          9          9          9          9          9          9          9          9          9          9          9          9          9          9          9          9          9          9          9          9          9          9          9          9          9          9          9          9          9          9          9          9          9          9          9          9          9          9          9          9          9          9          9          9          9          9          9          9          9          9          9          9          9          9          9          9          9          9          9          9          9          9          9          9          9          9          9          9          9          9          9          9          9          9          9          9          9          9          9          9          9          9          9          9          9          9          9          9          9          9          9          9          9          9          9          9          9          9          9          9          9          9          9          9          9          9          9          9          9          9          9          9          9          9          9          9          9          9          9          9          9          9          9          9          9          9          9          9          9          9          9          9          9          9          9          9          9          9          9          9          9          9          9          9          9          9          9          9          9          9          9          9          9          9          9          9          9          9          9          9          9          9          9          9          9          9          9          9          9          9          9          9          9          9          9          9          9          9          9          9          9          9          9          9          9          9          9          9          9          9          9          9          9          9          9          9          9          9          9          9          9          9          9          9          9          9          9          9          9          9          9          9          9          9          9          9          9          9          9          9          9          9          9          9          9          9          9          9          9          9          9          9          9          9          9          9          9          9          9          9          9          9          9          9          9          9          9          9          9          9          9          9          9          9          9          9          9          9          9          9          9          9          9          9          9          9          9          9          9          9          9          9          9          9          9          9          9          9          9          9          9          9          9          9          9          9          9          9          9          9          9          9          9          9          9          9          9          9          9          9          9          9          9          9          9          9          9          9          9          9          9          9          9          9          9          9          9          9          9          9          9          9          9          9          9          9          9          9          9          9          9          9          9          9          9          9          9 </DataArray>
</Cells>
<CellData>
<DataArray type="Int32"                                    Name="material"                                                      NumberOfComponents=" 1" format="ascii">
         1          1          1          1          1          1          1          1          1          1          1          1          1          1          1          1          1          1          1          1          1          1          1          1          1          1          1          1          1          1          1          1          1          1          1          1          1          1          1          1          1          1          1          1          1          1          1          1          1          1          1          1          1          1          1          1          1          1          1          1          1          1          1          1          1          1          1          1          1          1          1          1          1          1          1          1          1          1          1          1          1          1          1          1          1          1          1          1          1          1          1          1          1          1          1          1          1          1          1          1          1          1          1          1          1          1          1          1          1          1          1          1          1          1          1          1          1          1          1          1          1          1          1          1          1          1          1          1          1          1          1          1          1          1          1          1          1          1          1          1          1          1          1          1          1          1          1          1          1          1          1          1          1          1          1          1          1          1          1          1          1          1          1          1          1          1          1          1          1          1          1          1          1          1          1          1          1          1          1          1          1          1          1          1          1          1          1          1          1          1          1          1          1          1          1          1          1          1          1          1          1          1          1          1          1          1          1          1          1          1          1          1          1          1          1          1          1          1          1          1          1          1          1          1          1          1          1          1          1          1          1          1          1          1          1          1          1          1          1          1          1          1          1          1          1          1          1          1          1          1          1          1          1          1          1          1          1          1          1          1          1          1          1          1          1          1          1          1          1          1          1          1          1          1          1          1          1          1          1          1          1          1          1          1          1          1          1          1          1          1          1          1          1          1          1          1          1          1          1          1          1          1          1          1          1          1          1          1          1          1          1          1          1          1          1          1          1          1          1          1          1          1          1          1          1          1          1          1          1          1          1          1          1          1          1          1          1          1          1          1          1          1          1          1          1          1          1          1          1          1          1          1          1          1          1          1          1          1          1          1          1          1          1          1          1          1          1          1          1          1          1          1          1          1          1          1          1          1          1          1          1          1          1          1          1          1          1          1          1          1          1          1          1          1          1          1          1          1          1          1          1          1          1          1          1          1          1          1          1          1          1          1          1          1          1          1          1          1          1          1          1          1          1          1          1          1          1          1          1          1          1          1          1          1          1          1          1          1          1          1          1          1          1          1          1          1          1          1          1          1          1          1          1          1          1          1          1          1          1          1          1          1          1          1          1          1          1          1          1          1          1          1          1          1          1          1          1          1          1          1          1          1          1          1          1          1          1          1          1          1          1          1          1          1          1          1          1          1          1          1          1          1          1          1          1          1          1          1          1          1          1          1          1          1          1          1          1          1          1          1          1          1          1          1          1          1          1          1          1          1          1          1          1          1          1          1          1          1          1          1          1          1          1          1          1          1          1          1          1          1          1          1          1          1          1          1          1          1          1          1          1          1          1          1          1          1          1          1          1          1          1          1          1          1          1          1          1          1          1          1          1          1          1          1          1          1          1          1          1          1          1          1          1          1          1          1          1          1          1          1          1          1          1          1          1          1          1          1          1          1          1          1          1          1          1          1          1          1          1          1          1          1          1          1          1          1          1          1          1          1          1          1          1          1          1          1          1          1          1          1          1          1          1          1          1          1          1          1          1          1          1          1          1          1          1          1          1          1          1          1          1          1          1          1          1          1          1          1          1          1          1          1          1          1          1          1          1          1          1          1          1          1          1          1          1          1          1          1          1          1          1          1          1          1          1          1          1          1          1          1          1          1          1          1          1          1          1          1          1          1          1          1          1          1          1          1          1          1          1          1          1          1          1          1          1          1          1          1          1          1          1          1          1          1          1          1          1          1          1          1          1          1          1          1          1          1          1          1          1          1          1          1          1          1          1          1          1          1          1          1          1          1          1          1          1          1          1          1          1          1          1          1          1          1          1          1          1          1          1          1          1          1          1          1          1          1          1          1          1          1          1          1          1          1          1          1          1          1          1          1          1          1          1          1          1          1          1          1          1          1          1          1          1          1          1          1          1          1          1          1          1          1          1          1          1          1          1          1          1          1          1          1          1          1          1          1          1          1          1          1          1          1          1          1          1          1          1          1          1          1          1          1          1          1          1          1          1          1          1          1          1          1          1          1          1          1          1          1          1          1          1          1          1          1          1          1          1          1          1          1          1          1          1          1          1          1          1          1          1          1          1          1          1          1          1          1          1          1          1          1          1          1          1          1          1          1          1          1          1          1          1          1          1          1          1          1          1          1          1          1          1          1          1          1          1          1          1          1          1          1          1          1          1          1          1          1          1          1          1          1          1          1          1          1          1          1          1          1          1          1          1          1          1          1          1          1          1          1          1          1          1          1          1          1          1          1          1          1          1          1          1          1          1          1          1          1          1          1          1          1          1          1          1          1          1          1          1          1          1          1          1          1          1          1          1          1          1          1          1          1          1          1          1          1          1          1          1          1          1          1          1          1          1          1          1          1          1          1          1          1          1          1          1          1 </DataArray>
</CellData>
<PointData>
<DataArray type="Float64"                                    Name="u"                                                      NumberOfComponents=" 3" format="ascii">
              0.000001788               0.000000000               1.000000000               0.000000457               0.000000000               1.000000000               0.000000037               0.000000000               1.000000000               0.000000025               0.000000000               1.000000000               0.000000071               0.000000000               1.000000000               0.000000059               0.000000000               1.000000000              -0.000000069               0.000000000               1.000000000              -0.000000181               0.000000000               1.000000000              -0.000000176               0.000000000               1.000000000              -0.000000072               0.000000000               1.000000000               0.000000094               0.000000000               1.000000000               0.000000280               0.000000000               1.000000000               0.000000404               0.000000000               1.000000000               0.000000350               0.000000000               1.000000000               0.000000032               0.000000000               1.000000000              -0.000000628               0.000000000               1.000000000              -0.000001697               0.000000000               1.000000000               0.000001681               0.000003430               1.000000000               0.000000425               0.000003196               1.000000000               0.000000062               0.000003157               1.000000000               0.000000037               0.000003461               1.000000000               0.000000047               0.000003913               1.000000000              -0.000000010               0.000004548               1.000000000              -0.000000063               0.000005000               1.000000000              -0.000000086               0.000005247               1.000000000              -0.000000121               0.000005506               1.000000000              -0.000000111               0.000005672               1.000000000              -0.000000054               0.000005860               1.000000000              -0.000000037               0.000006163               1.000000000              -0.000000110               0.000006627               1.000000000              -0.000000358               0.000007326               1.000000000              -0.000000887               0.000008276               1.000000000              -0.000001759               0.000009469               1.000000000              -0.000003039               0.000010877               1.000000000               0.000001580               0.000006877               1.000000000               0.000000437               0.000006329               1.000000000               0.000000097               0.000006334               1.000000000               0.000000051               0.000006892               1.000000000               0.000000062               0.000007874               1.000000000              -0.000000034               0.000009035               1.000000000              -0.000000133               0.000009908               1.000000000              -0.000000177               0.000010485               1.000000000              -0.000000189               0.000011122               1.000000000              -0.000000208               0.000011663               1.000000000              -0.000000357               0.000012265               1.000000000              -0.000000713               0.000013098               1.000000000              -0.000001292               0.000014240               1.000000000              -0.000002144               0.000015792               1.000000000              -0.000003329               0.000017805               1.000000000              -0.000004884               0.000020301               1.000000000              -0.000006851               0.000023290               1.000000000               0.000001413               0.000010274               1.000000000               0.000000437               0.000009397               1.000000000               0.000000240               0.000009457               1.000000000               0.000000181               0.000010344               1.000000000               0.000000038               0.000011806               1.000000000              -0.000000140               0.000013511               1.000000000              -0.000000234               0.000014834               1.000000000              -0.000000243               0.000015882               1.000000000              -0.000000341               0.000017088               1.000000000              -0.000000651               0.000018295               1.000000000              -0.000001237               0.000019746               1.000000000              -0.000002203               0.000021538               1.000000000              -0.000003565               0.000023773               1.000000000              -0.000005308               0.000026551               1.000000000              -0.000007480               0.000029937               1.000000000              -0.000010071               0.000033991               1.000000000              -0.000013064               0.000038768               1.000000000               0.000001155               0.000013600               1.000000000               0.000000549               0.000012398               1.000000000               0.000000503               0.000012553               1.000000000               0.000000345               0.000013888               1.000000000               0.000000080               0.000015866               1.000000000              -0.000000203               0.000018149               1.000000000              -0.000000479               0.000019973               1.000000000              -0.000000738               0.000021748               1.000000000              -0.000001171               0.000023776               1.000000000              -0.000001889               0.000026085               1.000000000              -0.000003029               0.000028812               1.000000000              -0.000004695               0.000032092               1.000000000              -0.000006843               0.000035974               1.000000000              -0.000009478               0.000040522               1.000000000              -0.000012629               0.000045768               1.000000000              -0.000016251               0.000051759               1.000000000              -0.000020298               0.000058523               1.000000000               0.000001005               0.000016932               1.000000000               0.000000811               0.000015353               1.000000000               0.000000819               0.000015695               1.000000000               0.000000585               0.000017542               1.000000000               0.000000100               0.000020214               1.000000000              -0.000000473               0.000023127               1.000000000              -0.000000904               0.000025848               1.000000000              -0.000001374               0.000028654               1.000000000              -0.000002193               0.000031949               1.000000000              -0.000003476               0.000035770               1.000000000              -0.000005331               0.000040164               1.000000000              -0.000007772               0.000045316               1.000000000              -0.000010747               0.000051210               1.000000000              -0.000014252               0.000057891               1.000000000              -0.000018301               0.000065356               1.000000000              -0.000022842               0.000073586               1.000000000              -0.000027819               0.000082569               1.000000000               0.000000890               0.000020234               1.000000000               0.000001166               0.000018251               1.000000000               0.000001249               0.000018968               1.000000000               0.000000746               0.000021409               1.000000000               0.000000005               0.000024911               1.000000000              -0.000000652               0.000028906               1.000000000              -0.000001282               0.000032813               1.000000000              -0.000002095               0.000036992               1.000000000              -0.000003422               0.000041951               1.000000000              -0.000005343               0.000047560               1.000000000              -0.000007939               0.000053966               1.000000000              -0.000011163               0.000061213               1.000000000              -0.000014919               0.000069365               1.000000000              -0.000019252               0.000078366               1.000000000              -0.000024146               0.000088201               1.000000000              -0.000029519               0.000098831               1.000000000              -0.000035345               0.000110192               1.000000000               0.000000799               0.000023436               1.000000000               0.000001628               0.000021170               1.000000000               0.000001604               0.000022360               1.000000000               0.000000871               0.000025674               1.000000000              -0.000000067               0.000030230               1.000000000              -0.000001026               0.000035442               1.000000000              -0.000001934               0.000040719               1.000000000              -0.000003114               0.000046611               1.000000000              -0.000004926               0.000053499               1.000000000              -0.000007460               0.000061138               1.000000000              -0.000010698               0.000069743               1.000000000              -0.000014545               0.000079401               1.000000000              -0.000018994               0.000090021               1.000000000              -0.000024072               0.000101635               1.000000000              -0.000029696               0.000114148               1.000000000              -0.000035841               0.000127517               1.000000000              -0.000042455               0.000141673               1.000000000               0.000000737               0.000026457               1.000000000               0.000002089               0.000024151               1.000000000               0.000001862               0.000025945               1.000000000               0.000000857               0.000030225               1.000000000              -0.000000411               0.000036050               1.000000000              -0.000001588               0.000042583               1.000000000              -0.000002604               0.000049514               1.000000000              -0.000004121               0.000057341               1.000000000              -0.000006463               0.000066268               1.000000000              -0.000009573               0.000076195               1.000000000              -0.000013307               0.000087287               1.000000000              -0.000017678               0.000099666               1.000000000              -0.000022725               0.000113192               1.000000000              -0.000028385               0.000127853               1.000000000              -0.000034589               0.000143648               1.000000000              -0.000041317               0.000160373               1.000000000              -0.000048376               0.000177782               1.000000000               0.000000658               0.000029486               1.000000000               0.000002367               0.000027305               1.000000000               0.000002272               0.000028794               1.000000000               0.000001291               0.000032655               1.000000000              -0.000000008               0.000038255               1.000000000              -0.000001232               0.000044774               1.000000000              -0.000002182               0.000051798               1.000000000              -0.000003135               0.000059474               1.000000000              -0.000004771               0.000068071               1.000000000              -0.000007007               0.000077564               1.000000000              -0.000009745               0.000087995               1.000000000              -0.000013048               0.000099462               1.000000000              -0.000016826               0.000112080               1.000000000              -0.000021090               0.000125677               1.000000000              -0.000025831               0.000140359               1.000000000              -0.000031010               0.000156059               1.000000000              -0.000036631               0.000172802               1.000000000               0.000000594               0.000032418               1.000000000               0.000002505               0.000030487               1.000000000               0.000002494               0.000031710               1.000000000               0.000001713               0.000035274               1.000000000               0.000000543               0.000040532               1.000000000              -0.000000686               0.000046855               1.000000000              -0.000001609               0.000053878               1.000000000              -0.000002337               0.000061531               1.000000000              -0.000003381               0.000069958               1.000000000              -0.000004927               0.000079193               1.000000000              -0.000006848               0.000089202               1.000000000              -0.000009222               0.000100029               1.000000000              -0.000011923               0.000111811               1.000000000              -0.000014952               0.000124551               1.000000000              -0.000018344               0.000138192               1.000000000              -0.000022081               0.000152764               1.000000000              -0.000026224               0.000168337               1.000000000               0.000000474               0.000035074               1.000000000               0.000002439               0.000033554               1.000000000               0.000002605               0.000034698               1.000000000               0.000002057               0.000037964               1.000000000               0.000001043               0.000042772               1.000000000              -0.000000083               0.000048803               1.000000000              -0.000001036               0.000055715               1.000000000              -0.000001702               0.000063400               1.000000000              -0.000002369               0.000071761               1.000000000              -0.000003314               0.000080905               1.000000000              -0.000004567               0.000090706               1.000000000              -0.000006098               0.000101171               1.000000000              -0.000007921               0.000112354               1.000000000              -0.000009934               0.000124373               1.000000000              -0.000012169               0.000137236               1.000000000              -0.000014618               0.000150874               1.000000000              -0.000017314               0.000165313               1.000000000               0.000000356               0.000037410               1.000000000               0.000002211               0.000036410               1.000000000               0.000002534               0.000037560               1.000000000               0.000002141               0.000040498               1.000000000               0.000001375               0.000044933               1.000000000               0.000000439               0.000050691               1.000000000              -0.000000451               0.000057504               1.000000000              -0.000001116               0.000065121               1.000000000              -0.000001580               0.000073438               1.000000000              -0.000002117               0.000082448               1.000000000              -0.000002846               0.000092152               1.000000000              -0.000003726               0.000102433               1.000000000              -0.000004819               0.000113321               1.000000000              -0.000006072               0.000124907               1.000000000              -0.000007389               0.000137203               1.000000000              -0.000008797               0.000150245               1.000000000              -0.000010279               0.000163990               1.000000000               0.000000257               0.000039317               1.000000000               0.000001821               0.000038857               1.000000000               0.000002186               0.000040045               1.000000000               0.000001991               0.000042808               1.000000000               0.000001483               0.000047014               1.000000000               0.000000719               0.000052469               1.000000000              -0.000000037               0.000059050               1.000000000              -0.000000634               0.000066504               1.000000000              -0.000000969               0.000074743               1.000000000              -0.000001251               0.000083695               1.000000000              -0.000001637               0.000093338               1.000000000              -0.000002088               0.000103588               1.000000000              -0.000002641               0.000114385               1.000000000              -0.000003294               0.000125722               1.000000000              -0.000003988               0.000137679               1.000000000              -0.000004687               0.000150315               1.000000000              -0.000005327               0.000163625               1.000000000               0.000000157               0.000040707               1.000000000               0.000001297               0.000040706               1.000000000               0.000001626               0.000042015               1.000000000               0.000001559               0.000044710               1.000000000               0.000001218               0.000048710               1.000000000               0.000000715               0.000053956               1.000000000               0.000000188               0.000060294               1.000000000              -0.000000259               0.000067567               1.000000000              -0.000000538               0.000075704               1.000000000              -0.000000687               0.000084602               1.000000000              -0.000000841               0.000094192               1.000000000              -0.000001022               0.000104396               1.000000000              -0.000001241               0.000115157               1.000000000              -0.000001517               0.000126353               1.000000000              -0.000001841               0.000138139               1.000000000              -0.000002165               0.000150513               1.000000000              -0.000002435               0.000163464               1.000000000               0.000000071               0.000041590               1.000000000               0.000000686               0.000041891               1.000000000               0.000000884               0.000043273               1.000000000               0.000000840               0.000045942               1.000000000               0.000000686               0.000049834               1.000000000               0.000000453               0.000054917               1.000000000               0.000000162               0.000061080               1.000000000              -0.000000082               0.000068264               1.000000000              -0.000000224               0.000076337               1.000000000              -0.000000288               0.000085149               1.000000000              -0.000000337               0.000094668               1.000000000              -0.000000389               0.000104807               1.000000000              -0.000000450               0.000115496               1.000000000              -0.000000545               0.000126614               1.000000000              -0.000000669               0.000138271               1.000000000              -0.000000797               0.000150444               1.000000000              -0.000000944               0.000163160               1.000000000              -0.000000000               0.000041892               1.000000000               0.000000000               0.000042295               1.000000000               0.000000000               0.000043695               1.000000000               0.000000000               0.000046366               1.000000000               0.000000000               0.000050226               1.000000000              -0.000000000               0.000055259               1.000000000               0.000000000               0.000061368               1.000000000              -0.000000000               0.000068490               1.000000000              -0.000000000               0.000076511               1.000000000              -0.000000000               0.000085305               1.000000000              -0.000000000               0.000094822               1.000000000              -0.000000000               0.000104930               1.000000000              -0.000000000               0.000115574               1.000000000              -0.000000000               0.000126651               1.000000000               0.000000000               0.000138242               1.000000000               0.000000000               0.000150329               1.000000000              -0.000000000               0.000162962               1.000000000               0.000001788               0.000000000               1.000000000               0.000000457               0.000000000               1.000000000               0.000000037               0.000000000               1.000000000               0.000000025               0.000000000               1.000000000               0.000000071               0.000000000               1.000000000               0.000000059               0.000000000               1.000000000              -0.000000069               0.000000000               1.000000000              -0.000000181               0.000000000               1.000000000              -0.000000176               0.000000000               1.000000000              -0.000000072               0.000000000               1.000000000               0.000000094               0.000000000               1.000000000               0.000000280               0.000000000               1.000000000               0.000000404               0.000000000               1.000000000               0.000000350               0.000000000               1.000000000               0.000000032               0.000000000               1.000000000              -0.000000628               0.000000000               1.000000000              -0.000001697               0.000000000               1.000000000               0.000001681              -0.000003430               1.000000000               0.000000425              -0.000003196               1.000000000               0.000000062              -0.000003157               1.000000000               0.000000037              -0.000003461               1.000000000               0.000000047              -0.000003913               1.000000000              -0.000000010              -0.000004548               1.000000000              -0.000000063              -0.000005000               1.000000000              -0.000000086              -0.000005247               1.000000000              -0.000000121              -0.000005506               1.000000000              -0.000000111              -0.000005672               1.000000000              -0.000000054              -0.000005860               1.000000000              -0.000000037              -0.000006163               1.000000000              -0.000000110              -0.000006627               1.000000000              -0.000000358              -0.000007326               1.000000000              -0.000000887              -0.000008276               1.000000000              -0.000001759              -0.000009469               1.000000000              -0.000003039              -0.000010877               1.000000000               0.000001580              -0.000006877               1.000000000               0.000000437              -0.000006329               1.000000000               0.000000097              -0.000006334               1.000000000               0.000000051              -0.000006892               1.000000000               0.000000062              -0.000007874               1.000000000              -0.000000034              -0.000009035               1.000000000              -0.000000133              -0.000009908               1.000000000              -0.000000177              -0.000010485               1.000000000              -0.000000189              -0.000011122               1.000000000              -0.000000208              -0.000011663               1.000000000              -0.000000357              -0.000012265               1.000000000              -0.000000713              -0.000013098               1.000000000              -0.000001292              -0.000014240               1.000000000              -0.000002144              -0.000015792               1.000000000              -0.000003329              -0.000017805               1.000000000              -0.000004884              -0.000020301               1.000000000              -0.000006851              -0.000023290               1.000000000               0.000001413              -0.000010274               1.000000000               0.000000437              -0.000009397               1.000000000               0.000000240              -0.000009457               1.000000000               0.000000181              -0.000010344               1.000000000               0.000000038              -0.000011806               1.000000000              -0.000000140              -0.000013511               1.000000000              -0.000000234              -0.000014834               1.000000000              -0.000000243              -0.000015882               1.000000000              -0.000000341              -0.000017088               1.000000000              -0.000000651              -0.000018295               1.000000000              -0.000001237              -0.000019746               1.000000000              -0.000002203              -0.000021538               1.000000000              -0.000003565              -0.000023773               1.000000000              -0.000005308              -0.000026551               1.000000000              -0.000007480              -0.000029937               1.000000000              -0.000010071              -0.000033991               1.000000000              -0.000013064              -0.000038768               1.000000000               0.000001155              -0.000013600               1.000000000               0.000000549              -0.000012398               1.000000000               0.000000503              -0.000012553               1.000000000               0.000000345              -0.000013888               1.000000000               0.000000080              -0.000015866               1.000000000              -0.000000203              -0.000018149               1.000000000              -0.000000479              -0.000019973               1.000000000              -0.000000738              -0.000021748               1.000000000              -0.000001171              -0.000023776               1.000000000              -0.000001889              -0.000026085               1.000000000              -0.000003029              -0.000028812               1.000000000              -0.000004695              -0.000032092               1.000000000              -0.000006843              -0.000035974               1.000000000              -0.000009478              -0.000040522               1.000000000              -0.000012629              -0.000045768               1.000000000              -0.000016251              -0.000051759               1.000000000              -0.000020298              -0.000058523               1.000000000               0.000001005              -0.000016932               1.000000000               0.000000811              -0.000015353               1.000000000               0.000000819              -0.000015695               1.000000000               0.000000585              -0.000017542               1.000000000               0.000000100              -0.000020214               1.000000000              -0.000000473              -0.000023127               1.000000000              -0.000000904              -0.000025848               1.000000000              -0.000001374              -0.000028654               1.000000000              -0.000002193              -0.000031949               1.000000000              -0.000003476              -0.000035770               1.000000000              -0.000005331              -0.000040164               1.000000000              -0.000007772              -0.000045316               1.000000000              -0.000010747              -0.000051210               1.000000000              -0.000014252              -0.000057891               1.000000000              -0.000018301              -0.000065356               1.000000000              -0.000022842              -0.000073586               1.000000000              -0.000027819              -0.000082569               1.000000000               0.000000890              -0.000020234               1.000000000               0.000001166              -0.000018251               1.000000000               0.000001249              -0.000018968               1.000000000               0.000000746              -0.000021409               1.000000000               0.000000005              -0.000024911               1.000000000              -0.000000652              -0.000028906               1.000000000              -0.000001282              -0.000032813               1.000000000              -0.000002095              -0.000036992               1.000000000              -0.000003422              -0.000041951               1.000000000              -0.000005343              -0.000047560               1.000000000              -0.000007939              -0.000053966               1.000000000              -0.000011163              -0.000061213               1.000000000              -0.000014919              -0.000069365               1.000000000              -0.000019252              -0.000078366               1.000000000              -0.000024146              -0.000088201               1.000000000              -0.000029519              -0.000098831               1.000000000              -0.000035345              -0.000110192               1.000000000               0.000000799              -0.000023436               1.000000000               0.000001628              -0.000021170               1.000000000               0.000001604              -0.000022360               1.000000000               0.000000871              -0.000025674               1.000000000              -0.000000067              -0.000030230               1.000000000              -0.000001026              -0.000035442               1.000000000              -0.000001934              -0.000040719               1.000000000              -0.000003114              -0.000046611               1.000000000              -0.000004926              -0.000053499               1.000000000              -0.000007460              -0.000061138               1.000000000              -0.000010698              -0.000069743               1.000000000              -0.000014545              -0.000079401               1.000000000              -0.000018994              -0.000090021               1.000000000              -0.000024072              -0.000101635               1.000000000              -0.000029696              -0.000114148               1.000000000              -0.000035841              -0.000127517               1.000000000              -0.000042455              -0.000141673               1.000000000               0.000000737              -0.000026457               1.000000000               0.000002089              -0.000024151               1.000000000               0.000001862              -0.000025945               1.000000000               0.000000857              -0.000030225               1.000000000              -0.000000411              -0.000036050               1.000000000              -0.000001588              -0.000042583               1.000000000              -0.000002604              -0.000049514               1.000000000              -0.000004121              -0.000057341               1.000000000              -0.000006463              -0.000066268               1.000000000              -0.000009573              -0.000076195               1.000000000              -0.000013307              -0.000087287               1.000000000              -0.000017678              -0.000099666               1.000000000              -0.000022725              -0.000113192               1.000000000              -0.000028385              -0.000127853               1.000000000              -0.000034589              -0.000143648               1.000000000              -0.000041317              -0.000160373               1.000000000              -0.000048376              -0.000177782               1.000000000               0.000000658              -0.000029486               1.000000000               0.000002367              -0.000027305               1.000000000               0.000002272              -0.000028794               1.000000000               0.000001291              -0.000032655               1.000000000              -0.000000008              -0.000038255               1.000000000              -0.000001232              -0.000044774               1.000000000              -0.000002182              -0.000051798               1.000000000              -0.000003135              -0.000059474               1.000000000              -0.000004771              -0.000068071               1.000000000              -0.000007007              -0.000077564               1.000000000              -0.000009745              -0.000087995               1.000000000              -0.000013048              -0.000099462               1.000000000              -0.000016826              -0.000112080               1.000000000              -0.000021090              -0.000125677               1.000000000              -0.000025831              -0.000140359               1.000000000              -0.000031010              -0.000156059               1.000000000              -0.000036631              -0.000172802               1.000000000               0.000000594              -0.000032418               1.000000000               0.000002505              -0.000030487               1.000000000               0.000002494              -0.000031710               1.000000000               0.000001713              -0.000035274               1.000000000               0.000000543              -0.000040532               1.000000000              -0.000000686              -0.000046855               1.000000000              -0.000001609              -0.000053878               1.000000000              -0.000002337              -0.000061531               1.000000000              -0.000003381              -0.000069958               1.000000000              -0.000004927              -0.000079193               1.000000000              -0.000006848              -0.000089202               1.000000000              -0.000009222              -0.000100029               1.000000000              -0.000011923              -0.000111811               1.000000000              -0.000014952              -0.000124551               1.000000000              -0.000018344              -0.000138192               1.000000000              -0.000022081              -0.000152764               1.000000000              -0.000026224              -0.000168337               1.000000000               0.000000474              -0.000035074               1.000000000               0.000002439              -0.000033554               1.000000000               0.000002605              -0.000034698               1.000000000               0.000002057              -0.000037964               1.000000000               0.000001043              -0.000042772               1.000000000              -0.000000083              -0.000048803               1.000000000              -0.000001036              -0.000055715               1.000000000              -0.000001702              -0.000063400               1.000000000              -0.000002369              -0.000071761               1.000000000              -0.000003314              -0.000080905               1.000000000              -0.000004567              -0.000090706               1.000000000              -0.000006098              -0.000101171               1.000000000              -0.000007921              -0.000112354               1.000000000              -0.000009934              -0.000124373               1.000000000              -0.000012169              -0.000137236               1.000000000              -0.000014618              -0.000150874               1.000000000              -0.000017314              -0.000165313               1.000000000               0.000000356              -0.000037410               1.000000000               0.000002211              -0.000036410               1.000000000               0.000002534              -0.000037560               1.000000000               0.000002141              -0.000040498               1.000000000               0.000001375              -0.000044933               1.000000000               0.000000439              -0.000050691               1.000000000              -0.000000451              -0.000057504               1.000000000              -0.000001116              -0.000065121               1.000000000              -0.000001580              -0.000073438               1.000000000              -0.000002117              -0.000082448               1.000000000              -0.000002846              -0.000092152               1.000000000              -0.000003726              -0.000102433               1.000000000              -0.000004819              -0.000113321               1.000000000              -0.000006072              -0.000124907               1.000000000              -0.000007389              -0.000137203               1.000000000              -0.000008797              -0.000150245               1.000000000              -0.000010279              -0.000163990               1.000000000               0.000000257              -0.000039317               1.000000000               0.000001821              -0.000038857               1.000000000               0.000002186              -0.000040045               1.000000000               0.000001991              -0.000042808               1.000000000               0.000001483              -0.000047014               1.000000000               0.000000719              -0.000052469               1.000000000              -0.000000037              -0.000059050               1.000000000              -0.000000634              -0.000066504               1.000000000              -0.000000969              -0.000074743               1.000000000              -0.000001251              -0.000083695               1.000000000              -0.000001637              -0.000093338               1.000000000              -0.000002088              -0.000103588               1.000000000              -0.000002641              -0.000114385               1.000000000              -0.000003294              -0.000125722               1.000000000              -0.000003988              -0.000137679               1.000000000              -0.000004687              -0.000150315               1.000000000              -0.000005327              -0.000163625               1.000000000               0.000000157              -0.000040707               1.000000000               0.000001297              -0.000040706               1.000000000               0.000001626              -0.000042015               1.000000000               0.000001559              -0.000044710               1.000000000               0.000001218              -0.000048710               1.000000000               0.000000715              -0.000053956               1.000000000               0.000000188              -0.000060294               1.000000000              -0.000000259              -0.000067567               1.000000000              -0.000000538              -0.000075704               1.000000000              -0.000000687              -0.000084602               1.000000000              -0.000000841              -0.000094192               1.000000000              -0.000001022              -0.000104396               1.000000000              -0.000001241              -0.000115157               1.000000000              -0.000001517              -0.000126353               1.000000000              -0.000001841              -0.000138139               1.000000000              -0.000002165              -0.000150513               1.000000000              -0.000002435              -0.000163464               1.000000000               0.000000071              -0.000041590               1.000000000               0.000000686              -0.000041891               1.000000000               0.000000884              -0.000043273               1.000000000               0.000000840              -0.000045942               1.000000000               0.000000686              -0.000049834               1.000000000               0.000000453              -0.000054917               1.000000000               0.000000162              -0.000061080               1.000000000              -0.000000082              -0.000068264               1.000000000              -0.000000224              -0.000076337               1.000000000              -0.000000288              -0.000085149               1.000000000              -0.000000337              -0.000094668               1.000000000              -0.000000389              -0.000104807               1.000000000              -0.000000450              -0.000115496               1.000000000              -0.000000545              -0.000126614               1.000000000              -0.000000669              -0.000138271               1.000000000              -0.000000797              -0.000150444               1.000000000              -0.000000944              -0.000163160               1.000000000              -0.000000000              -0.000041892               1.000000000              -0.000000000              -0.000042295               1.000000000               0.000000000              -0.000043695               1.000000000              -0.000000000              -0.000046366               1.000000000               0.000000000              -0.000050226               1.000000000              -0.000000000              -0.000055259               1.000000000              -0.000000000              -0.000061368               1.000000000               0.000000000              -0.000068490               1.000000000              -0.000000000              -0.000076511               1.000000000              -0.000000000              -0.000085305               1.000000000              -0.000000000              -0.000094822               1.000000000              -0.000000000              -0.000104930               1.000000000              -0.000000000              -0.000115574               1.000000000              -0.000000000              -0.000126651               1.000000000               0.000000000              -0.000138242               1.000000000               0.000000000              -0.000150329               1.000000000              -0.000000000              -0.000162962               1.000000000              -0.000001788               0.000000000               1.000000000              -0.000000457               0.000000000               1.000000000              -0.000000037               0.000000000               1.000000000              -0.000000025               0.000000000               1.000000000              -0.000000071               0.000000000               1.000000000              -0.000000059               0.000000000               1.000000000               0.000000069               0.000000000               1.000000000               0.000000181              -0.000000000               1.000000000               0.000000176               0.000000000               1.000000000               0.000000072               0.000000000               1.000000000              -0.000000094               0.000000000               1.000000000              -0.000000280               0.000000000               1.000000000              -0.000000404              -0.000000000               1.000000000              -0.000000350              -0.000000000               1.000000000              -0.000000032              -0.000000000               1.000000000               0.000000628              -0.000000000               1.000000000               0.000001697              -0.000000000               1.000000000              -0.000001681              -0.000003430               1.000000000              -0.000000425              -0.000003196               1.000000000              -0.000000062              -0.000003157               1.000000000              -0.000000037              -0.000003461               1.000000000              -0.000000047              -0.000003913               1.000000000               0.000000010              -0.000004548               1.000000000               0.000000063              -0.000005000               1.000000000               0.000000086              -0.000005247               1.000000000               0.000000121              -0.000005506               1.000000000               0.000000111              -0.000005672               1.000000000               0.000000054              -0.000005860               1.000000000               0.000000037              -0.000006163               1.000000000               0.000000110              -0.000006627               1.000000000               0.000000358              -0.000007326               1.000000000               0.000000887              -0.000008276               1.000000000               0.000001759              -0.000009469               1.000000000               0.000003039              -0.000010877               1.000000000              -0.000001580              -0.000006877               1.000000000              -0.000000437              -0.000006329               1.000000000              -0.000000097              -0.000006334               1.000000000              -0.000000051              -0.000006892               1.000000000              -0.000000062              -0.000007874               1.000000000               0.000000034              -0.000009035               1.000000000               0.000000133              -0.000009908               1.000000000               0.000000177              -0.000010485               1.000000000               0.000000189              -0.000011122               1.000000000               0.000000208              -0.000011663               1.000000000               0.000000357              -0.000012265               1.000000000               0.000000713              -0.000013098               1.000000000               0.000001292              -0.000014240               1.000000000               0.000002144              -0.000015792               1.000000000               0.000003329              -0.000017805               1.000000000               0.000004884              -0.000020301               1.000000000               0.000006851              -0.000023290               1.000000000              -0.000001413              -0.000010274               1.000000000              -0.000000437              -0.000009397               1.000000000              -0.000000240              -0.000009457               1.000000000              -0.000000181              -0.000010344               1.000000000              -0.000000038              -0.000011806               1.000000000               0.000000140              -0.000013511               1.000000000               0.000000234              -0.000014834               1.000000000               0.000000243              -0.000015882               1.000000000               0.000000341              -0.000017088               1.000000000               0.000000651              -0.000018295               1.000000000               0.000001237              -0.000019746               1.000000000               0.000002203              -0.000021538               1.000000000               0.000003565              -0.000023773               1.000000000               0.000005308              -0.000026551               1.000000000               0.000007480              -0.000029937               1.000000000               0.000010071              -0.000033991               1.000000000               0.000013064              -0.000038768               1.000000000              -0.000001155              -0.000013600               1.000000000              -0.000000549              -0.000012398               1.000000000              -0.000000503              -0.000012553               1.000000000              -0.000000345              -0.000013888               1.000000000              -0.000000080              -0.000015866               1.000000000               0.000000203              -0.000018149               1.000000000               0.000000479              -0.000019973               1.000000000               0.000000738              -0.000021748               1.000000000               0.000001171              -0.000023776               1.000000000               0.000001889              -0.000026085               1.000000000               0.000003029              -0.000028812               1.000000000               0.000004695              -0.000032092               1.000000000               0.000006843              -0.000035974               1.000000000               0.000009478              -0.000040522               1.000000000               0.000012629              -0.000045768               1.000000000               0.000016251              -0.000051759               1.000000000               0.000020298              -0.000058523               1.000000000              -0.000001005              -0.000016932               1.000000000              -0.000000811              -0.000015353               1.000000000              -0.000000819              -0.000015695               1.000000000              -0.000000585              -0.000017542               1.000000000              -0.000000100              -0.000020214               1.000000000               0.000000473              -0.000023127               1.000000000               0.000000904              -0.000025848               1.000000000               0.000001374              -0.000028654               1.000000000               0.000002193              -0.000031949               1.000000000               0.000003476              -0.000035770               1.000000000               0.000005331              -0.000040164               1.000000000               0.000007772              -0.000045316               1.000000000               0.000010747              -0.000051210               1.000000000               0.000014252              -0.000057891               1.000000000               0.000018301              -0.000065356               1.000000000               0.000022842              -0.000073586               1.000000000               0.000027819              -0.000082569               1.000000000              -0.000000890              -0.000020234               1.000000000              -0.000001166              -0.000018251               1.000000000              -0.000001249              -0.000018968               1.000000000              -0.000000746              -0.000021409               1.000000000              -0.000000005              -0.000024911               1.000000000               0.000000652              -0.000028906               1.000000000               0.000001282              -0.000032813               1.000000000               0.000002095              -0.000036992               1.000000000               0.000003422              -0.000041951               1.000000000               0.000005343              -0.000047560               1.000000000               0.000007939              -0.000053966               1.000000000               0.000011163              -0.000061213               1.000000000               0.000014919              -0.000069365               1.000000000               0.000019252              -0.000078366               1.000000000               0.000024146              -0.000088201               1.000000000               0.000029519              -0.000098831               1.000000000               0.000035345              -0.000110192               1.000000000              -0.000000799              -0.000023436               1.000000000              -0.000001628              -0.000021170               1.000000000              -0.000001604              -0.000022360               1.000000000              -0.000000871              -0.000025674               1.000000000               0.000000067              -0.000030230               1.000000000               0.000001026              -0.000035442               1.000000000               0.000001934              -0.000040719               1.000000000               0.000003114              -0.000046611               1.000000000               0.000004926              -0.000053499               1.000000000               0.000007460              -0.000061138               1.000000000               0.000010698              -0.000069743               1.000000000               0.000014545              -0.000079401               1.000000000               0.000018994              -0.000090021               1.000000000               0.000024072              -0.000101635               1.000000000               0.000029696              -0.000114148               1.000000000               0.000035841              -0.000127517               1.000000000               0.000042455              -0.000141673               1.000000000              -0.000000737              -0.000026457               1.000000000              -0.000002089              -0.000024151               1.000000000              -0.000001862              -0.000025945               1.000000000              -0.000000857              -0.000030225               1.000000000               0.000000411              -0.000036050               1.000000000               0.000001588              -0.000042583               1.000000000               0.000002604              -0.000049514               1.000000000               0.000004121              -0.000057341               1.000000000               0.000006463              -0.000066268               1.000000000               0.000009573              -0.000076195               1.000000000               0.000013307              -0.000087287               1.000000000               0.000017678              -0.000099666               1.000000000               0.000022725              -0.000113192               1.000000000               0.000028385              -0.000127853               1.000000000               0.000034589              -0.000143648               1.000000000               0.000041317              -0.000160373               1.000000000               0.000048376              -0.000177782               1.000000000              -0.000000658              -0.000029486               1.000000000              -0.000002367              -0.000027305               1.000000000              -0.000002272              -0.000028794               1.000000000              -0.000001291              -0.000032655               1.000000000               0.000000008              -0.000038255               1.000000000               0.000001232              -0.000044774               1.000000000               0.000002182              -0.000051798               1.000000000               0.000003135              -0.000059474               1.000000000               0.000004771              -0.000068071               1.000000000               0.000007007              -0.000077564               1.000000000               0.000009745              -0.000087995               1.000000000               0.000013048              -0.000099462               1.000000000               0.000016826              -0.000112080               1.000000000               0.000021090              -0.000125677               1.000000000               0.000025831              -0.000140359               1.000000000               0.000031010              -0.000156059               1.000000000               0.000036631              -0.000172802               1.000000000              -0.000000594              -0.000032418               1.000000000              -0.000002505              -0.000030487               1.000000000              -0.000002494              -0.000031710               1.000000000              -0.000001713              -0.000035274               1.000000000              -0.000000543              -0.000040532               1.000000000               0.000000686              -0.000046855               1.000000000               0.000001609              -0.000053878               1.000000000               0.000002337              -0.000061531               1.000000000               0.000003381              -0.000069958               1.000000000               0.000004927              -0.000079193               1.000000000               0.000006848              -0.000089202               1.000000000               0.000009222              -0.000100029               1.000000000               0.000011923              -0.000111811               1.000000000               0.000014952              -0.000124551               1.000000000               0.000018344              -0.000138192               1.000000000               0.000022081              -0.000152764               1.000000000               0.000026224              -0.000168337               1.000000000              -0.000000474              -0.000035074               1.000000000              -0.000002439              -0.000033554               1.000000000              -0.000002605              -0.000034698               1.000000000              -0.000002057              -0.000037964               1.000000000              -0.000001043              -0.000042772               1.000000000               0.000000083              -0.000048803               1.000000000               0.000001036              -0.000055715               1.000000000               0.000001702              -0.000063400               1.000000000               0.000002369              -0.000071761               1.000000000               0.000003314              -0.000080905               1.000000000               0.000004567              -0.000090706               1.000000000               0.000006098              -0.000101171               1.000000000               0.000007921              -0.000112354               1.000000000               0.000009934              -0.000124373               1.000000000               0.000012169              -0.000137236               1.000000000               0.000014618              -0.000150874               1.000000000               0.000017314              -0.000165313               1.000000000              -0.000000356              -0.000037410               1.000000000              -0.000002211              -0.000036410               1.000000000              -0.000002534              -0.000037560               1.000000000              -0.000002141              -0.000040498               1.000000000              -0.000001375              -0.000044933               1.000000000              -0.000000439              -0.000050691               1.000000000               0.000000451              -0.000057504               1.000000000               0.000001116              -0.000065121               1.000000000               0.000001580              -0.000073438               1.000000000               0.000002117              -0.000082448               1.000000000               0.000002846              -0.000092152               1.000000000               0.000003726              -0.000102433               1.000000000               0.000004819              -0.000113321               1.000000000               0.000006072              -0.000124907               1.000000000               0.000007389              -0.000137203               1.000000000               0.000008797              -0.000150245               1.000000000               0.000010279              -0.000163990               1.000000000              -0.000000257              -0.000039317               1.000000000              -0.000001821              -0.000038857               1.000000000              -0.000002186              -0.000040045               1.000000000              -0.000001991              -0.000042808               1.000000000              -0.000001483              -0.000047014               1.000000000              -0.000000719              -0.000052469               1.000000000               0.000000037              -0.000059050               1.000000000               0.000000634              -0.000066504               1.000000000               0.000000969              -0.000074743               1.000000000               0.000001251              -0.000083695               1.000000000               0.000001637              -0.000093338               1.000000000               0.000002088              -0.000103588               1.000000000               0.000002641              -0.000114385               1.000000000               0.000003294              -0.000125722               1.000000000               0.000003988              -0.000137679               1.000000000               0.000004687              -0.000150315               1.000000000               0.000005327              -0.000163625               1.000000000              -0.000000157              -0.000040707               1.000000000              -0.000001297              -0.000040706               1.000000000              -0.000001626              -0.000042015               1.000000000              -0.000001559              -0.000044710               1.000000000              -0.000001218              -0.000048710               1.000000000              -0.000000715              -0.000053956               1.000000000              -0.000000188              -0.000060294               1.000000000               0.000000259              -0.000067567               1.000000000               0.000000538              -0.000075704               1.000000000               0.000000687              -0.000084602               1.000000000               0.000000841              -0.000094192               1.000000000               0.000001022              -0.000104396               1.000000000               0.000001241              -0.000115157               1.000000000               0.000001517              -0.000126353               1.000000000               0.000001841              -0.000138139               1.000000000               0.000002165              -0.000150513               1.000000000               0.000002435              -0.000163464               1.000000000              -0.000000071              -0.000041590               1.000000000              -0.000000686              -0.000041891               1.000000000              -0.000000884              -0.000043273               1.000000000              -0.000000840              -0.000045942               1.000000000              -0.000000686              -0.000049834               1.000000000              -0.000000453              -0.000054917               1.000000000              -0.000000162              -0.000061080               1.000000000               0.000000082              -0.000068264               1.000000000               0.000000224              -0.000076337               1.000000000               0.000000288              -0.000085149               1.000000000               0.000000337              -0.000094668               1.000000000               0.000000389              -0.000104807               1.000000000               0.000000450              -0.000115496               1.000000000               0.000000545              -0.000126614               1.000000000               0.000000669              -0.000138271               1.000000000               0.000000797              -0.000150444               1.000000000               0.000000944              -0.000163160               1.000000000              -0.000000000              -0.000041892               1.000000000              -0.000000000              -0.000042295               1.000000000               0.000000000              -0.000043695               1.000000000              -0.000000000              -0.000046366               1.000000000               0.000000000              -0.000050226               1.000000000              -0.000000000              -0.000055259               1.000000000              -0.000000000              -0.000061368               1.000000000               0.000000000              -0.000068490               1.000000000              -0.000000000              -0.000076511               1.000000000              -0.000000000              -0.000085305               1.000000000              -0.000000000              -0.000094822               1.000000000              -0.000000000              -0.000104930               1.000000000              -0.000000000              -0.000115574               1.000000000              -0.000000000              -0.000126651               1.000000000               0.000000000              -0.000138242               1.000000000               0.000000000              -0.000150329               1.000000000              -0.000000000              -0.000162962               1.000000000              -0.000001788               0.000000000               1.000000000              -0.000000457               0.000000000               1.000000000              -0.000000037               0.000000000               1.000000000              -0.000000025               0.000000000               1.000000000              -0.000000071               0.000000000               1.000000000              -0.000000059               0.000000000               1.000000000               0.000000069               0.000000000               1.000000000               0.000000181              -0.000000000               1.000000000               0.000000176               0.000000000               1.000000000               0.000000072               0.000000000               1.000000000              -0.000000094               0.000000000               1.000000000              -0.000000280               0.000000000               1.000000000              -0.000000404              -0.000000000               1.000000000              -0.000000350              -0.000000000               1.000000000              -0.000000032              -0.000000000               1.000000000               0.000000628              -0.000000000               1.000000000               0.000001697              -0.000000000               1.000000000              -0.000001681               0.000003430               1.000000000              -0.000000425               0.000003196               1.000000000              -0.000000062               0.000003157               1.000000000              -0.000000037               0.000003461               1.000000000              -0.000000047               0.000003913               1.000000000               0.000000010               0.000004548               1.000000000               0.000000063               0.000005000               1.000000000               0.000000086               0.000005247               1.000000000               0.000000121               0.000005506               1.000000000               0.000000111               0.000005672               1.000000000               0.000000054               0.000005860               1.000000000               0.000000037               0.000006163               1.000000000               0.000000110               0.000006627               1.000000000               0.000000358               0.000007326               1.000000000               0.000000887               0.000008276               1.000000000               0.000001759               0.000009469               1.000000000               0.000003039               0.000010877               1.000000000              -0.000001580               0.000006877               1.000000000              -0.000000437               0.000006329               1.000000000              -0.000000097               0.000006334               1.000000000              -0.000000051               0.000006892               1.000000000              -0.000000062               0.000007874               1.000000000               0.000000034               0.000009035               1.000000000               0.000000133               0.000009908               1.000000000               0.000000177               0.000010485               1.000000000               0.000000189               0.000011122               1.000000000               0.000000208               0.000011663               1.000000000               0.000000357               0.000012265               1.000000000               0.000000713               0.000013098               1.000000000               0.000001292               0.000014240               1.000000000               0.000002144               0.000015792               1.000000000               0.000003329               0.000017805               1.000000000               0.000004884               0.000020301               1.000000000               0.000006851               0.000023290               1.000000000              -0.000001413               0.000010274               1.000000000              -0.000000437               0.000009397               1.000000000              -0.000000240               0.000009457               1.000000000              -0.000000181               0.000010344               1.000000000              -0.000000038               0.000011806               1.000000000               0.000000140               0.000013511               1.000000000               0.000000234               0.000014834               1.000000000               0.000000243               0.000015882               1.000000000               0.000000341               0.000017088               1.000000000               0.000000651               0.000018295               1.000000000               0.000001237               0.000019746               1.000000000               0.000002203               0.000021538               1.000000000               0.000003565               0.000023773               1.000000000               0.000005308               0.000026551               1.000000000               0.000007480               0.000029937               1.000000000               0.000010071               0.000033991               1.000000000               0.000013064               0.000038768               1.000000000              -0.000001155               0.000013600               1.000000000              -0.000000549               0.000012398               1.000000000              -0.000000503               0.000012553               1.000000000              -0.000000345               0.000013888               1.000000000              -0.000000080               0.000015866               1.000000000               0.000000203               0.000018149               1.000000000               0.000000479               0.000019973               1.000000000               0.000000738               0.000021748               1.000000000               0.000001171               0.000023776               1.000000000               0.000001889               0.000026085               1.000000000               0.000003029               0.000028812               1.000000000               0.000004695               0.000032092               1.000000000               0.000006843               0.000035974               1.000000000               0.000009478               0.000040522               1.000000000               0.000012629               0.000045768               1.000000000               0.000016251               0.000051759               1.000000000               0.000020298               0.000058523               1.000000000              -0.000001005               0.000016932               1.000000000              -0.000000811               0.000015353               1.000000000              -0.000000819               0.000015695               1.000000000              -0.000000585               0.000017542               1.000000000              -0.000000100               0.000020214               1.000000000               0.000000473               0.000023127               1.000000000               0.000000904               0.000025848               1.000000000               0.000001374               0.000028654               1.000000000               0.000002193               0.000031949               1.000000000               0.000003476               0.000035770               1.000000000               0.000005331               0.000040164               1.000000000               0.000007772               0.000045316               1.000000000               0.000010747               0.000051210               1.000000000               0.000014252               0.000057891               1.000000000               0.000018301               0.000065356               1.000000000               0.000022842               0.000073586               1.000000000               0.000027819               0.000082569               1.000000000              -0.000000890               0.000020234               1.000000000              -0.000001166               0.000018251               1.000000000              -0.000001249               0.000018968               1.000000000              -0.000000746               0.000021409               1.000000000              -0.000000005               0.000024911               1.000000000               0.000000652               0.000028906               1.000000000               0.000001282               0.000032813               1.000000000               0.000002095               0.000036992               1.000000000               0.000003422               0.000041951               1.000000000               0.000005343               0.000047560               1.000000000               0.000007939               0.000053966               1.000000000               0.000011163               0.000061213               1.000000000               0.000014919               0.000069365               1.000000000               0.000019252               0.000078366               1.000000000               0.000024146               0.000088201               1.000000000               0.000029519               0.000098831               1.000000000               0.000035345               0.000110192               1.000000000              -0.000000799               0.000023436               1.000000000              -0.000001628               0.000021170               1.000000000              -0.000001604               0.000022360               1.000000000              -0.000000871               0.000025674               1.000000000               0.000000067               0.000030230               1.000000000               0.000001026               0.000035442               1.000000000               0.000001934               0.000040719               1.000000000               0.000003114               0.000046611               1.000000000               0.000004926               0.000053499               1.000000000               0.000007460               0.000061138               1.000000000               0.000010698               0.000069743               1.000000000               0.000014545               0.000079401               1.000000000               0.000018994               0.000090021               1.000000000               0.000024072               0.000101635               1.000000000               0.000029696               0.000114148               1.000000000               0.000035841               0.000127517               1.000000000               0.000042455               0.000141673               1.000000000              -0.000000737               0.000026457               1.000000000              -0.000002089               0.000024151               1.000000000              -0.000001862               0.000025945               1.000000000              -0.000000857               0.000030225               1.000000000               0.000000411               0.000036050               1.000000000               0.000001588               0.000042583               1.000000000               0.000002604               0.000049514               1.000000000               0.000004121               0.000057341               1.000000000               0.000006463               0.000066268               1.000000000               0.000009573               0.000076195               1.000000000               0.000013307               0.000087287               1.000000000               0.000017678               0.000099666               1.000000000               0.000022725               0.000113192               1.000000000               0.000028385               0.000127853               1.000000000               0.000034589               0.000143648               1.000000000               0.000041317               0.000160373               1.000000000               0.000048376               0.000177782               1.000000000              -0.000000658               0.000029486               1.000000000              -0.000002367               0.000027305               1.000000000              -0.000002272               0.000028794               1.000000000              -0.000001291               0.000032655               1.000000000               0.000000008               0.000038255               1.000000000               0.000001232               0.000044774               1.000000000               0.000002182               0.000051798               1.000000000               0.000003135               0.000059474               1.000000000               0.000004771               0.000068071               1.000000000               0.000007007               0.000077564               1.000000000               0.000009745               0.000087995               1.000000000               0.000013048               0.000099462               1.000000000               0.000016826               0.000112080               1.000000000               0.000021090               0.000125677               1.000000000               0.000025831               0.000140359               1.000000000               0.000031010               0.000156059               1.000000000               0.000036631               0.000172802               1.000000000              -0.000000594               0.000032418               1.000000000              -0.000002505               0.000030487               1.000000000              -0.000002494               0.000031710               1.000000000              -0.000001713               0.000035274               1.000000000              -0.000000543               0.000040532               1.000000000               0.000000686               0.000046855               1.000000000               0.000001609               0.000053878               1.000000000               0.000002337               0.000061531               1.000000000               0.000003381               0.000069958               1.000000000               0.000004927               0.000079193               1.000000000               0.000006848               0.000089202               1.000000000               0.000009222               0.000100029               1.000000000               0.000011923               0.000111811               1.000000000               0.000014952               0.000124551               1.000000000               0.000018344               0.000138192               1.000000000               0.000022081               0.000152764               1.000000000               0.000026224               0.000168337               1.000000000              -0.000000474               0.000035074               1.000000000              -0.000002439               0.000033554               1.000000000              -0.000002605               0.000034698               1.000000000              -0.000002057               0.000037964               1.000000000              -0.000001043               0.000042772               1.000000000               0.000000083               0.000048803               1.000000000               0.000001036               0.000055715               1.000000000               0.000001702               0.000063400               1.000000000               0.000002369               0.000071761               1.000000000               0.000003314               0.000080905               1.000000000               0.000004567               0.000090706               1.000000000               0.000006098               0.000101171               1.000000000               0.000007921               0.000112354               1.000000000               0.000009934               0.000124373               1.000000000               0.000012169               0.000137236               1.000000000               0.000014618               0.000150874               1.000000000               0.000017314               0.000165313               1.000000000              -0.000000356               0.000037410               1.000000000              -0.000002211               0.000036410               1.000000000              -0.000002534               0.000037560               1.000000000              -0.000002141               0.000040498               1.000000000              -0.000001375               0.000044933               1.000000000              -0.000000439               0.000050691               1.000000000               0.000000451               0.000057504               1.000000000               0.000001116               0.000065121               1.000000000               0.000001580               0.000073438               1.000000000               0.000002117               0.000082448               1.000000000               0.000002846               0.000092152               1.000000000               0.000003726               0.000102433               1.000000000               0.000004819               0.000113321               1.000000000               0.000006072               0.000124907               1.000000000               0.000007389               0.000137203               1.000000000               0.000008797               0.000150245               1.000000000               0.000010279               0.000163990               1.000000000              -0.000000257               0.000039317               1.000000000              -0.000001821               0.000038857               1.000000000              -0.000002186               0.000040045               1.000000000              -0.000001991               0.000042808               1.000000000              -0.000001483               0.000047014               1.000000000              -0.000000719               0.000052469               1.000000000               0.000000037               0.000059050               1.000000000               0.000000634               0.000066504               1.000000000               0.000000969               0.000074743               1.000000000               0.000001251               0.000083695               1.000000000               0.000001637               0.000093338               1.000000000               0.000002088               0.000103588               1.000000000               0.000002641               0.000114385               1.000000000               0.000003294               0.000125722               1.000000000               0.000003988               0.000137679               1.000000000               0.000004687               0.000150315               1.000000000               0.000005327               0.000163625               1.000000000              -0.000000157               0.000040707               1.000000000              -0.000001297               0.000040706               1.000000000              -0.000001626               0.000042015               1.000000000              -0.000001559               0.000044710               1.000000000              -0.000001218               0.000048710               1.000000000              -0.000000715               0.000053956               1.000000000              -0.000000188               0.000060294               1.000000000               0.000000259               0.000067567               1.000000000               0.000000538               0.000075704               1.000000000               0.000000687               0.000084602               1.000000000               0.000000841               0.000094192               1.000000000               0.000001022               0.000104396               1.000000000               0.000001241               0.000115157               1.000000000               0.000001517               0.000126353               1.000000000               0.000001841               0.000138139               1.000000000               0.000002165               0.000150513               1.000000000               0.000002435               0.000163464               1.000000000              -0.000000071               0.000041590               1.000000000              -0.000000686               0.000041891               1.000000000              -0.000000884               0.000043273               1.000000000              -0.000000840               0.000045942               1.000000000              -0.000000686               0.000049834               1.000000000              -0.000000453               0.000054917               1.000000000              -0.000000162               0.000061080               1.000000000               0.000000082               0.000068264               1.000000000               0.000000224               0.000076337               1.000000000               0.000000288               0.000085149               1.000000000               0.000000337               0.000094668               1.000000000               0.000000389               0.000104807               1.000000000               0.000000450               0.000115496               1.000000000               0.000000545               0.000126614               1.000000000               0.000000669               0.000138271               1.000000000               0.000000797               0.000150444               1.000000000               0.000000944               0.000163160               1.000000000              -0.000000000               0.000041892               1.000000000               0.000000000               0.000042295               1.000000000               0.000000000               0.000043695               1.000000000               0.000000000               0.000046366               1.000000000               0.000000000               0.000050226               1.000000000              -0.000000000               0.000055259               1.000000000               0.000000000               0.000061368               1.000000000              -0.000000000               0.000068490               1.000000000              -0.000000000               0.000076511               1.000000000              -0.000000000               0.000085305               1.000000000              -0.000000000               0.000094822               1.000000000              -0.000000000               0.000104930               1.000000000              -0.000000000               0.000115574               1.000000000              -0.000000000               0.000126651               1.000000000               0.000000000               0.000138242               1.000000000               0.000000000               0.000150329               1.000000000              -0.000000000               0.000162962               1.000000000 </DataArray>
<DataArray type="Float64"                                    Name="defo"                                                      NumberOfComponents=" 3" format="ascii">
              0.000001788               0.000000000               1.000000000               0.000000457               0.000000000               1.000000000               0.000000037               0.000000000               1.000000000               0.000000025               0.000000000               1.000000000               0.000000071               0.000000000               1.000000000               0.000000059               0.000000000               1.000000000              -0.000000069               0.000000000               1.000000000              -0.000000181               0.000000000               1.000000000              -0.000000176               0.000000000               1.000000000              -0.000000072               0.000000000               1.000000000               0.000000094               0.000000000               1.000000000               0.000000280               0.000000000               1.000000000               0.000000404               0.000000000               1.000000000               0.000000350               0.000000000               1.000000000               0.000000032               0.000000000               1.000000000              -0.000000628               0.000000000               1.000000000              -0.000001697               0.000000000               1.000000000               0.000001681               0.000003430               1.000000000               0.000000425               0.000003196               1.000000000               0.000000062               0.000003157               1.000000000               0.000000037               0.000003461               1.000000000               0.000000047               0.000003913               1.000000000              -0.000000010               0.000004548               1.000000000              -0.000000063               0.000005000               1.000000000              -0.000000086               0.000005247               1.000000000              -0.000000121               0.000005506               1.000000000              -0.000000111               0.000005672               1.000000000              -0.000000054               0.000005860               1.000000000              -0.000000037               0.000006163               1.000000000              -0.000000110               0.000006627               1.000000000              -0.000000358               0.000007326               1.000000000              -0.000000887               0.000008276               1.000000000              -0.000001759               0.000009469               1.000000000              -0.000003039               0.000010877               1.000000000               0.000001580               0.000006877               1.000000000               0.000000437               0.000006329               1.000000000               0.000000097               0.000006334               1.000000000               0.000000051               0.000006892               1.000000000               0.000000062               0.000007874               1.000000000              -0.000000034               0.000009035               1.000000000              -0.000000133               0.000009908               1.000000000              -0.000000177               0.000010485               1.000000000              -0.000000189               0.000011122               1.000000000              -0.000000208               0.000011663               1.000000000              -0.000000357               0.000012265               1.000000000              -0.000000713               0.000013098               1.000000000              -0.000001292               0.000014240               1.000000000              -0.000002144               0.000015792               1.000000000              -0.000003329               0.000017805               1.000000000              -0.000004884               0.000020301               1.000000000              -0.000006851               0.000023290               1.000000000               0.000001413               0.000010274               1.000000000               0.000000437               0.000009397               1.000000000               0.000000240               0.000009457               1.000000000               0.000000181               0.000010344               1.000000000               0.000000038               0.000011806               1.000000000              -0.000000140               0.000013511               1.000000000              -0.000000234               0.000014834               1.000000000              -0.000000243               0.000015882               1.000000000              -0.000000341               0.000017088               1.000000000              -0.000000651               0.000018295               1.000000000              -0.000001237               0.000019746               1.000000000              -0.000002203               0.000021538               1.000000000              -0.000003565               0.000023773               1.000000000              -0.000005308               0.000026551               1.000000000              -0.000007480               0.000029937               1.000000000              -0.000010071               0.000033991               1.000000000              -0.000013064               0.000038768               1.000000000               0.000001155               0.000013600               1.000000000               0.000000549               0.000012398               1.000000000               0.000000503               0.000012553               1.000000000               0.000000345               0.000013888               1.000000000               0.000000080               0.000015866               1.000000000              -0.000000203               0.000018149               1.000000000              -0.000000479               0.000019973               1.000000000              -0.000000738               0.000021748               1.000000000              -0.000001171               0.000023776               1.000000000              -0.000001889               0.000026085               1.000000000              -0.000003029               0.000028812               1.000000000              -0.000004695               0.000032092               1.000000000              -0.000006843               0.000035974               1.000000000              -0.000009478               0.000040522               1.000000000              -0.000012629               0.000045768               1.000000000              -0.000016251               0.000051759               1.000000000              -0.000020298               0.000058523               1.000000000               0.000001005               0.000016932               1.000000000               0.000000811               0.000015353               1.000000000               0.000000819               0.000015695               1.000000000               0.000000585               0.000017542               1.000000000               0.000000100               0.000020214               1.000000000              -0.000000473               0.000023127               1.000000000              -0.000000904               0.000025848               1.000000000              -0.000001374               0.000028654               1.000000000              -0.000002193               0.000031949               1.000000000              -0.000003476               0.000035770               1.000000000              -0.000005331               0.000040164               1.000000000              -0.000007772               0.000045316               1.000000000              -0.000010747               0.000051210               1.000000000              -0.000014252               0.000057891               1.000000000              -0.000018301               0.000065356               1.000000000              -0.000022842               0.000073586               1.000000000              -0.000027819               0.000082569               1.000000000               0.000000890               0.000020234               1.000000000               0.000001166               0.000018251               1.000000000               0.000001249               0.000018968               1.000000000               0.000000746               0.000021409               1.000000000               0.000000005               0.000024911               1.000000000              -0.000000652               0.000028906               1.000000000              -0.000001282               0.000032813               1.000000000              -0.000002095               0.000036992               1.000000000              -0.000003422               0.000041951               1.000000000              -0.000005343               0.000047560               1.000000000              -0.000007939               0.000053966               1.000000000              -0.000011163               0.000061213               1.000000000              -0.000014919               0.000069365               1.000000000              -0.000019252               0.000078366               1.000000000              -0.000024146               0.000088201               1.000000000              -0.000029519               0.000098831               1.000000000              -0.000035345               0.000110192               1.000000000               0.000000799               0.000023436               1.000000000               0.000001628               0.000021170               1.000000000               0.000001604               0.000022360               1.000000000               0.000000871               0.000025674               1.000000000              -0.000000067               0.000030230               1.000000000              -0.000001026               0.000035442               1.000000000              -0.000001934               0.000040719               1.000000000              -0.000003114               0.000046611               1.000000000              -0.000004926               0.000053499               1.000000000              -0.000007460               0.000061138               1.000000000              -0.000010698               0.000069743               1.000000000              -0.000014545               0.000079401               1.000000000              -0.000018994               0.000090021               1.000000000              -0.000024072               0.000101635               1.000000000              -0.000029696               0.000114148               1.000000000              -0.000035841               0.000127517               1.000000000              -0.000042455               0.000141673               1.000000000               0.000000737               0.000026457               1.000000000               0.000002089               0.000024151               1.000000000               0.000001862               0.000025945               1.000000000               0.000000857               0.000030225               1.000000000              -0.000000411               0.000036050               1.000000000              -0.000001588               0.000042583               1.000000000              -0.000002604               0.000049514               1.000000000              -0.000004121               0.000057341               1.000000000              -0.000006463               0.000066268               1.000000000              -0.000009573               0.000076195               1.000000000              -0.000013307               0.000087287               1.000000000              -0.000017678               0.000099666               1.000000000              -0.000022725               0.000113192               1.000000000              -0.000028385               0.000127853               1.000000000              -0.000034589               0.000143648               1.000000000              -0.000041317               0.000160373               1.000000000              -0.000048376               0.000177782               1.000000000               0.000000658               0.000029486               1.000000000               0.000002367               0.000027305               1.000000000               0.000002272               0.000028794               1.000000000               0.000001291               0.000032655               1.000000000              -0.000000008               0.000038255               1.000000000              -0.000001232               0.000044774               1.000000000              -0.000002182               0.000051798               1.000000000              -0.000003135               0.000059474               1.000000000              -0.000004771               0.000068071               1.000000000              -0.000007007               0.000077564               1.000000000              -0.000009745               0.000087995               1.000000000              -0.000013048               0.000099462               1.000000000              -0.000016826               0.000112080               1.000000000              -0.000021090               0.000125677               1.000000000              -0.000025831               0.000140359               1.000000000              -0.000031010               0.000156059               1.000000000              -0.000036631               0.000172802               1.000000000               0.000000594               0.000032418               1.000000000               0.000002505               0.000030487               1.000000000               0.000002494               0.000031710               1.000000000               0.000001713               0.000035274               1.000000000               0.000000543               0.000040532               1.000000000              -0.000000686               0.000046855               1.000000000              -0.000001609               0.000053878               1.000000000              -0.000002337               0.000061531               1.000000000              -0.000003381               0.000069958               1.000000000              -0.000004927               0.000079193               1.000000000              -0.000006848               0.000089202               1.000000000              -0.000009222               0.000100029               1.000000000              -0.000011923               0.000111811               1.000000000              -0.000014952               0.000124551               1.000000000              -0.000018344               0.000138192               1.000000000              -0.000022081               0.000152764               1.000000000              -0.000026224               0.000168337               1.000000000               0.000000474               0.000035074               1.000000000               0.000002439               0.000033554               1.000000000               0.000002605               0.000034698               1.000000000               0.000002057               0.000037964               1.000000000               0.000001043               0.000042772               1.000000000              -0.000000083               0.000048803               1.000000000              -0.000001036               0.000055715               1.000000000              -0.000001702               0.000063400               1.000000000              -0.000002369               0.000071761               1.000000000              -0.000003314               0.000080905               1.000000000              -0.000004567               0.000090706               1.000000000              -0.000006098               0.000101171               1.000000000              -0.000007921               0.000112354               1.000000000              -0.000009934               0.000124373               1.000000000              -0.000012169               0.000137236               1.000000000              -0.000014618               0.000150874               1.000000000              -0.000017314               0.000165313               1.000000000               0.000000356               0.000037410               1.000000000               0.000002211               0.000036410               1.000000000               0.000002534               0.000037560               1.000000000               0.000002141               0.000040498               1.000000000               0.000001375               0.000044933               1.000000000               0.000000439               0.000050691               1.000000000              -0.000000451               0.000057504               1.000000000              -0.000001116               0.000065121               1.000000000              -0.000001580               0.000073438               1.000000000              -0.000002117               0.000082448               1.000000000              -0.000002846               0.000092152               1.000000000              -0.000003726               0.000102433               1.000000000              -0.000004819               0.000113321               1.000000000              -0.000006072               0.000124907               1.000000000              -0.000007389               0.000137203               1.000000000              -0.000008797               0.000150245               1.000000000              -0.000010279               0.000163990               1.000000000               0.000000257               0.000039317               1.000000000               0.000001821               0.000038857               1.000000000               0.000002186               0.000040045               1.000000000               0.000001991               0.000042808               1.000000000               0.000001483               0.000047014               1.000000000               0.000000719               0.000052469               1.000000000              -0.000000037               0.000059050               1.000000000              -0.000000634               0.000066504               1.000000000              -0.000000969               0.000074743               1.000000000              -0.000001251               0.000083695               1.000000000              -0.000001637               0.000093338               1.000000000              -0.000002088               0.000103588               1.000000000              -0.000002641               0.000114385               1.000000000              -0.000003294               0.000125722               1.000000000              -0.000003988               0.000137679               1.000000000              -0.000004687               0.000150315               1.000000000              -0.000005327               0.000163625               1.000000000               0.000000157               0.000040707               1.000000000               0.000001297               0.000040706               1.000000000               0.000001626               0.000042015               1.000000000               0.000001559               0.000044710               1.000000000               0.000001218               0.000048710               1.000000000               0.000000715               0.000053956               1.000000000               0.000000188               0.000060294               1.000000000              -0.000000259               0.000067567               1.000000000              -0.000000538               0.000075704               1.000000000              -0.000000687               0.000084602               1.000000000              -0.000000841               0.000094192               1.000000000              -0.000001022               0.000104396               1.000000000              -0.000001241               0.000115157               1.000000000              -0.000001517               0.000126353               1.000000000              -0.000001841               0.000138139               1.000000000              -0.000002165               0.000150513               1.000000000              -0.000002435               0.000163464               1.000000000               0.000000071               0.000041590               1.000000000               0.000000686               0.000041891               1.000000000               0.000000884               0.000043273               1.000000000               0.000000840               0.000045942               1.000000000               0.000000686               0.000049834               1.000000000               0.000000453               0.000054917               1.000000000               0.000000162               0.000061080               1.000000000              -0.000000082               0.000068264               1.000000000              -0.000000224               0.000076337               1.000000000              -0.000000288               0.000085149               1.000000000              -0.000000337               0.000094668               1.000000000              -0.000000389               0.000104807               1.000000000              -0.000000450               0.000115496               1.000000000              -0.000000545               0.000126614               1.000000000              -0.000000669               0.000138271               1.000000000              -0.000000797               0.000150444               1.000000000              -0.000000944               0.000163160               1.000000000              -0.000000000               0.000041892               1.000000000               0.000000000               0.000042295               1.000000000               0.000000000               0.000043695               1.000000000               0.000000000               0.000046366               1.000000000               0.000000000               0.000050226               1.000000000              -0.000000000               0.000055259               1.000000000               0.000000000               0.000061368               1.000000000              -0.000000000               0.000068490               1.000000000              -0.000000000               0.000076511               1.000000000              -0.000000000               0.000085305               1.000000000              -0.000000000               0.000094822               1.000000000              -0.000000000               0.000104930               1.000000000              -0.000000000               0.000115574               1.000000000              -0.000000000               0.000126651               1.000000000               0.000000000               0.000138242               1.000000000               0.000000000               0.000150329               1.000000000              -0.000000000               0.000162962               1.000000000               0.000001788               0.000000000               1.000000000               0.000000457               0.000000000               1.000000000               0.000000037               0.000000000               1.000000000               0.000000025               0.000000000               1.000000000               0.000000071               0.000000000               1.000000000               0.000000059               0.000000000               1.000000000              -0.000000069               0.000000000               1.000000000              -0.000000181               0.000000000               1.000000000              -0.000000176               0.000000000               1.000000000              -0.000000072               0.000000000               1.000000000               0.000000094               0.000000000               1.000000000               0.000000280               0.000000000               1.000000000               0.000000404               0.000000000               1.000000000               0.000000350               0.000000000               1.000000000               0.000000032               0.000000000               1.000000000              -0.000000628               0.000000000               1.000000000              -0.000001697               0.000000000               1.000000000               0.000001681              -0.000003430               1.000000000               0.000000425              -0.000003196               1.000000000               0.000000062              -0.000003157               1.000000000               0.000000037              -0.000003461               1.000000000               0.000000047              -0.000003913               1.000000000              -0.000000010              -0.000004548               1.000000000              -0.000000063              -0.000005000               1.000000000              -0.000000086              -0.000005247               1.000000000              -0.000000121              -0.000005506               1.000000000              -0.000000111              -0.000005672               1.000000000              -0.000000054              -0.000005860               1.000000000              -0.000000037              -0.000006163               1.000000000              -0.000000110              -0.000006627               1.000000000              -0.000000358              -0.000007326               1.000000000              -0.000000887              -0.000008276               1.000000000              -0.000001759              -0.000009469               1.000000000              -0.000003039              -0.000010877               1.000000000               0.000001580              -0.000006877               1.000000000               0.000000437              -0.000006329               1.000000000               0.000000097              -0.000006334               1.000000000               0.000000051              -0.000006892               1.000000000               0.000000062              -0.000007874               1.000000000              -0.000000034              -0.000009035               1.000000000              -0.000000133              -0.000009908               1.000000000              -0.000000177              -0.000010485               1.000000000              -0.000000189              -0.000011122               1.000000000              -0.000000208              -0.000011663               1.000000000              -0.000000357              -0.000012265               1.000000000              -0.000000713              -0.000013098               1.000000000              -0.000001292              -0.000014240               1.000000000              -0.000002144              -0.000015792               1.000000000              -0.000003329              -0.000017805               1.000000000              -0.000004884              -0.000020301               1.000000000              -0.000006851              -0.000023290               1.000000000               0.000001413              -0.000010274               1.000000000               0.000000437              -0.000009397               1.000000000               0.000000240              -0.000009457               1.000000000               0.000000181              -0.000010344               1.000000000               0.000000038              -0.000011806               1.000000000              -0.000000140              -0.000013511               1.000000000              -0.000000234              -0.000014834               1.000000000              -0.000000243              -0.000015882               1.000000000              -0.000000341              -0.000017088               1.000000000              -0.000000651              -0.000018295               1.000000000              -0.000001237              -0.000019746               1.000000000              -0.000002203              -0.000021538               1.000000000              -0.000003565              -0.000023773               1.000000000              -0.000005308              -0.000026551               1.000000000              -0.000007480              -0.000029937               1.000000000              -0.000010071              -0.000033991               1.000000000              -0.000013064              -0.000038768               1.000000000               0.000001155              -0.000013600               1.000000000               0.000000549              -0.000012398               1.000000000               0.000000503              -0.000012553               1.000000000               0.000000345              -0.000013888               1.000000000               0.000000080              -0.000015866               1.000000000              -0.000000203              -0.000018149               1.000000000              -0.000000479              -0.000019973               1.000000000              -0.000000738              -0.000021748               1.000000000              -0.000001171              -0.000023776               1.000000000              -0.000001889              -0.000026085               1.000000000              -0.000003029              -0.000028812               1.000000000              -0.000004695              -0.000032092               1.000000000              -0.000006843              -0.000035974               1.000000000              -0.000009478              -0.000040522               1.000000000              -0.000012629              -0.000045768               1.000000000              -0.000016251              -0.000051759               1.000000000              -0.000020298              -0.000058523               1.000000000               0.000001005              -0.000016932               1.000000000               0.000000811              -0.000015353               1.000000000               0.000000819              -0.000015695               1.000000000               0.000000585              -0.000017542               1.000000000               0.000000100              -0.000020214               1.000000000              -0.000000473              -0.000023127               1.000000000              -0.000000904              -0.000025848               1.000000000              -0.000001374              -0.000028654               1.000000000              -0.000002193              -0.000031949               1.000000000              -0.000003476              -0.000035770               1.000000000              -0.000005331              -0.000040164               1.000000000              -0.000007772              -0.000045316               1.000000000              -0.000010747              -0.000051210               1.000000000              -0.000014252              -0.000057891               1.000000000              -0.000018301              -0.000065356               1.000000000              -0.000022842              -0.000073586               1.000000000              -0.000027819              -0.000082569               1.000000000               0.000000890              -0.000020234               1.000000000               0.000001166              -0.000018251               1.000000000               0.000001249              -0.000018968               1.000000000               0.000000746              -0.000021409               1.000000000               0.000000005              -0.000024911               1.000000000              -0.000000652              -0.000028906               1.000000000              -0.000001282              -0.000032813               1.000000000              -0.000002095              -0.000036992               1.000000000              -0.000003422              -0.000041951               1.000000000              -0.000005343              -0.000047560               1.000000000              -0.000007939              -0.000053966               1.000000000              -0.000011163              -0.000061213               1.000000000              -0.000014919              -0.000069365               1.000000000              -0.000019252              -0.000078366               1.000000000              -0.000024146              -0.000088201               1.000000000              -0.000029519              -0.000098831               1.000000000              -0.000035345              -0.000110192               1.000000000               0.000000799              -0.000023436               1.000000000               0.000001628              -0.000021170               1.000000000               0.000001604              -0.000022360               1.000000000               0.000000871              -0.000025674               1.000000000              -0.000000067              -0.000030230               1.000000000              -0.000001026              -0.000035442               1.000000000              -0.000001934              -0.000040719               1.000000000              -0.000003114              -0.000046611               1.000000000              -0.000004926              -0.000053499               1.000000000              -0.000007460              -0.000061138               1.000000000              -0.000010698              -0.000069743               1.000000000              -0.000014545              -0.000079401               1.000000000              -0.000018994              -0.000090021               1.000000000              -0.000024072              -0.000101635               1.000000000              -0.000029696              -0.000114148               1.000000000              -0.000035841              -0.000127517               1.000000000              -0.000042455              -0.000141673               1.000000000               0.000000737              -0.000026457               1.000000000               0.000002089              -0.000024151               1.000000000               0.000001862              -0.000025945               1.000000000               0.000000857              -0.000030225               1.000000000              -0.000000411              -0.000036050               1.000000000              -0.000001588              -0.000042583               1.000000000              -0.000002604              -0.000049514               1.000000000              -0.000004121              -0.000057341               1.000000000              -0.000006463              -0.000066268               1.000000000              -0.000009573              -0.000076195               1.000000000              -0.000013307              -0.000087287               1.000000000              -0.000017678              -0.000099666               1.000000000              -0.000022725              -0.000113192               1.000000000              -0.000028385              -0.000127853               1.000000000              -0.000034589              -0.000143648               1.000000000              -0.000041317              -0.000160373               1.000000000              -0.000048376              -0.000177782               1.000000000               0.000000658              -0.000029486               1.000000000               0.000002367              -0.000027305               1.000000000               0.000002272              -0.000028794               1.000000000               0.000001291              -0.000032655               1.000000000              -0.000000008              -0.000038255               1.000000000              -0.000001232              -0.000044774               1.000000000              -0.000002182              -0.000051798               1.000000000              -0.000003135              -0.000059474               1.000000000              -0.000004771              -0.000068071               1.000000000              -0.000007007              -0.000077564               1.000000000              -0.000009745              -0.000087995               1.000000000              -0.000013048              -0.000099462               1.000000000              -0.000016826              -0.000112080               1.000000000              -0.000021090              -0.000125677               1.000000000              -0.000025831              -0.000140359               1.000000000              -0.000031010              -0.000156059               1.000000000              -0.000036631              -0.000172802               1.000000000               0.000000594              -0.000032418               1.000000000               0.000002505              -0.000030487               1.000000000               0.000002494              -0.000031710               1.000000000               0.000001713              -0.000035274               1.000000000               0.000000543              -0.000040532               1.000000000              -0.000000686              -0.000046855               1.000000000              -0.000001609              -0.000053878               1.000000000              -0.000002337              -0.000061531               1.000000000              -0.000003381              -0.000069958               1.000000000              -0.000004927              -0.000079193               1.000000000              -0.000006848              -0.000089202               1.000000000              -0.000009222              -0.000100029               1.000000000              -0.000011923              -0.000111811               1.000000000              -0.000014952              -0.000124551               1.000000000              -0.000018344              -0.000138192               1.000000000              -0.000022081              -0.000152764               1.000000000              -0.000026224              -0.000168337               1.000000000               0.000000474              -0.000035074               1.000000000               0.000002439              -0.000033554               1.000000000               0.000002605              -0.000034698               1.000000000               0.000002057              -0.000037964               1.000000000               0.000001043              -0.000042772               1.000000000              -0.000000083              -0.000048803               1.000000000              -0.000001036              -0.000055715               1.000000000              -0.000001702              -0.000063400               1.000000000              -0.000002369              -0.000071761               1.000000000              -0.000003314              -0.000080905               1.000000000              -0.000004567              -0.000090706               1.000000000              -0.000006098              -0.000101171               1.000000000              -0.000007921              -0.000112354               1.000000000              -0.000009934              -0.000124373               1.000000000              -0.000012169              -0.000137236               1.000000000              -0.000014618              -0.000150874               1.000000000              -0.000017314              -0.000165313               1.000000000               0.000000356              -0.000037410               1.000000000               0.000002211              -0.000036410               1.000000000               0.000002534              -0.000037560               1.000000000               0.000002141              -0.000040498               1.000000000               0.000001375              -0.000044933               1.000000000               0.000000439              -0.000050691               1.000000000              -0.000000451              -0.000057504               1.000000000              -0.000001116              -0.000065121               1.000000000              -0.000001580              -0.000073438               1.000000000              -0.000002117              -0.000082448               1.000000000              -0.000002846              -0.000092152               1.000000000              -0.000003726              -0.000102433               1.000000000              -0.000004819              -0.000113321               1.000000000              -0.000006072              -0.000124907               1.000000000              -0.000007389              -0.000137203               1.000000000              -0.000008797              -0.000150245               1.000000000              -0.000010279              -0.000163990               1.000000000               0.000000257              -0.000039317               1.000000000               0.000001821              -0.000038857               1.000000000               0.000002186              -0.000040045               1.000000000               0.000001991              -0.000042808               1.000000000               0.000001483              -0.000047014               1.000000000               0.000000719              -0.000052469               1.000000000              -0.000000037              -0.000059050               1.000000000              -0.000000634              -0.000066504               1.000000000              -0.000000969              -0.000074743               1.000000000              -0.000001251              -0.000083695               1.000000000              -0.000001637              -0.000093338               1.000000000              -0.000002088              -0.000103588               1.000000000              -0.000002641              -0.000114385               1.000000000              -0.000003294              -0.000125722               1.000000000              -0.000003988              -0.000137679               1.000000000              -0.000004687              -0.000150315               1.000000000              -0.000005327              -0.000163625               1.000000000               0.000000157              -0.000040707               1.000000000               0.000001297              -0.000040706               1.000000000               0.000001626              -0.000042015               1.000000000               0.000001559              -0.000044710               1.000000000               0.000001218              -0.000048710               1.000000000               0.000000715              -0.000053956               1.000000000               0.000000188              -0.000060294               1.000000000              -0.000000259              -0.000067567               1.000000000              -0.000000538              -0.000075704               1.000000000              -0.000000687              -0.000084602               1.000000000              -0.000000841              -0.000094192               1.000000000              -0.000001022              -0.000104396               1.000000000              -0.000001241              -0.000115157               1.000000000              -0.000001517              -0.000126353               1.000000000              -0.000001841              -0.000138139               1.000000000              -0.000002165              -0.000150513               1.000000000              -0.000002435              -0.000163464               1.000000000               0.000000071              -0.000041590               1.000000000               0.000000686              -0.000041891               1.000000000               0.000000884              -0.000043273               1.000000000               0.000000840              -0.000045942               1.000000000               0.000000686              -0.000049834               1.000000000               0.000000453              -0.000054917               1.000000000               0.000000162              -0.000061080               1.000000000              -0.000000082              -0.000068264               1.000000000              -0.000000224              -0.000076337               1.000000000              -0.000000288              -0.000085149               1.000000000              -0.000000337              -0.000094668               1.000000000              -0.000000389              -0.000104807               1.000000000              -0.000000450              -0.000115496               1.000000000              -0.000000545              -0.000126614               1.000000000              -0.000000669              -0.000138271               1.000000000              -0.000000797              -0.000150444               1.000000000              -0.000000944              -0.000163160               1.000000000              -0.000000000              -0.000041892               1.000000000              -0.000000000              -0.000042295               1.000000000               0.000000000              -0.000043695               1.000000000              -0.000000000              -0.000046366               1.000000000               0.000000000              -0.000050226               1.000000000              -0.000000000              -0.000055259               1.000000000              -0.000000000              -0.000061368               1.000000000               0.000000000              -0.000068490               1.000000000              -0.000000000              -0.000076511               1.000000000              -0.000000000              -0.000085305               1.000000000              -0.000000000              -0.000094822               1.000000000              -0.000000000              -0.000104930               1.000000000              -0.000000000              -0.000115574               1.000000000              -0.000000000              -0.000126651               1.000000000               0.000000000              -0.000138242               1.000000000               0.000000000              -0.000150329               1.000000000              -0.000000000              -0.000162962               1.000000000              -0.000001788               0.000000000               1.000000000              -0.000000457               0.000000000               1.000000000              -0.000000037               0.000000000               1.000000000              -0.000000025               0.000000000               1.000000000              -0.000000071               0.000000000               1.000000000              -0.000000059               0.000000000               1.000000000               0.000000069               0.000000000               1.000000000               0.000000181              -0.000000000               1.000000000               0.000000176               0.000000000               1.000000000               0.000000072               0.000000000               1.000000000              -0.000000094               0.000000000               1.000000000              -0.000000280               0.000000000               1.000000000              -0.000000404              -0.000000000               1.000000000              -0.000000350              -0.000000000               1.000000000              -0.000000032              -0.000000000               1.000000000               0.000000628              -0.000000000               1.000000000               0.000001697              -0.000000000               1.000000000              -0.000001681              -0.000003430               1.000000000              -0.000000425              -0.000003196               1.000000000              -0.000000062              -0.000003157               1.000000000              -0.000000037              -0.000003461               1.000000000              -0.000000047              -0.000003913               1.000000000               0.000000010              -0.000004548               1.000000000               0.000000063              -0.000005000               1.000000000               0.000000086              -0.000005247               1.000000000               0.000000121              -0.000005506               1.000000000               0.000000111              -0.000005672               1.000000000               0.000000054              -0.000005860               1.000000000               0.000000037              -0.000006163               1.000000000               0.000000110              -0.000006627               1.000000000               0.000000358              -0.000007326               1.000000000               0.000000887              -0.000008276               1.000000000               0.000001759              -0.000009469               1.000000000               0.000003039              -0.000010877               1.000000000              -0.000001580              -0.000006877               1.000000000              -0.000000437              -0.000006329               1.000000000              -0.000000097              -0.000006334               1.000000000              -0.000000051              -0.000006892               1.000000000              -0.000000062              -0.000007874               1.000000000               0.000000034              -0.000009035               1.000000000               0.000000133              -0.000009908               1.000000000               0.000000177              -0.000010485               1.000000000               0.000000189              -0.000011122               1.000000000               0.000000208              -0.000011663               1.000000000               0.000000357              -0.000012265               1.000000000               0.000000713              -0.000013098               1.000000000               0.000001292              -0.000014240               1.000000000               0.000002144              -0.000015792               1.000000000               0.000003329              -0.000017805               1.000000000               0.000004884              -0.000020301               1.000000000               0.000006851              -0.000023290               1.000000000              -0.000001413              -0.000010274               1.000000000              -0.000000437              -0.000009397               1.000000000              -0.000000240              -0.000009457               1.000000000              -0.000000181              -0.000010344               1.000000000              -0.000000038              -0.000011806               1.000000000               0.000000140              -0.000013511               1.000000000               0.000000234              -0.000014834               1.000000000               0.000000243              -0.000015882               1.000000000               0.000000341              -0.000017088               1.000000000               0.000000651              -0.000018295               1.000000000               0.000001237              -0.000019746               1.000000000               0.000002203              -0.000021538               1.000000000               0.000003565              -0.000023773               1.000000000               0.000005308              -0.000026551               1.000000000               0.000007480              -0.000029937               1.000000000               0.000010071              -0.000033991               1.000000000               0.000013064              -0.000038768               1.000000000              -0.000001155              -0.000013600               1.000000000              -0.000000549              -0.000012398               1.000000000              -0.000000503              -0.000012553               1.000000000              -0.000000345              -0.000013888               1.000000000              -0.000000080              -0.000015866               1.000000000               0.000000203              -0.000018149               1.000000000               0.000000479              -0.000019973               1.000000000               0.000000738              -0.000021748               1.000000000               0.000001171              -0.000023776               1.000000000               0.000001889              -0.000026085               1.000000000               0.000003029              -0.000028812               1.000000000               0.000004695              -0.000032092               1.000000000               0.000006843              -0.000035974               1.000000000               0.000009478              -0.000040522               1.000000000               0.000012629              -0.000045768               1.000000000               0.000016251              -0.000051759               1.000000000               0.000020298              -0.000058523               1.000000000              -0.000001005              -0.000016932               1.000000000              -0.000000811              -0.000015353               1.000000000              -0.000000819              -0.000015695               1.000000000              -0.000000585              -0.000017542               1.000000000              -0.000000100              -0.000020214               1.000000000               0.000000473              -0.000023127               1.000000000               0.000000904              -0.000025848               1.000000000               0.000001374              -0.000028654               1.000000000               0.000002193              -0.000031949               1.000000000               0.000003476              -0.000035770               1.000000000               0.000005331              -0.000040164               1.000000000               0.000007772              -0.000045316               1.000000000               0.000010747              -0.000051210               1.000000000               0.000014252              -0.000057891               1.000000000               0.000018301              -0.000065356               1.000000000               0.000022842              -0.000073586               1.000000000               0.000027819              -0.000082569               1.000000000              -0.000000890              -0.000020234               1.000000000              -0.000001166              -0.000018251               1.000000000              -0.000001249              -0.000018968               1.000000000              -0.000000746              -0.000021409               1.000000000              -0.000000005              -0.000024911               1.000000000               0.000000652              -0.000028906               1.000000000               0.000001282              -0.000032813               1.000000000               0.000002095              -0.000036992               1.000000000               0.000003422              -0.000041951               1.000000000               0.000005343              -0.000047560               1.000000000               0.000007939              -0.000053966               1.000000000               0.000011163              -0.000061213               1.000000000               0.000014919              -0.000069365               1.000000000               0.000019252              -0.000078366               1.000000000               0.000024146              -0.000088201               1.000000000               0.000029519              -0.000098831               1.000000000               0.000035345              -0.000110192               1.000000000              -0.000000799              -0.000023436               1.000000000              -0.000001628              -0.000021170               1.000000000              -0.000001604              -0.000022360               1.000000000              -0.000000871              -0.000025674               1.000000000               0.000000067              -0.000030230               1.000000000               0.000001026              -0.000035442               1.000000000               0.000001934              -0.000040719               1.000000000               0.000003114              -0.000046611               1.000000000               0.000004926              -0.000053499               1.000000000               0.000007460              -0.000061138               1.000000000               0.000010698              -0.000069743               1.000000000               0.000014545              -0.000079401               1.000000000               0.000018994              -0.000090021               1.000000000               0.000024072              -0.000101635               1.000000000               0.000029696              -0.000114148               1.000000000               0.000035841              -0.000127517               1.000000000               0.000042455              -0.000141673               1.000000000              -0.000000737              -0.000026457               1.000000000              -0.000002089              -0.000024151               1.000000000              -0.000001862              -0.000025945               1.000000000              -0.000000857              -0.000030225               1.000000000               0.000000411              -0.000036050               1.000000000               0.000001588              -0.000042583               1.000000000               0.000002604              -0.000049514               1.000000000               0.000004121              -0.000057341               1.000000000               0.000006463              -0.000066268               1.000000000               0.000009573              -0.000076195               1.000000000               0.000013307              -0.000087287               1.000000000               0.000017678              -0.000099666               1.000000000               0.000022725              -0.000113192               1.000000000               0.000028385              -0.000127853               1.000000000               0.000034589              -0.000143648               1.000000000               0.000041317              -0.000160373               1.000000000               0.000048376              -0.000177782               1.000000000              -0.000000658              -0.000029486               1.000000000              -0.000002367              -0.000027305               1.000000000              -0.000002272              -0.000028794               1.000000000              -0.000001291              -0.000032655               1.000000000               0.000000008              -0.000038255               1.000000000               0.000001232              -0.000044774               1.000000000               0.000002182              -0.000051798               1.000000000               0.000003135              -0.000059474               1.000000000               0.000004771              -0.000068071               1.000000000               0.000007007              -0.000077564               1.000000000               0.000009745              -0.000087995               1.000000000               0.000013048              -0.000099462               1.000000000               0.000016826              -0.000112080               1.000000000               0.000021090              -0.000125677               1.000000000               0.000025831              -0.000140359               1.000000000               0.000031010              -0.000156059               1.000000000               0.000036631              -0.000172802               1.000000000              -0.000000594              -0.000032418               1.000000000              -0.000002505              -0.000030487               1.000000000              -0.000002494              -0.000031710               1.000000000              -0.000001713              -0.000035274               1.000000000              -0.000000543              -0.000040532               1.000000000               0.000000686              -0.000046855               1.000000000               0.000001609              -0.000053878               1.000000000               0.000002337              -0.000061531               1.000000000               0.000003381              -0.000069958               1.000000000               0.000004927              -0.000079193               1.000000000               0.000006848              -0.000089202               1.000000000               0.000009222              -0.000100029               1.000000000               0.000011923              -0.000111811               1.000000000               0.000014952              -0.000124551               1.000000000               0.000018344              -0.000138192               1.000000000               0.000022081              -0.000152764               1.000000000               0.000026224              -0.000168337               1.000000000              -0.000000474              -0.000035074               1.000000000              -0.000002439              -0.000033554               1.000000000              -0.000002605              -0.000034698               1.000000000              -0.000002057              -0.000037964               1.000000000              -0.000001043              -0.000042772               1.000000000               0.000000083              -0.000048803               1.000000000               0.000001036              -0.000055715               1.000000000               0.000001702              -0.000063400               1.000000000               0.000002369              -0.000071761               1.000000000               0.000003314              -0.000080905               1.000000000               0.000004567              -0.000090706               1.000000000               0.000006098              -0.000101171               1.000000000               0.000007921              -0.000112354               1.000000000               0.000009934              -0.000124373               1.000000000               0.000012169              -0.000137236               1.000000000               0.000014618              -0.000150874               1.000000000               0.000017314              -0.000165313               1.000000000              -0.000000356              -0.000037410               1.000000000              -0.000002211              -0.000036410               1.000000000              -0.000002534              -0.000037560               1.000000000              -0.000002141              -0.000040498               1.000000000              -0.000001375              -0.000044933               1.000000000              -0.000000439              -0.000050691               1.000000000               0.000000451              -0.000057504               1.000000000               0.000001116              -0.000065121               1.000000000               0.000001580              -0.000073438               1.000000000               0.000002117              -0.000082448               1.000000000               0.000002846              -0.000092152               1.000000000               0.000003726              -0.000102433               1.000000000               0.000004819              -0.000113321               1.000000000               0.000006072              -0.000124907               1.000000000               0.000007389              -0.000137203               1.000000000               0.000008797              -0.000150245               1.000000000               0.000010279              -0.000163990               1.000000000              -0.000000257              -0.000039317               1.000000000              -0.000001821              -0.000038857               1.000000000              -0.000002186              -0.000040045               1.000000000              -0.000001991              -0.000042808               1.000000000              -0.000001483              -0.000047014               1.000000000              -0.000000719              -0.000052469               1.000000000               0.000000037              -0.000059050               1.000000000               0.000000634              -0.000066504               1.000000000               0.000000969              -0.000074743               1.000000000               0.000001251              -0.000083695               1.000000000               0.000001637              -0.000093338               1.000000000               0.000002088              -0.000103588               1.000000000               0.000002641              -0.000114385               1.000000000               0.000003294              -0.000125722               1.000000000               0.000003988              -0.000137679               1.000000000               0.000004687              -0.000150315               1.000000000               0.000005327              -0.000163625               1.000000000              -0.000000157              -0.000040707               1.000000000              -0.000001297              -0.000040706               1.000000000              -0.000001626              -0.000042015               1.000000000              -0.000001559              -0.000044710               1.000000000              -0.000001218              -0.000048710               1.000000000              -0.000000715              -0.000053956               1.000000000              -0.000000188              -0.000060294               1.000000000               0.000000259              -0.000067567               1.000000000               0.000000538              -0.000075704               1.000000000               0.000000687              -0.000084602               1.000000000               0.000000841              -0.000094192               1.000000000               0.000001022              -0.000104396               1.000000000               0.000001241              -0.000115157               1.000000000               0.000001517              -0.000126353               1.000000000               0.000001841              -0.000138139               1.000000000               0.000002165              -0.000150513               1.000000000               0.000002435              -0.000163464               1.000000000              -0.000000071              -0.000041590               1.000000000              -0.000000686              -0.000041891               1.000000000              -0.000000884              -0.000043273               1.000000000              -0.000000840              -0.000045942               1.000000000              -0.000000686              -0.000049834               1.000000000              -0.000000453              -0.000054917               1.000000000              -0.000000162              -0.000061080               1.000000000               0.000000082              -0.000068264               1.000000000               0.000000224              -0.000076337               1.000000000               0.000000288              -0.000085149               1.000000000               0.000000337              -0.000094668               1.000000000               0.000000389              -0.000104807               1.000000000               0.000000450              -0.000115496               1.000000000               0.000000545              -0.000126614               1.000000000               0.000000669              -0.000138271               1.000000000               0.000000797              -0.000150444               1.000000000               0.000000944              -0.000163160               1.000000000              -0.000000000              -0.000041892               1.000000000              -0.000000000              -0.000042295               1.000000000               0.000000000              -0.000043695               1.000000000              -0.000000000              -0.000046366               1.000000000               0.000000000              -0.000050226               1.000000000              -0.000000000              -0.000055259               1.000000000              -0.000000000              -0.000061368               1.000000000               0.000000000              -0.000068490               1.000000000              -0.000000000              -0.000076511               1.000000000              -0.000000000              -0.000085305               1.000000000              -0.000000000              -0.000094822               1.000000000              -0.000000000              -0.000104930               1.000000000              -0.000000000              -0.000115574               1.000000000              -0.000000000              -0.000126651               1.000000000               0.000000000              -0.000138242               1.000000000               0.000000000              -0.000150329               1.000000000              -0.000000000              -0.000162962               1.000000000              -0.000001788               0.000000000               1.000000000              -0.000000457               0.000000000               1.000000000              -0.000000037               0.000000000               1.000000000              -0.000000025               0.000000000               1.000000000              -0.000000071               0.000000000               1.000000000              -0.000000059               0.000000000               1.000000000               0.000000069               0.000000000               1.000000000               0.000000181              -0.000000000               1.000000000               0.000000176               0.000000000               1.000000000               0.000000072               0.000000000               1.000000000              -0.000000094               0.000000000               1.000000000              -0.000000280               0.000000000               1.000000000              -0.000000404              -0.000000000               1.000000000              -0.000000350              -0.000000000               1.000000000              -0.000000032              -0.000000000               1.000000000               0.000000628              -0.000000000               1.000000000               0.000001697              -0.000000000               1.000000000              -0.000001681               0.000003430               1.000000000              -0.000000425               0.000003196               1.000000000              -0.000000062               0.000003157               1.000000000              -0.000000037               0.000003461               1.000000000              -0.000000047               0.000003913               1.000000000               0.000000010               0.000004548               1.000000000               0.000000063               0.000005000               1.000000000               0.000000086               0.000005247               1.000000000               0.000000121               0.000005506               1.000000000               0.000000111               0.000005672               1.000000000               0.000000054               0.000005860               1.000000000               0.000000037               0.000006163               1.000000000               0.000000110               0.000006627               1.000000000               0.000000358               0.000007326               1.000000000               0.000000887               0.000008276               1.000000000               0.000001759               0.000009469               1.000000000               0.000003039               0.000010877               1.000000000              -0.000001580               0.000006877               1.000000000              -0.000000437               0.000006329               1.000000000              -0.000000097               0.000006334               1.000000000              -0.000000051               0.000006892               1.000000000              -0.000000062               0.000007874               1.000000000               0.000000034               0.000009035               1.000000000               0.000000133               0.000009908               1.000000000               0.000000177               0.000010485               1.000000000               0.000000189               0.000011122               1.000000000               0.000000208               0.000011663               1.000000000               0.000000357               0.000012265               1.000000000               0.000000713               0.000013098               1.000000000               0.000001292               0.000014240               1.000000000               0.000002144               0.000015792               1.000000000               0.000003329               0.000017805               1.000000000               0.000004884               0.000020301               1.000000000               0.000006851               0.000023290               1.000000000              -0.000001413               0.000010274               1.000000000              -0.000000437               0.000009397               1.000000000              -0.000000240               0.000009457               1.000000000              -0.000000181               0.000010344               1.000000000              -0.000000038               0.000011806               1.000000000               0.000000140               0.000013511               1.000000000               0.000000234               0.000014834               1.000000000               0.000000243               0.000015882               1.000000000               0.000000341               0.000017088               1.000000000               0.000000651               0.000018295               1.000000000               0.000001237               0.000019746               1.000000000               0.000002203               0.000021538               1.000000000               0.000003565               0.000023773               1.000000000               0.000005308               0.000026551               1.000000000               0.000007480               0.000029937               1.000000000               0.000010071               0.000033991               1.000000000               0.000013064               0.000038768               1.000000000              -0.000001155               0.000013600               1.000000000              -0.000000549               0.000012398               1.000000000              -0.000000503               0.000012553               1.000000000              -0.000000345               0.000013888               1.000000000              -0.000000080               0.000015866               1.000000000               0.000000203               0.000018149               1.000000000               0.000000479               0.000019973               1.000000000               0.000000738               0.000021748               1.000000000               0.000001171               0.000023776               1.000000000               0.000001889               0.000026085               1.000000000               0.000003029               0.000028812               1.000000000               0.000004695               0.000032092               1.000000000               0.000006843               0.000035974               1.000000000               0.000009478               0.000040522               1.000000000               0.000012629               0.000045768               1.000000000               0.000016251               0.000051759               1.000000000               0.000020298               0.000058523               1.000000000              -0.000001005               0.000016932               1.000000000              -0.000000811               0.000015353               1.000000000              -0.000000819               0.000015695               1.000000000              -0.000000585               0.000017542               1.000000000              -0.000000100               0.000020214               1.000000000               0.000000473               0.000023127               1.000000000               0.000000904               0.000025848               1.000000000               0.000001374               0.000028654               1.000000000               0.000002193               0.000031949               1.000000000               0.000003476               0.000035770               1.000000000               0.000005331               0.000040164               1.000000000               0.000007772               0.000045316               1.000000000               0.000010747               0.000051210               1.000000000               0.000014252               0.000057891               1.000000000               0.000018301               0.000065356               1.000000000               0.000022842               0.000073586               1.000000000               0.000027819               0.000082569               1.000000000              -0.000000890               0.000020234               1.000000000              -0.000001166               0.000018251               1.000000000              -0.000001249               0.000018968               1.000000000              -0.000000746               0.000021409               1.000000000              -0.000000005               0.000024911               1.000000000               0.000000652               0.000028906               1.000000000               0.000001282               0.000032813               1.000000000               0.000002095               0.000036992               1.000000000               0.000003422               0.000041951               1.000000000               0.000005343               0.000047560               1.000000000               0.000007939               0.000053966               1.000000000               0.000011163               0.000061213               1.000000000               0.000014919               0.000069365               1.000000000               0.000019252               0.000078366               1.000000000               0.000024146               0.000088201               1.000000000               0.000029519               0.000098831               1.000000000               0.000035345               0.000110192               1.000000000              -0.000000799               0.000023436               1.000000000              -0.000001628               0.000021170               1.000000000              -0.000001604               0.000022360               1.000000000              -0.000000871               0.000025674               1.000000000               0.000000067               0.000030230               1.000000000               0.000001026               0.000035442               1.000000000               0.000001934               0.000040719               1.000000000               0.000003114               0.000046611               1.000000000               0.000004926               0.000053499               1.000000000               0.000007460               0.000061138               1.000000000               0.000010698               0.000069743               1.000000000               0.000014545               0.000079401               1.000000000               0.000018994               0.000090021               1.000000000               0.000024072               0.000101635               1.000000000               0.000029696               0.000114148               1.000000000               0.000035841               0.000127517               1.000000000               0.000042455               0.000141673               1.000000000              -0.000000737               0.000026457               1.000000000              -0.000002089               0.000024151               1.000000000              -0.000001862               0.000025945               1.000000000              -0.000000857               0.000030225               1.000000000               0.000000411               0.000036050               1.000000000               0.000001588               0.000042583               1.000000000               0.000002604               0.000049514               1.000000000               0.000004121               0.000057341               1.000000000               0.000006463               0.000066268               1.000000000               0.000009573               0.000076195               1.000000000               0.000013307               0.000087287               1.000000000               0.000017678               0.000099666               1.000000000               0.000022725               0.000113192               1.000000000               0.000028385               0.000127853               1.000000000               0.000034589               0.000143648               1.000000000               0.000041317               0.000160373               1.000000000               0.000048376               0.000177782               1.000000000              -0.000000658               0.000029486               1.000000000              -0.000002367               0.000027305               1.000000000              -0.000002272               0.000028794               1.000000000              -0.000001291               0.000032655               1.000000000               0.000000008               0.000038255               1.000000000               0.000001232               0.000044774               1.000000000               0.000002182               0.000051798               1.000000000               0.000003135               0.000059474               1.000000000               0.000004771               0.000068071               1.000000000               0.000007007               0.000077564               1.000000000               0.000009745               0.000087995               1.000000000               0.000013048               0.000099462               1.000000000               0.000016826               0.000112080               1.000000000               0.000021090               0.000125677               1.000000000               0.000025831               0.000140359               1.000000000               0.000031010               0.000156059               1.000000000               0.000036631               0.000172802               1.000000000              -0.000000594               0.000032418               1.000000000              -0.000002505               0.000030487               1.000000000              -0.000002494               0.000031710               1.000000000              -0.000001713               0.000035274               1.000000000              -0.000000543               0.000040532               1.000000000               0.000000686               0.000046855               1.000000000               0.000001609               0.000053878               1.000000000               0.000002337               0.000061531               1.000000000               0.000003381               0.000069958               1.000000000               0.000004927               0.000079193               1.000000000               0.000006848               0.000089202               1.000000000               0.000009222               0.000100029               1.000000000               0.000011923               0.000111811               1.000000000               0.000014952               0.000124551               1.000000000               0.000018344               0.000138192               1.000000000               0.000022081               0.000152764               1.000000000               0.000026224               0.000168337               1.000000000              -0.000000474               0.000035074               1.000000000              -0.000002439               0.000033554               1.000000000              -0.000002605               0.000034698               1.000000000              -0.000002057               0.000037964               1.000000000              -0.000001043               0.000042772               1.000000000               0.000000083               0.000048803               1.000000000               0.000001036               0.000055715               1.000000000               0.000001702               0.000063400               1.000000000               0.000002369               0.000071761               1.000000000               0.000003314               0.000080905               1.000000000               0.000004567               0.000090706               1.000000000               0.000006098               0.000101171               1.000000000               0.000007921               0.000112354               1.000000000               0.000009934               0.000124373               1.000000000               0.000012169               0.000137236               1.000000000               0.000014618               0.000150874               1.000000000               0.000017314               0.000165313               1.000000000              -0.000000356               0.000037410               1.000000000              -0.000002211               0.000036410               1.000000000              -0.000002534               0.000037560               1.000000000              -0.000002141               0.000040498               1.000000000              -0.000001375               0.000044933               1.000000000              -0.000000439               0.000050691               1.000000000               0.000000451               0.000057504               1.000000000               0.000001116               0.000065121               1.000000000               0.000001580               0.000073438               1.000000000               0.000002117               0.000082448               1.000000000               0.000002846               0.000092152               1.000000000               0.000003726               0.000102433               1.000000000               0.000004819               0.000113321               1.000000000               0.000006072               0.000124907               1.000000000               0.000007389               0.000137203               1.000000000               0.000008797               0.000150245               1.000000000               0.000010279               0.000163990               1.000000000              -0.000000257               0.000039317               1.000000000              -0.000001821               0.000038857               1.000000000              -0.000002186               0.000040045               1.000000000              -0.000001991               0.000042808               1.000000000              -0.000001483               0.000047014               1.000000000              -0.000000719               0.000052469               1.000000000               0.000000037               0.000059050               1.000000000               0.000000634               0.000066504               1.000000000               0.000000969               0.000074743               1.000000000               0.000001251               0.000083695               1.000000000               0.000001637               0.000093338               1.000000000               0.000002088               0.000103588               1.000000000               0.000002641               0.000114385               1.000000000               0.000003294               0.000125722               1.000000000               0.000003988               0.000137679               1.000000000               0.000004687               0.000150315               1.000000000               0.000005327               0.000163625               1.000000000              -0.000000157               0.000040707               1.000000000              -0.000001297               0.000040706               1.000000000              -0.000001626               0.000042015               1.000000000              -0.000001559               0.000044710               1.000000000              -0.000001218               0.000048710               1.000000000              -0.000000715               0.000053956               1.000000000              -0.000000188               0.000060294               1.000000000               0.000000259               0.000067567               1.000000000               0.000000538               0.000075704               1.000000000               0.000000687               0.000084602               1.000000000               0.000000841               0.000094192               1.000000000               0.000001022               0.000104396               1.000000000               0.000001241               0.000115157               1.000000000               0.000001517               0.000126353               1.000000000               0.000001841               0.000138139               1.000000000               0.000002165               0.000150513               1.000000000               0.000002435               0.000163464               1.000000000              -0.000000071               0.000041590               1.000000000              -0.000000686               0.000041891               1.000000000              -0.000000884               0.000043273               1.000000000              -0.000000840               0.000045942               1.000000000              -0.000000686               0.000049834               1.000000000              -0.000000453               0.000054917               1.000000000              -0.000000162               0.000061080               1.000000000               0.000000082               0.000068264               1.000000000               0.000000224               0.000076337               1.000000000               0.000000288               0.000085149               1.000000000               0.000000337               0.000094668               1.000000000               0.000000389               0.000104807               1.000000000               0.000000450               0.000115496               1.000000000               0.000000545               0.000126614               1.000000000               0.000000669               0.000138271               1.000000000               0.000000797               0.000150444               1.000000000               0.000000944               0.000163160               1.000000000              -0.000000000               0.000041892               1.000000000               0.000000000               0.000042295               1.000000000               0.000000000               0.000043695               1.000000000               0.000000000               0.000046366               1.000000000               0.000000000               0.000050226               1.000000000              -0.000000000               0.000055259               1.000000000               0.000000000               0.000061368               1.000000000              -0.000000000               0.000068490               1.000000000              -0.000000000               0.000076511               1.000000000              -0.000000000               0.000085305               1.000000000              -0.000000000               0.000094822               1.000000000              -0.000000000               0.000104930               1.000000000              -0.000000000               0.000115574               1.000000000              -0.000000000               0.000126651               1.000000000               0.000000000               0.000138242               1.000000000               0.000000000               0.000150329               1.000000000              -0.000000000               0.000162962               1.000000000 </DataArray>
<DataArray type="Float64"                                    Name="stress"                                                      NumberOfComponents="10" format="ascii">
              0.000068079               0.000656458               0.000000000              -0.000056527               0.000237660               0.000181132               0.000000000               0.000000000               0.000000000               0.000000000               0.000092472               0.000563583              -0.000000000              -0.000035771               0.000199783               0.000164012               0.000000000               0.000000000               0.000000000               0.000000000               0.000141116               0.000492613              -0.000000000              -0.000008658               0.000167089               0.000158431               0.000000000               0.000000000               0.000000000               0.000000000               0.000157489               0.000469034               0.000000000               0.000000429               0.000156200               0.000156629               0.000000000               0.000000000               0.000000000               0.000000000               0.000155674               0.000465880               0.000000000               0.000000143               0.000155244               0.000155387               0.000000000               0.000000000               0.000000000               0.000000000               0.000150085               0.000472813              -0.000000000              -0.000002820               0.000158543               0.000155723               0.000000000               0.000000000               0.000000000               0.000000000               0.000145110               0.000467554               0.000000000              -0.000004028               0.000157193               0.000153165               0.000000000               0.000000000               0.000000000               0.000000000               0.000145255               0.000451989               0.000000000              -0.000002028               0.000151338               0.000149309               0.000000000               0.000000000               0.000000000               0.000000000               0.000149522               0.000437416               0.000000000               0.000001394               0.000145339               0.000146733               0.000000000               0.000000000               0.000000000               0.000000000               0.000152369               0.000421159               0.000000000               0.000004494               0.000138887               0.000143380               0.000000000               0.000000000               0.000000000               0.000000000               0.000151183               0.000407086               0.000000000               0.000005808               0.000133758               0.000139566               0.000000000               0.000000000               0.000000000               0.000000000               0.000144661               0.000399081              -0.000000000               0.000004363               0.000131571               0.000135934               0.000000000               0.000000000               0.000000000               0.000000000               0.000130154               0.000397966              -0.000000000              -0.000000938               0.000132967               0.000132029               0.000000000               0.000000000               0.000000000               0.000000000               0.000106753               0.000404750               0.000000000              -0.000010562               0.000138436               0.000127874               0.000000000               0.000000000               0.000000000               0.000000000               0.000076347               0.000419275               0.000000000              -0.000023779               0.000147683               0.000123904               0.000000000               0.000000000               0.000000000               0.000000000               0.000039890               0.000439954              -0.000000000              -0.000040035               0.000159995               0.000119960               0.000000000               0.000000000               0.000000000               0.000000000               0.000023179               0.000459247               0.000000000              -0.000048714               0.000169319               0.000120605               0.000000000               0.000000000               0.000000000               0.000000000               0.000075743               0.000650761              -0.000052110              -0.000052941               0.000234565               0.000181624               0.000000000               0.000000000               0.000000000               0.000000000               0.000096585               0.000557472              -0.000035809              -0.000033465               0.000196977               0.000163513               0.000000000               0.000000000               0.000000000               0.000000000               0.000141704               0.000491300              -0.000015593              -0.000008274               0.000166523               0.000158249               0.000000000               0.000000000               0.000000000               0.000000000               0.000155407               0.000468204              -0.000003752              -0.000000248               0.000156149               0.000155901               0.000000000               0.000000000               0.000000000               0.000000000               0.000153252               0.000466998               0.000002270              -0.000000905               0.000155966               0.000155061               0.000000000               0.000000000               0.000000000               0.000000000               0.000150013               0.000471363               0.000000394              -0.000002666               0.000158008               0.000155343               0.000000000               0.000000000               0.000000000               0.000000000               0.000149232               0.000465999              -0.000006653              -0.000002288               0.000156094               0.000153806               0.000000000               0.000000000               0.000000000               0.000000000               0.000147378               0.000452522              -0.000008784              -0.000001299               0.000151272               0.000149973               0.000000000               0.000000000               0.000000000               0.000000000               0.000147198               0.000441001              -0.000009871               0.000000074               0.000146974               0.000147048               0.000000000               0.000000000               0.000000000               0.000000000               0.000147840               0.000430059              -0.000012134               0.000001683               0.000142791               0.000144473               0.000000000               0.000000000               0.000000000               0.000000000               0.000143955               0.000421247              -0.000012310               0.000001327               0.000139972               0.000141299               0.000000000               0.000000000               0.000000000               0.000000000               0.000135360               0.000418000              -0.000011716              -0.000001490               0.000139829               0.000138339               0.000000000               0.000000000               0.000000000               0.000000000               0.000121622               0.000421369              -0.000010062              -0.000007063               0.000142809               0.000135746               0.000000000               0.000000000               0.000000000               0.000000000               0.000099730               0.000431117              -0.000007247              -0.000016491               0.000149201               0.000132710               0.000000000               0.000000000               0.000000000               0.000000000               0.000071042               0.000447443              -0.000004361              -0.000029289               0.000158909               0.000129620               0.000000000               0.000000000               0.000000000               0.000000000               0.000037261               0.000470098              -0.000001829              -0.000044789               0.000171628               0.000126838               0.000000000               0.000000000               0.000000000               0.000000000               0.000022562               0.000491201              -0.000001950              -0.000052939               0.000181378               0.000128439               0.000000000               0.000000000               0.000000000               0.000000000               0.000088955               0.000627214              -0.000098083              -0.000045044               0.000224084               0.000179040               0.000000000               0.000000000               0.000000000               0.000000000               0.000102024               0.000538469              -0.000066357              -0.000029050               0.000189171               0.000160121               0.000000000               0.000000000               0.000000000               0.000000000               0.000138779               0.000483683              -0.000028003              -0.000008418               0.000164032               0.000155614               0.000000000               0.000000000               0.000000000               0.000000000               0.000150339               0.000467278              -0.000005541              -0.000002033               0.000156435               0.000154403               0.000000000               0.000000000               0.000000000               0.000000000               0.000149453               0.000468602               0.000004027              -0.000002530               0.000157043               0.000154512               0.000000000               0.000000000               0.000000000               0.000000000               0.000147244               0.000469842              -0.000000639              -0.000003514               0.000157784               0.000154270               0.000000000               0.000000000               0.000000000               0.000000000               0.000149992               0.000465396              -0.000012679              -0.000001928               0.000155773               0.000153845               0.000000000               0.000000000               0.000000000               0.000000000               0.000151543               0.000460521              -0.000016300              -0.000000737               0.000153751               0.000153014               0.000000000               0.000000000               0.000000000               0.000000000               0.000150539               0.000459770              -0.000017740              -0.000001019               0.000153595               0.000152576               0.000000000               0.000000000               0.000000000               0.000000000               0.000145040               0.000461615              -0.000021903              -0.000003312               0.000154974               0.000151662               0.000000000               0.000000000               0.000000000               0.000000000               0.000132852               0.000467203              -0.000023121              -0.000008581               0.000158593               0.000150012               0.000000000               0.000000000               0.000000000               0.000000000               0.000118104               0.000477427              -0.000022741              -0.000015390               0.000164271               0.000148881               0.000000000               0.000000000               0.000000000               0.000000000               0.000102386               0.000492734              -0.000020831              -0.000023197               0.000171975               0.000148779               0.000000000               0.000000000               0.000000000               0.000000000               0.000081915               0.000511715              -0.000016968              -0.000033246               0.000181652               0.000148406               0.000000000               0.000000000               0.000000000               0.000000000               0.000057105               0.000534719              -0.000012044              -0.000045425               0.000193380               0.000147954               0.000000000               0.000000000               0.000000000               0.000000000               0.000029605               0.000562892              -0.000006275              -0.000059260               0.000207382               0.000148122               0.000000000               0.000000000               0.000000000               0.000000000               0.000019695               0.000587570              -0.000005633              -0.000066061               0.000217875               0.000151814               0.000000000               0.000000000               0.000000000               0.000000000               0.000107747               0.000588009              -0.000138154              -0.000033096               0.000207033               0.000173937               0.000000000               0.000000000               0.000000000               0.000000000               0.000111188               0.000512249              -0.000090216              -0.000022336               0.000178193               0.000155858               0.000000000               0.000000000               0.000000000               0.000000000               0.000134757               0.000474168              -0.000035007              -0.000008737               0.000160967               0.000152230               0.000000000               0.000000000               0.000000000               0.000000000               0.000139001               0.000470523              -0.000007003              -0.000006690               0.000159069               0.000152379               0.000000000               0.000000000               0.000000000               0.000000000               0.000140185               0.000475634               0.000003859              -0.000006885               0.000160838               0.000153953               0.000000000               0.000000000               0.000000000               0.000000000               0.000146218               0.000479985              -0.000003259              -0.000005166               0.000161715               0.000156549               0.000000000               0.000000000               0.000000000               0.000000000               0.000156608               0.000481222              -0.000018439              -0.000001425               0.000160881               0.000159456               0.000000000               0.000000000               0.000000000               0.000000000               0.000161964               0.000489888              -0.000024073              -0.000000499               0.000163461               0.000162961               0.000000000               0.000000000               0.000000000               0.000000000               0.000156376               0.000502824              -0.000027681              -0.000004212               0.000169010               0.000164798               0.000000000               0.000000000               0.000000000               0.000000000               0.000144727               0.000522702              -0.000033256              -0.000011065               0.000177920               0.000166855               0.000000000               0.000000000               0.000000000               0.000000000               0.000126670               0.000548263              -0.000035319              -0.000021032               0.000189763               0.000168732               0.000000000               0.000000000               0.000000000               0.000000000               0.000106000               0.000577953              -0.000035616              -0.000032494               0.000203481               0.000170987               0.000000000               0.000000000               0.000000000               0.000000000               0.000087343               0.000611404              -0.000033447              -0.000043672               0.000218357               0.000174685               0.000000000               0.000000000               0.000000000               0.000000000               0.000066669               0.000645751              -0.000028640              -0.000055718               0.000233821               0.000178103               0.000000000               0.000000000               0.000000000               0.000000000               0.000043839               0.000680222              -0.000021588              -0.000068588               0.000249601               0.000181013               0.000000000               0.000000000               0.000000000               0.000000000               0.000021968               0.000716002              -0.000011952              -0.000081262               0.000265752               0.000184490               0.000000000               0.000000000               0.000000000               0.000000000               0.000016451               0.000743213              -0.000009497              -0.000086732               0.000276646               0.000189914               0.000000000               0.000000000               0.000000000               0.000000000               0.000131529               0.000546357              -0.000163121              -0.000018971               0.000188441               0.000169470               0.000000000               0.000000000               0.000000000               0.000000000               0.000119800               0.000485079              -0.000104282              -0.000015710               0.000166928               0.000151218               0.000000000               0.000000000               0.000000000               0.000000000               0.000127877               0.000470237              -0.000039839              -0.000010826               0.000160353               0.000149527               0.000000000               0.000000000               0.000000000               0.000000000               0.000127018               0.000483015              -0.000009342              -0.000012745               0.000165252               0.000152507               0.000000000               0.000000000               0.000000000               0.000000000               0.000134085               0.000499809               0.000000213              -0.000012194               0.000170666               0.000158472               0.000000000               0.000000000               0.000000000               0.000000000               0.000147394               0.000511007              -0.000010326              -0.000008603               0.000173202               0.000164599               0.000000000               0.000000000               0.000000000               0.000000000               0.000162991               0.000527447              -0.000027098              -0.000004809               0.000177417               0.000172608               0.000000000               0.000000000               0.000000000               0.000000000               0.000170643               0.000555083              -0.000033509              -0.000005394               0.000186824               0.000181430               0.000000000               0.000000000               0.000000000               0.000000000               0.000165888               0.000588528              -0.000037439              -0.000011358               0.000199960               0.000188602               0.000000000               0.000000000               0.000000000               0.000000000               0.000153215               0.000628964              -0.000042279              -0.000021165               0.000216708               0.000195543               0.000000000               0.000000000               0.000000000               0.000000000               0.000131913               0.000671876              -0.000043929              -0.000034517               0.000235462               0.000200945               0.000000000               0.000000000               0.000000000               0.000000000               0.000109465               0.000718468              -0.000042943              -0.000048759               0.000255740               0.000206981               0.000000000               0.000000000               0.000000000               0.000000000               0.000089119               0.000766889              -0.000039462              -0.000062441               0.000276441               0.000214000               0.000000000               0.000000000               0.000000000               0.000000000               0.000066017               0.000813493              -0.000033430              -0.000076930               0.000296805               0.000219875               0.000000000               0.000000000               0.000000000               0.000000000               0.000041844               0.000857291              -0.000024915              -0.000091470               0.000316251               0.000224781               0.000000000               0.000000000               0.000000000               0.000000000               0.000020332               0.000898165              -0.000013503              -0.000104646               0.000334267               0.000229621               0.000000000               0.000000000               0.000000000               0.000000000               0.000015453               0.000926030              -0.000010152              -0.000109959               0.000345326               0.000235368               0.000000000               0.000000000               0.000000000               0.000000000               0.000148875               0.000499567              -0.000177865              -0.000006618               0.000168726               0.000162109               0.000000000               0.000000000               0.000000000               0.000000000               0.000121889               0.000457528              -0.000112821              -0.000011483               0.000156335               0.000144852               0.000000000               0.000000000               0.000000000               0.000000000               0.000118804               0.000476082              -0.000044606              -0.000014959               0.000163679               0.000148720               0.000000000               0.000000000               0.000000000               0.000000000               0.000118899               0.000507856              -0.000014460              -0.000018895               0.000175582               0.000156687               0.000000000               0.000000000               0.000000000               0.000000000               0.000131502               0.000541568              -0.000007976              -0.000018383               0.000186648               0.000168266               0.000000000               0.000000000               0.000000000               0.000000000               0.000155133               0.000574786              -0.000018714              -0.000013673               0.000196151               0.000182478               0.000000000               0.000000000               0.000000000               0.000000000               0.000179104               0.000615430              -0.000033892              -0.000009765               0.000208396               0.000198631               0.000000000               0.000000000               0.000000000               0.000000000               0.000184917               0.000662087              -0.000039769              -0.000013417               0.000225166               0.000211749               0.000000000               0.000000000               0.000000000               0.000000000               0.000176409               0.000714403              -0.000043199              -0.000023147               0.000245848               0.000222701               0.000000000               0.000000000               0.000000000               0.000000000               0.000159912               0.000768200              -0.000047863              -0.000036058               0.000268084               0.000232025               0.000000000               0.000000000               0.000000000               0.000000000               0.000137862               0.000822746              -0.000049026              -0.000051145               0.000291294               0.000240149               0.000000000               0.000000000               0.000000000               0.000000000               0.000116755               0.000877721              -0.000046002              -0.000065932               0.000314548               0.000248616               0.000000000               0.000000000               0.000000000               0.000000000               0.000095986               0.000931795              -0.000040679              -0.000080479               0.000337422               0.000256942               0.000000000               0.000000000               0.000000000               0.000000000               0.000071289               0.000981552              -0.000033064              -0.000095960               0.000359168               0.000263207               0.000000000               0.000000000               0.000000000               0.000000000               0.000045965               0.001026948              -0.000023619              -0.000111132               0.000379356               0.000268225               0.000000000               0.000000000               0.000000000               0.000000000               0.000023004               0.001067793              -0.000012316              -0.000124847               0.000397543               0.000272696               0.000000000               0.000000000               0.000000000               0.000000000               0.000017075               0.001094806              -0.000009161              -0.000130447               0.000408414               0.000277967               0.000000000               0.000000000               0.000000000               0.000000000               0.000161969               0.000446377              -0.000185279               0.000004941               0.000147144               0.000152085               0.000000000               0.000000000               0.000000000               0.000000000               0.000123403               0.000435068              -0.000117528              -0.000008107               0.000147724               0.000139616               0.000000000               0.000000000               0.000000000               0.000000000               0.000111502               0.000493529              -0.000051459              -0.000019878               0.000171134               0.000151256               0.000000000               0.000000000               0.000000000               0.000000000               0.000116732               0.000552395              -0.000024767              -0.000025275               0.000192555               0.000167280               0.000000000               0.000000000               0.000000000               0.000000000               0.000142815               0.000609304              -0.000016369              -0.000022607               0.000210635               0.000188028               0.000000000               0.000000000               0.000000000               0.000000000               0.000176868               0.000664168              -0.000026425              -0.000016695               0.000226952               0.000210257               0.000000000               0.000000000               0.000000000               0.000000000               0.000201000               0.000719156              -0.000041618              -0.000014520               0.000244556               0.000230037               0.000000000               0.000000000               0.000000000               0.000000000               0.000203667               0.000782002              -0.000046996              -0.000021375               0.000267790               0.000246415               0.000000000               0.000000000               0.000000000               0.000000000               0.000189439               0.000846367              -0.000050117              -0.000034756               0.000293705               0.000258949               0.000000000               0.000000000               0.000000000               0.000000000               0.000167258               0.000906449              -0.000053183              -0.000050584               0.000319008               0.000268424               0.000000000               0.000000000               0.000000000               0.000000000               0.000142464               0.000966511              -0.000051419              -0.000067390               0.000344630               0.000277241               0.000000000               0.000000000               0.000000000               0.000000000               0.000120788               0.001026299              -0.000045694              -0.000082992               0.000369760               0.000286769               0.000000000               0.000000000               0.000000000               0.000000000               0.000097952               0.001082429              -0.000038004              -0.000098571               0.000393663               0.000295092               0.000000000               0.000000000               0.000000000               0.000000000               0.000071464               0.001133673              -0.000029572              -0.000114910               0.000416190               0.000301281               0.000000000               0.000000000               0.000000000               0.000000000               0.000046181               0.001180650              -0.000019987              -0.000130263               0.000436967               0.000306704               0.000000000               0.000000000               0.000000000               0.000000000               0.000023410               0.001223623              -0.000010037              -0.000144174               0.000455928               0.000311754               0.000000000               0.000000000               0.000000000               0.000000000               0.000017506               0.001252610              -0.000008318              -0.000150011               0.000467536               0.000317525               0.000000000               0.000000000               0.000000000               0.000000000               0.000171739               0.000395204              -0.000181720               0.000015001               0.000126733               0.000141734               0.000000000               0.000000000               0.000000000               0.000000000               0.000125731               0.000423230              -0.000121038              -0.000005755               0.000142993               0.000137239               0.000000000               0.000000000               0.000000000               0.000000000               0.000113294               0.000524328              -0.000061537              -0.000023056               0.000182459               0.000159404               0.000000000               0.000000000               0.000000000               0.000000000               0.000128776               0.000611587              -0.000036349              -0.000028157               0.000213246               0.000185089               0.000000000               0.000000000               0.000000000               0.000000000               0.000164535               0.000688199              -0.000028977              -0.000024324               0.000237506               0.000213181               0.000000000               0.000000000               0.000000000               0.000000000               0.000203488               0.000752540              -0.000037358              -0.000017760               0.000256764               0.000239005               0.000000000               0.000000000               0.000000000               0.000000000               0.000224516               0.000818807              -0.000047934              -0.000018157               0.000278985               0.000260828               0.000000000               0.000000000               0.000000000               0.000000000               0.000219911               0.000892189              -0.000050190              -0.000029057               0.000307079               0.000278022               0.000000000               0.000000000               0.000000000               0.000000000               0.000198488               0.000960784              -0.000052254              -0.000045665               0.000335480               0.000289815               0.000000000               0.000000000               0.000000000               0.000000000               0.000173242               0.001026596              -0.000053493              -0.000063358               0.000363315               0.000299956               0.000000000               0.000000000               0.000000000               0.000000000               0.000147782               0.001093172              -0.000047147              -0.000081228               0.000391463               0.000310235               0.000000000               0.000000000               0.000000000               0.000000000               0.000123214               0.001160020              -0.000039118              -0.000098797               0.000419602               0.000320805               0.000000000               0.000000000               0.000000000               0.000000000               0.000096456               0.001222906              -0.000030918              -0.000116692               0.000446528               0.000329837               0.000000000               0.000000000               0.000000000               0.000000000               0.000069707               0.001283140              -0.000022088              -0.000134252               0.000472460               0.000338208               0.000000000               0.000000000               0.000000000               0.000000000               0.000045202               0.001341627              -0.000014083              -0.000150752               0.000497455               0.000346703               0.000000000               0.000000000               0.000000000               0.000000000               0.000022857               0.001395761              -0.000006904              -0.000165898               0.000520548               0.000354650               0.000000000               0.000000000               0.000000000               0.000000000               0.000016558               0.001430754              -0.000006637              -0.000172635               0.000534458               0.000361823               0.000000000               0.000000000               0.000000000               0.000000000               0.000178223               0.000354718              -0.000171730               0.000022493               0.000110740               0.000133234               0.000000000               0.000000000               0.000000000               0.000000000               0.000131913               0.000418603              -0.000124998              -0.000002858               0.000140486               0.000137627               0.000000000               0.000000000               0.000000000               0.000000000               0.000119069               0.000555032              -0.000075080              -0.000024728               0.000193251               0.000168523               0.000000000               0.000000000               0.000000000               0.000000000               0.000143153               0.000661503              -0.000049778              -0.000029006               0.000230167               0.000201162               0.000000000               0.000000000               0.000000000               0.000000000               0.000184338               0.000749619              -0.000040688              -0.000024576               0.000258062               0.000233487               0.000000000               0.000000000               0.000000000               0.000000000               0.000222817               0.000817725              -0.000040752              -0.000018659               0.000278792               0.000260133               0.000000000               0.000000000               0.000000000               0.000000000               0.000239955               0.000890044              -0.000043953              -0.000021273               0.000303769               0.000282497               0.000000000               0.000000000               0.000000000               0.000000000               0.000227207               0.000967412              -0.000045842              -0.000035724               0.000334375               0.000298652               0.000000000               0.000000000               0.000000000               0.000000000               0.000203928               0.001040017              -0.000048295              -0.000053529               0.000364512               0.000310983               0.000000000               0.000000000               0.000000000               0.000000000               0.000181747               0.001113446              -0.000047180              -0.000071025               0.000394820               0.000323795               0.000000000               0.000000000               0.000000000               0.000000000               0.000160469               0.001190655              -0.000039731              -0.000088656               0.000426433               0.000337777               0.000000000               0.000000000               0.000000000               0.000000000               0.000137849               0.001266647              -0.000031483              -0.000106637               0.000457757               0.000351120               0.000000000               0.000000000               0.000000000               0.000000000               0.000113038               0.001339604              -0.000023796              -0.000125061               0.000488217               0.000363156               0.000000000               0.000000000               0.000000000               0.000000000               0.000089016               0.001411200              -0.000014597              -0.000143019               0.000518068               0.000375049               0.000000000               0.000000000               0.000000000               0.000000000               0.000066662               0.001481355              -0.000006882              -0.000160171               0.000547170               0.000387000               0.000000000               0.000000000               0.000000000               0.000000000               0.000046986               0.001545962              -0.000001778              -0.000175625               0.000573857               0.000398232               0.000000000               0.000000000               0.000000000               0.000000000               0.000037847               0.001581464              -0.000000653              -0.000183490               0.000588313               0.000404823               0.000000000               0.000000000               0.000000000               0.000000000               0.000180131               0.000311832              -0.000161535               0.000028570               0.000094420               0.000122989               0.000000000               0.000000000               0.000000000               0.000000000               0.000141299               0.000395494              -0.000131095               0.000003550               0.000130647               0.000134197               0.000000000               0.000000000               0.000000000               0.000000000               0.000129798               0.000551779              -0.000094433              -0.000020298               0.000190690               0.000170392               0.000000000               0.000000000               0.000000000               0.000000000               0.000151637               0.000676675              -0.000069008              -0.000027720               0.000234796               0.000207076               0.000000000               0.000000000               0.000000000               0.000000000               0.000186139               0.000774389              -0.000052813              -0.000026997               0.000267126               0.000240130               0.000000000               0.000000000               0.000000000               0.000000000               0.000221687               0.000845726              -0.000043228              -0.000022583               0.000289433               0.000266850               0.000000000               0.000000000               0.000000000               0.000000000               0.000246419               0.000916356              -0.000038390              -0.000022138               0.000312828               0.000290691               0.000000000               0.000000000               0.000000000               0.000000000               0.000246389               0.000994074              -0.000040157              -0.000031863               0.000341976               0.000310112               0.000000000               0.000000000               0.000000000               0.000000000               0.000230837               0.001070957              -0.000045038              -0.000047306               0.000372750               0.000325445               0.000000000               0.000000000               0.000000000               0.000000000               0.000212785               0.001145555              -0.000045243              -0.000063400               0.000402981               0.000339581               0.000000000               0.000000000               0.000000000               0.000000000               0.000195247               0.001222139              -0.000041948              -0.000079549               0.000433892               0.000354343               0.000000000               0.000000000               0.000000000               0.000000000               0.000179157               0.001302706              -0.000035958              -0.000095654               0.000466116               0.000370462               0.000000000               0.000000000               0.000000000               0.000000000               0.000159927               0.001380023              -0.000027742              -0.000112530               0.000497513               0.000384983               0.000000000               0.000000000               0.000000000               0.000000000               0.000138721               0.001454856              -0.000019266              -0.000129836               0.000528226               0.000398390               0.000000000               0.000000000               0.000000000               0.000000000               0.000118559               0.001530118              -0.000010544              -0.000146805               0.000558969               0.000412164               0.000000000               0.000000000               0.000000000               0.000000000               0.000100855               0.001606534              -0.000003505              -0.000162996               0.000589838               0.000426842               0.000000000               0.000000000               0.000000000               0.000000000               0.000086871               0.001642535               0.000001568              -0.000172740               0.000605086               0.000432346               0.000000000               0.000000000               0.000000000               0.000000000               0.000178630               0.000261618              -0.000147741               0.000034284               0.000075777               0.000110061               0.000000000               0.000000000               0.000000000               0.000000000               0.000151588               0.000358816              -0.000134713               0.000011993               0.000115606               0.000127599               0.000000000               0.000000000               0.000000000               0.000000000               0.000143467               0.000531184              -0.000110635              -0.000012598               0.000181259               0.000168661               0.000000000               0.000000000               0.000000000               0.000000000               0.000158202               0.000667516              -0.000084296              -0.000024114               0.000230541               0.000206427               0.000000000               0.000000000               0.000000000               0.000000000               0.000182170               0.000768275              -0.000063011              -0.000027721               0.000265330               0.000237609               0.000000000               0.000000000               0.000000000               0.000000000               0.000214513               0.000847449              -0.000046390              -0.000025489               0.000290976               0.000265488               0.000000000               0.000000000               0.000000000               0.000000000               0.000248358               0.000924140              -0.000035249              -0.000022383               0.000315505               0.000293121               0.000000000               0.000000000               0.000000000               0.000000000               0.000267736               0.001005948              -0.000034494              -0.000025342               0.000343760               0.000318418               0.000000000               0.000000000               0.000000000               0.000000000               0.000265812               0.001086345              -0.000039553              -0.000036113               0.000374149               0.000338036               0.000000000               0.000000000               0.000000000               0.000000000               0.000255606               0.001162191              -0.000043001              -0.000049422               0.000403867               0.000354445               0.000000000               0.000000000               0.000000000               0.000000000               0.000242909               0.001234062              -0.000043582              -0.000063167               0.000432406               0.000369239               0.000000000               0.000000000               0.000000000               0.000000000               0.000229645               0.001309421              -0.000040144              -0.000077560               0.000462323               0.000384762               0.000000000               0.000000000               0.000000000               0.000000000               0.000216537               0.001386472              -0.000032163              -0.000092107               0.000492855               0.000400748               0.000000000               0.000000000               0.000000000               0.000000000               0.000200639               0.001460944              -0.000023755              -0.000107378               0.000522769               0.000415391               0.000000000               0.000000000               0.000000000               0.000000000               0.000182611               0.001532964              -0.000014835              -0.000123141               0.000552030               0.000428889               0.000000000               0.000000000               0.000000000               0.000000000               0.000164997               0.001607286              -0.000006032              -0.000139036               0.000582102               0.000443066               0.000000000               0.000000000               0.000000000               0.000000000               0.000147284               0.001638016               0.000001966              -0.000149520               0.000595840               0.000446320               0.000000000               0.000000000               0.000000000               0.000000000               0.000169410               0.000209992              -0.000127164               0.000037279               0.000057570               0.000094850               0.000000000               0.000000000               0.000000000               0.000000000               0.000159774               0.000318600              -0.000129692               0.000020090               0.000099502               0.000119592               0.000000000               0.000000000               0.000000000               0.000000000               0.000157527               0.000498405              -0.000118265              -0.000003228               0.000167209               0.000163981               0.000000000               0.000000000               0.000000000               0.000000000               0.000170550               0.000636117              -0.000094683              -0.000015558               0.000217223               0.000201664               0.000000000               0.000000000               0.000000000               0.000000000               0.000188618               0.000745106              -0.000072590              -0.000022406               0.000255835               0.000233429               0.000000000               0.000000000               0.000000000               0.000000000               0.000216652               0.000841430              -0.000053675              -0.000023934               0.000288452               0.000264518               0.000000000               0.000000000               0.000000000               0.000000000               0.000253590               0.000932599              -0.000039403              -0.000021479               0.000318023               0.000296544               0.000000000               0.000000000               0.000000000               0.000000000               0.000284123               0.001019449              -0.000032544              -0.000020885               0.000346775               0.000325890               0.000000000               0.000000000               0.000000000               0.000000000               0.000295867               0.001101917              -0.000033110              -0.000026789               0.000376232               0.000349442               0.000000000               0.000000000               0.000000000               0.000000000               0.000294270               0.001178256              -0.000036239              -0.000036931               0.000405058               0.000368128               0.000000000               0.000000000               0.000000000               0.000000000               0.000286895               0.001246677              -0.000038368              -0.000048249               0.000431638               0.000383389               0.000000000               0.000000000               0.000000000               0.000000000               0.000276529               0.001314305              -0.000037824              -0.000060589               0.000458294               0.000397704               0.000000000               0.000000000               0.000000000               0.000000000               0.000268382               0.001387498              -0.000033479              -0.000072794               0.000486759               0.000413965               0.000000000               0.000000000               0.000000000               0.000000000               0.000260761               0.001463653              -0.000026334              -0.000085171               0.000516270               0.000431099               0.000000000               0.000000000               0.000000000               0.000000000               0.000249146               0.001535660              -0.000018251              -0.000098527               0.000544724               0.000446197               0.000000000               0.000000000               0.000000000               0.000000000               0.000234362               0.001605060              -0.000009715              -0.000112747               0.000572597               0.000459850               0.000000000               0.000000000               0.000000000               0.000000000               0.000217132               0.001632952              -0.000001895              -0.000122694               0.000585210               0.000462516               0.000000000               0.000000000               0.000000000               0.000000000               0.000148792               0.000163602              -0.000101243               0.000035346               0.000042751               0.000078098               0.000000000               0.000000000               0.000000000               0.000000000               0.000163056               0.000275065              -0.000115368               0.000026762               0.000082766               0.000109529               0.000000000               0.000000000               0.000000000               0.000000000               0.000174317               0.000449864              -0.000115882               0.000009136               0.000146908               0.000156044               0.000000000               0.000000000               0.000000000               0.000000000               0.000188327               0.000591949              -0.000097837              -0.000003371               0.000198438               0.000195067               0.000000000               0.000000000               0.000000000               0.000000000               0.000204721               0.000717621              -0.000078515              -0.000012932               0.000243515               0.000230583               0.000000000               0.000000000               0.000000000               0.000000000               0.000230700               0.000832697              -0.000060819              -0.000017574               0.000283421               0.000265846               0.000000000               0.000000000               0.000000000               0.000000000               0.000263042               0.000934130              -0.000044900              -0.000018125               0.000317415               0.000299290               0.000000000               0.000000000               0.000000000               0.000000000               0.000294427               0.001023484              -0.000031820              -0.000017525               0.000347000               0.000329474               0.000000000               0.000000000               0.000000000               0.000000000               0.000314878               0.001107079              -0.000026011              -0.000020305               0.000375791               0.000355486               0.000000000               0.000000000               0.000000000               0.000000000               0.000324167               0.001186288              -0.000026655              -0.000026723               0.000404333               0.000377610               0.000000000               0.000000000               0.000000000               0.000000000               0.000326411               0.001257720              -0.000028636              -0.000034811               0.000430839               0.000396029               0.000000000               0.000000000               0.000000000               0.000000000               0.000323940               0.001323494              -0.000030237              -0.000043959               0.000455813               0.000411854               0.000000000               0.000000000               0.000000000               0.000000000               0.000321117               0.001392870              -0.000030142              -0.000053690               0.000482182               0.000428492               0.000000000               0.000000000               0.000000000               0.000000000               0.000319705               0.001465815              -0.000025627              -0.000063337               0.000509713               0.000446375               0.000000000               0.000000000               0.000000000               0.000000000               0.000317422               0.001539447              -0.000018595              -0.000073397               0.000537610               0.000464212               0.000000000               0.000000000               0.000000000               0.000000000               0.000312573               0.001611831              -0.000010842              -0.000084264               0.000565359               0.000481096               0.000000000               0.000000000               0.000000000               0.000000000               0.000302046               0.001642606              -0.000004511              -0.000092058               0.000578216               0.000486158               0.000000000               0.000000000               0.000000000               0.000000000               0.000124096               0.000123690              -0.000072481               0.000031074               0.000030871               0.000061946               0.000000000               0.000000000               0.000000000               0.000000000               0.000161831               0.000229896              -0.000092579               0.000031949               0.000065981               0.000097931               0.000000000               0.000000000               0.000000000               0.000000000               0.000191078               0.000398840              -0.000101352               0.000021799               0.000125679               0.000147478               0.000000000               0.000000000               0.000000000               0.000000000               0.000210046               0.000549373              -0.000090307               0.000010095               0.000179757               0.000189853               0.000000000               0.000000000               0.000000000               0.000000000               0.000228514               0.000685894              -0.000076662              -0.000000044               0.000228644               0.000228600               0.000000000               0.000000000               0.000000000               0.000000000               0.000250277               0.000810320              -0.000061803              -0.000007436               0.000272583               0.000265146               0.000000000               0.000000000               0.000000000               0.000000000               0.000275190               0.000919021              -0.000045071              -0.000011682               0.000310231               0.000298550               0.000000000               0.000000000               0.000000000               0.000000000               0.000302973               0.001015535              -0.000029205              -0.000013327               0.000342951               0.000329624               0.000000000               0.000000000               0.000000000               0.000000000               0.000329492               0.001106638              -0.000019454              -0.000014770               0.000373799               0.000359029               0.000000000               0.000000000               0.000000000               0.000000000               0.000348424               0.001191900              -0.000017849              -0.000018328               0.000403405               0.000385077               0.000000000               0.000000000               0.000000000               0.000000000               0.000360367               0.001269057              -0.000018823              -0.000023494               0.000430846               0.000407352               0.000000000               0.000000000               0.000000000               0.000000000               0.000367303               0.001337700              -0.000020248              -0.000029474               0.000455720               0.000426246               0.000000000               0.000000000               0.000000000               0.000000000               0.000370506               0.001401469              -0.000021519              -0.000036244               0.000479233               0.000442989               0.000000000               0.000000000               0.000000000               0.000000000               0.000374278               0.001467802              -0.000019703              -0.000043121               0.000503636               0.000460515               0.000000000               0.000000000               0.000000000               0.000000000               0.000381566               0.001541500              -0.000015332              -0.000049600               0.000530361               0.000480761               0.000000000               0.000000000               0.000000000               0.000000000               0.000389150               0.001616411              -0.000008467              -0.000056120               0.000557505               0.000501385               0.000000000               0.000000000               0.000000000               0.000000000               0.000388596               0.001650554              -0.000003089              -0.000060596               0.000570378               0.000509782               0.000000000               0.000000000               0.000000000               0.000000000               0.000100899               0.000095232              -0.000045897               0.000025933               0.000023099               0.000049032               0.000000000               0.000000000               0.000000000               0.000000000               0.000157963               0.000193773              -0.000064348               0.000035014               0.000052919               0.000087933               0.000000000               0.000000000               0.000000000               0.000000000               0.000205205               0.000356346              -0.000075321               0.000032408               0.000107978               0.000140386               0.000000000               0.000000000               0.000000000               0.000000000               0.000233161               0.000509483              -0.000070584               0.000023750               0.000161910               0.000185659               0.000000000               0.000000000               0.000000000               0.000000000               0.000253113               0.000651368              -0.000061423               0.000013496               0.000212622               0.000226118               0.000000000               0.000000000               0.000000000               0.000000000               0.000269560               0.000781540              -0.000050090               0.000003392               0.000259380               0.000262772               0.000000000               0.000000000               0.000000000               0.000000000               0.000288795               0.000897758              -0.000037115              -0.000003922               0.000300557               0.000296635               0.000000000               0.000000000               0.000000000               0.000000000               0.000313132               0.001004835              -0.000024592              -0.000008180               0.000337668               0.000329488               0.000000000               0.000000000               0.000000000               0.000000000               0.000340882               0.001104095              -0.000014986              -0.000010181               0.000371422               0.000361241               0.000000000               0.000000000               0.000000000               0.000000000               0.000365590               0.001194197              -0.000010752              -0.000012178               0.000402121               0.000389943               0.000000000               0.000000000               0.000000000               0.000000000               0.000384963               0.001275222              -0.000009921              -0.000015042               0.000430084               0.000415042               0.000000000               0.000000000               0.000000000               0.000000000               0.000400116               0.001347176              -0.000009994              -0.000018353               0.000455172               0.000436818               0.000000000               0.000000000               0.000000000               0.000000000               0.000410516               0.001408239              -0.000010762              -0.000022086               0.000476771               0.000454684               0.000000000               0.000000000               0.000000000               0.000000000               0.000421092               0.001470942              -0.000010834              -0.000025958               0.000498962               0.000473004               0.000000000               0.000000000               0.000000000               0.000000000               0.000435307               0.001542360              -0.000009053              -0.000029555               0.000523966               0.000494412               0.000000000               0.000000000               0.000000000               0.000000000               0.000450699               0.001613546              -0.000004638              -0.000032681               0.000548737               0.000516056               0.000000000               0.000000000               0.000000000               0.000000000               0.000457591               0.001647569              -0.000001132              -0.000034349               0.000560634               0.000526285               0.000000000               0.000000000               0.000000000               0.000000000               0.000083450               0.000077850              -0.000022416               0.000021562               0.000018762               0.000040324               0.000000000               0.000000000               0.000000000               0.000000000               0.000155792               0.000169788              -0.000033161               0.000037198               0.000044196               0.000081394               0.000000000               0.000000000               0.000000000               0.000000000               0.000217097               0.000326895              -0.000040323               0.000040549               0.000095448               0.000135997               0.000000000               0.000000000               0.000000000               0.000000000               0.000249497               0.000480438              -0.000038752               0.000033506               0.000148976               0.000182482               0.000000000               0.000000000               0.000000000               0.000000000               0.000269266               0.000624115              -0.000033814               0.000022960               0.000200383               0.000223343               0.000000000               0.000000000               0.000000000               0.000000000               0.000284716               0.000757925              -0.000028050               0.000012028               0.000248630               0.000260658               0.000000000               0.000000000               0.000000000               0.000000000               0.000301573               0.000881934              -0.000021382               0.000002848               0.000293026               0.000295874               0.000000000               0.000000000               0.000000000               0.000000000               0.000322980               0.000997134              -0.000014141              -0.000003524               0.000333549               0.000330025               0.000000000               0.000000000               0.000000000               0.000000000               0.000347922               0.001099119              -0.000008005              -0.000006919               0.000368676               0.000361757               0.000000000               0.000000000               0.000000000               0.000000000               0.000374717               0.001191765              -0.000004735              -0.000008452               0.000400068               0.000391617               0.000000000               0.000000000               0.000000000               0.000000000               0.000399665               0.001276168              -0.000003756              -0.000009647               0.000428601               0.000418954               0.000000000               0.000000000               0.000000000               0.000000000               0.000420871               0.001350264              -0.000003293              -0.000010956               0.000453735               0.000442779               0.000000000               0.000000000               0.000000000               0.000000000               0.000437397               0.001412163              -0.000003363              -0.000012497               0.000474882               0.000462385               0.000000000               0.000000000               0.000000000               0.000000000               0.000452948               0.001473664              -0.000003693              -0.000014352               0.000496000               0.000481648               0.000000000               0.000000000               0.000000000               0.000000000               0.000469962               0.001540791              -0.000002919              -0.000016363               0.000519046               0.000502683               0.000000000               0.000000000               0.000000000               0.000000000               0.000487684               0.001608302              -0.000001176              -0.000018156               0.000542147               0.000523991               0.000000000               0.000000000               0.000000000               0.000000000               0.000496466               0.001642037               0.000000022              -0.000019080               0.000553700               0.000534620               0.000000000               0.000000000               0.000000000               0.000000000               0.000077026               0.000071344               0.000000000               0.000019967               0.000017125               0.000037092               0.000000000               0.000000000               0.000000000               0.000000000               0.000155952               0.000160937               0.000000000               0.000038365               0.000040857               0.000079222               0.000000000               0.000000000               0.000000000               0.000000000               0.000222480               0.000316543               0.000000000               0.000043862               0.000090893               0.000134754               0.000000000               0.000000000               0.000000000               0.000000000               0.000254645               0.000469954               0.000000000               0.000036747               0.000144400               0.000181148               0.000000000               0.000000000               0.000000000               0.000000000               0.000275151               0.000614146              -0.000000000               0.000026413               0.000195909               0.000222322               0.000000000               0.000000000               0.000000000               0.000000000               0.000291211               0.000749627               0.000000000               0.000015501               0.000244706               0.000260207               0.000000000               0.000000000               0.000000000               0.000000000               0.000306022               0.000875455               0.000000000               0.000005327               0.000290040               0.000295366               0.000000000               0.000000000               0.000000000               0.000000000               0.000325750               0.000992463              -0.000000000              -0.000001902               0.000331452               0.000329550               0.000000000               0.000000000               0.000000000               0.000000000               0.000350555               0.001096495               0.000000000              -0.000005604               0.000367363               0.000361759               0.000000000               0.000000000               0.000000000               0.000000000               0.000378524               0.001191528               0.000000000              -0.000006995               0.000399504               0.000392509               0.000000000               0.000000000               0.000000000               0.000000000               0.000405081               0.001276735              -0.000000000              -0.000007687               0.000428136               0.000420450               0.000000000               0.000000000               0.000000000               0.000000000               0.000428021               0.001350517              -0.000000000              -0.000008307               0.000452937               0.000444630               0.000000000               0.000000000               0.000000000               0.000000000               0.000446755               0.001413024              -0.000000000              -0.000009095               0.000474035               0.000464940               0.000000000               0.000000000               0.000000000               0.000000000               0.000463831               0.001474115              -0.000000000              -0.000010328               0.000494809               0.000484481               0.000000000               0.000000000               0.000000000               0.000000000               0.000481433               0.001539395              -0.000000000              -0.000011887               0.000517089               0.000505202               0.000000000               0.000000000               0.000000000               0.000000000               0.000499481               0.001606202              -0.000000000              -0.000013470               0.000539885               0.000526416               0.000000000               0.000000000               0.000000000               0.000000000               0.000507852               0.001640022              -0.000000000              -0.000014558               0.000551521               0.000536963               0.000000000               0.000000000               0.000000000               0.000000000               0.000000000               0.000000000               0.000000000               0.000000000               0.000000000               0.000000000               0.000000000               0.000000000               0.000000000               0.000000000               0.000000000               0.000000000               0.000000000               0.000000000               0.000000000               0.000000000               0.000000000               0.000000000               0.000000000               0.000000000               0.000000000               0.000000000               0.000000000               0.000000000               0.000000000               0.000000000               0.000000000               0.000000000               0.000000000               0.000000000               0.000000000               0.000000000               0.000000000               0.000000000               0.000000000               0.000000000               0.000000000               0.000000000               0.000000000               0.000000000               0.000000000               0.000000000               0.000000000               0.000000000               0.000000000               0.000000000               0.000000000               0.000000000               0.000000000               0.000000000               0.000000000               0.000000000               0.000000000               0.000000000               0.000000000               0.000000000               0.000000000               0.000000000               0.000000000               0.000000000               0.000000000               0.000000000               0.000000000               0.000000000               0.000000000               0.000000000               0.000000000               0.000000000               0.000000000               0.000000000               0.000000000               0.000000000               0.000000000               0.000000000               0.000000000               0.000000000               0.000000000               0.000000000               0.000000000               0.000000000               0.000000000               0.000000000               0.000000000               0.000000000               0.000000000               0.000000000               0.000000000               0.000000000               0.000000000               0.000000000               0.000000000               0.000000000               0.000000000               0.000000000               0.000000000               0.000000000               0.000000000               0.000000000               0.000000000               0.000000000               0.000000000               0.000000000               0.000000000               0.000000000               0.000000000               0.000000000               0.000000000               0.000000000               0.000000000               0.000000000               0.000000000               0.000000000               0.000000000               0.000000000               0.000000000               0.000000000               0.000000000               0.000000000               0.000000000               0.000000000               0.000000000               0.000000000               0.000000000               0.000000000               0.000000000               0.000000000               0.000000000               0.000000000               0.000000000               0.000000000               0.000000000               0.000000000               0.000000000               0.000000000               0.000000000               0.000000000               0.000000000               0.000000000               0.000000000               0.000000000               0.000000000               0.000000000               0.000000000               0.000000000               0.000000000               0.000000000               0.000000000               0.000000000               0.000000000               0.000000000               0.000000000               0.000000000               0.000000000               0.000000000               0.000000000               0.000000000               0.000000000               0.000000000               0.000000000               0.000000000               0.000000000               0.000000000               0.000000000               0.000000000               0.000000000               0.000000000               0.000000000               0.000000000               0.000000000               0.000000000               0.000075743               0.000650761               0.000052110              -0.000052941               0.000234565               0.000181624               0.000000000               0.000000000               0.000000000               0.000000000               0.000096585               0.000557472               0.000035809              -0.000033465               0.000196977               0.000163513               0.000000000               0.000000000               0.000000000               0.000000000               0.000141704               0.000491300               0.000015593              -0.000008274               0.000166523               0.000158249               0.000000000               0.000000000               0.000000000               0.000000000               0.000155407               0.000468204               0.000003752              -0.000000248               0.000156149               0.000155901               0.000000000               0.000000000               0.000000000               0.000000000               0.000153252               0.000466998              -0.000002270              -0.000000905               0.000155966               0.000155061               0.000000000               0.000000000               0.000000000               0.000000000               0.000150013               0.000471363              -0.000000394              -0.000002666               0.000158008               0.000155343               0.000000000               0.000000000               0.000000000               0.000000000               0.000149232               0.000465999               0.000006653              -0.000002288               0.000156094               0.000153806               0.000000000               0.000000000               0.000000000               0.000000000               0.000147378               0.000452522               0.000008784              -0.000001299               0.000151272               0.000149973               0.000000000               0.000000000               0.000000000               0.000000000               0.000147198               0.000441001               0.000009871               0.000000074               0.000146974               0.000147048               0.000000000               0.000000000               0.000000000               0.000000000               0.000147840               0.000430059               0.000012134               0.000001683               0.000142791               0.000144473               0.000000000               0.000000000               0.000000000               0.000000000               0.000143955               0.000421247               0.000012310               0.000001327               0.000139972               0.000141299               0.000000000               0.000000000               0.000000000               0.000000000               0.000135360               0.000418000               0.000011716              -0.000001490               0.000139829               0.000138339               0.000000000               0.000000000               0.000000000               0.000000000               0.000121622               0.000421369               0.000010062              -0.000007063               0.000142809               0.000135746               0.000000000               0.000000000               0.000000000               0.000000000               0.000099730               0.000431117               0.000007247              -0.000016491               0.000149201               0.000132710               0.000000000               0.000000000               0.000000000               0.000000000               0.000071042               0.000447443               0.000004361              -0.000029289               0.000158909               0.000129620               0.000000000               0.000000000               0.000000000               0.000000000               0.000037261               0.000470098               0.000001829              -0.000044789               0.000171628               0.000126838               0.000000000               0.000000000               0.000000000               0.000000000               0.000022562               0.000491201               0.000001950              -0.000052939               0.000181378               0.000128439               0.000000000               0.000000000               0.000000000               0.000000000               0.000088955               0.000627214               0.000098083              -0.000045044               0.000224084               0.000179040               0.000000000               0.000000000               0.000000000               0.000000000               0.000102024               0.000538469               0.000066357              -0.000029050               0.000189171               0.000160121               0.000000000               0.000000000               0.000000000               0.000000000               0.000138779               0.000483683               0.000028003              -0.000008418               0.000164032               0.000155614               0.000000000               0.000000000               0.000000000               0.000000000               0.000150339               0.000467278               0.000005541              -0.000002033               0.000156435               0.000154403               0.000000000               0.000000000               0.000000000               0.000000000               0.000149453               0.000468602              -0.000004027              -0.000002530               0.000157043               0.000154512               0.000000000               0.000000000               0.000000000               0.000000000               0.000147244               0.000469842               0.000000639              -0.000003514               0.000157784               0.000154270               0.000000000               0.000000000               0.000000000               0.000000000               0.000149992               0.000465396               0.000012679              -0.000001928               0.000155773               0.000153845               0.000000000               0.000000000               0.000000000               0.000000000               0.000151543               0.000460521               0.000016300              -0.000000737               0.000153751               0.000153014               0.000000000               0.000000000               0.000000000               0.000000000               0.000150539               0.000459770               0.000017740              -0.000001019               0.000153595               0.000152576               0.000000000               0.000000000               0.000000000               0.000000000               0.000145040               0.000461615               0.000021903              -0.000003312               0.000154974               0.000151662               0.000000000               0.000000000               0.000000000               0.000000000               0.000132852               0.000467203               0.000023121              -0.000008581               0.000158593               0.000150012               0.000000000               0.000000000               0.000000000               0.000000000               0.000118104               0.000477427               0.000022741              -0.000015390               0.000164271               0.000148881               0.000000000               0.000000000               0.000000000               0.000000000               0.000102386               0.000492734               0.000020831              -0.000023197               0.000171975               0.000148779               0.000000000               0.000000000               0.000000000               0.000000000               0.000081915               0.000511715               0.000016968              -0.000033246               0.000181652               0.000148406               0.000000000               0.000000000               0.000000000               0.000000000               0.000057105               0.000534719               0.000012044              -0.000045425               0.000193380               0.000147954               0.000000000               0.000000000               0.000000000               0.000000000               0.000029605               0.000562892               0.000006275              -0.000059260               0.000207382               0.000148122               0.000000000               0.000000000               0.000000000               0.000000000               0.000019695               0.000587570               0.000005633              -0.000066061               0.000217875               0.000151814               0.000000000               0.000000000               0.000000000               0.000000000               0.000107747               0.000588009               0.000138154              -0.000033096               0.000207033               0.000173937               0.000000000               0.000000000               0.000000000               0.000000000               0.000111188               0.000512249               0.000090216              -0.000022336               0.000178193               0.000155858               0.000000000               0.000000000               0.000000000               0.000000000               0.000134757               0.000474168               0.000035007              -0.000008737               0.000160967               0.000152230               0.000000000               0.000000000               0.000000000               0.000000000               0.000139001               0.000470523               0.000007003              -0.000006690               0.000159069               0.000152379               0.000000000               0.000000000               0.000000000               0.000000000               0.000140185               0.000475634              -0.000003859              -0.000006885               0.000160838               0.000153953               0.000000000               0.000000000               0.000000000               0.000000000               0.000146218               0.000479985               0.000003259              -0.000005166               0.000161715               0.000156549               0.000000000               0.000000000               0.000000000               0.000000000               0.000156608               0.000481222               0.000018439              -0.000001425               0.000160881               0.000159456               0.000000000               0.000000000               0.000000000               0.000000000               0.000161964               0.000489888               0.000024073              -0.000000499               0.000163461               0.000162961               0.000000000               0.000000000               0.000000000               0.000000000               0.000156376               0.000502824               0.000027681              -0.000004212               0.000169010               0.000164798               0.000000000               0.000000000               0.000000000               0.000000000               0.000144727               0.000522702               0.000033256              -0.000011065               0.000177920               0.000166855               0.000000000               0.000000000               0.000000000               0.000000000               0.000126670               0.000548263               0.000035319              -0.000021032               0.000189763               0.000168732               0.000000000               0.000000000               0.000000000               0.000000000               0.000106000               0.000577953               0.000035616              -0.000032494               0.000203481               0.000170987               0.000000000               0.000000000               0.000000000               0.000000000               0.000087343               0.000611404               0.000033447              -0.000043672               0.000218357               0.000174685               0.000000000               0.000000000               0.000000000               0.000000000               0.000066669               0.000645751               0.000028640              -0.000055718               0.000233821               0.000178103               0.000000000               0.000000000               0.000000000               0.000000000               0.000043839               0.000680222               0.000021588              -0.000068588               0.000249601               0.000181013               0.000000000               0.000000000               0.000000000               0.000000000               0.000021968               0.000716002               0.000011952              -0.000081262               0.000265752               0.000184490               0.000000000               0.000000000               0.000000000               0.000000000               0.000016451               0.000743213               0.000009497              -0.000086732               0.000276646               0.000189914               0.000000000               0.000000000               0.000000000               0.000000000               0.000131529               0.000546357               0.000163121              -0.000018971               0.000188441               0.000169470               0.000000000               0.000000000               0.000000000               0.000000000               0.000119800               0.000485079               0.000104282              -0.000015710               0.000166928               0.000151218               0.000000000               0.000000000               0.000000000               0.000000000               0.000127877               0.000470237               0.000039839              -0.000010826               0.000160353               0.000149527               0.000000000               0.000000000               0.000000000               0.000000000               0.000127018               0.000483015               0.000009342              -0.000012745               0.000165252               0.000152507               0.000000000               0.000000000               0.000000000               0.000000000               0.000134085               0.000499809              -0.000000213              -0.000012194               0.000170666               0.000158472               0.000000000               0.000000000               0.000000000               0.000000000               0.000147394               0.000511007               0.000010326              -0.000008603               0.000173202               0.000164599               0.000000000               0.000000000               0.000000000               0.000000000               0.000162991               0.000527447               0.000027098              -0.000004809               0.000177417               0.000172608               0.000000000               0.000000000               0.000000000               0.000000000               0.000170643               0.000555083               0.000033509              -0.000005394               0.000186824               0.000181430               0.000000000               0.000000000               0.000000000               0.000000000               0.000165888               0.000588528               0.000037439              -0.000011358               0.000199960               0.000188602               0.000000000               0.000000000               0.000000000               0.000000000               0.000153215               0.000628964               0.000042279              -0.000021165               0.000216708               0.000195543               0.000000000               0.000000000               0.000000000               0.000000000               0.000131913               0.000671876               0.000043929              -0.000034517               0.000235462               0.000200945               0.000000000               0.000000000               0.000000000               0.000000000               0.000109465               0.000718468               0.000042943              -0.000048759               0.000255740               0.000206981               0.000000000               0.000000000               0.000000000               0.000000000               0.000089119               0.000766889               0.000039462              -0.000062441               0.000276441               0.000214000               0.000000000               0.000000000               0.000000000               0.000000000               0.000066017               0.000813493               0.000033430              -0.000076930               0.000296805               0.000219875               0.000000000               0.000000000               0.000000000               0.000000000               0.000041844               0.000857291               0.000024915              -0.000091470               0.000316251               0.000224781               0.000000000               0.000000000               0.000000000               0.000000000               0.000020332               0.000898165               0.000013503              -0.000104646               0.000334267               0.000229621               0.000000000               0.000000000               0.000000000               0.000000000               0.000015453               0.000926030               0.000010152              -0.000109959               0.000345326               0.000235368               0.000000000               0.000000000               0.000000000               0.000000000               0.000148875               0.000499567               0.000177865              -0.000006618               0.000168726               0.000162109               0.000000000               0.000000000               0.000000000               0.000000000               0.000121889               0.000457528               0.000112821              -0.000011483               0.000156335               0.000144852               0.000000000               0.000000000               0.000000000               0.000000000               0.000118804               0.000476082               0.000044606              -0.000014959               0.000163679               0.000148720               0.000000000               0.000000000               0.000000000               0.000000000               0.000118899               0.000507856               0.000014460              -0.000018895               0.000175582               0.000156687               0.000000000               0.000000000               0.000000000               0.000000000               0.000131502               0.000541568               0.000007976              -0.000018383               0.000186648               0.000168266               0.000000000               0.000000000               0.000000000               0.000000000               0.000155133               0.000574786               0.000018714              -0.000013673               0.000196151               0.000182478               0.000000000               0.000000000               0.000000000               0.000000000               0.000179104               0.000615430               0.000033892              -0.000009765               0.000208396               0.000198631               0.000000000               0.000000000               0.000000000               0.000000000               0.000184917               0.000662087               0.000039769              -0.000013417               0.000225166               0.000211749               0.000000000               0.000000000               0.000000000               0.000000000               0.000176409               0.000714403               0.000043199              -0.000023147               0.000245848               0.000222701               0.000000000               0.000000000               0.000000000               0.000000000               0.000159912               0.000768200               0.000047863              -0.000036058               0.000268084               0.000232025               0.000000000               0.000000000               0.000000000               0.000000000               0.000137862               0.000822746               0.000049026              -0.000051145               0.000291294               0.000240149               0.000000000               0.000000000               0.000000000               0.000000000               0.000116755               0.000877721               0.000046002              -0.000065932               0.000314548               0.000248616               0.000000000               0.000000000               0.000000000               0.000000000               0.000095986               0.000931795               0.000040679              -0.000080479               0.000337422               0.000256942               0.000000000               0.000000000               0.000000000               0.000000000               0.000071289               0.000981552               0.000033064              -0.000095960               0.000359168               0.000263207               0.000000000               0.000000000               0.000000000               0.000000000               0.000045965               0.001026948               0.000023619              -0.000111132               0.000379356               0.000268225               0.000000000               0.000000000               0.000000000               0.000000000               0.000023004               0.001067793               0.000012316              -0.000124847               0.000397543               0.000272696               0.000000000               0.000000000               0.000000000               0.000000000               0.000017075               0.001094806               0.000009161              -0.000130447               0.000408414               0.000277967               0.000000000               0.000000000               0.000000000               0.000000000               0.000161969               0.000446377               0.000185279               0.000004941               0.000147144               0.000152085               0.000000000               0.000000000               0.000000000               0.000000000               0.000123403               0.000435068               0.000117528              -0.000008107               0.000147724               0.000139616               0.000000000               0.000000000               0.000000000               0.000000000               0.000111502               0.000493529               0.000051459              -0.000019878               0.000171134               0.000151256               0.000000000               0.000000000               0.000000000               0.000000000               0.000116732               0.000552395               0.000024767              -0.000025275               0.000192555               0.000167280               0.000000000               0.000000000               0.000000000               0.000000000               0.000142815               0.000609304               0.000016369              -0.000022607               0.000210635               0.000188028               0.000000000               0.000000000               0.000000000               0.000000000               0.000176868               0.000664168               0.000026425              -0.000016695               0.000226952               0.000210257               0.000000000               0.000000000               0.000000000               0.000000000               0.000201000               0.000719156               0.000041618              -0.000014520               0.000244556               0.000230037               0.000000000               0.000000000               0.000000000               0.000000000               0.000203667               0.000782002               0.000046996              -0.000021375               0.000267790               0.000246415               0.000000000               0.000000000               0.000000000               0.000000000               0.000189439               0.000846367               0.000050117              -0.000034756               0.000293705               0.000258949               0.000000000               0.000000000               0.000000000               0.000000000               0.000167258               0.000906449               0.000053183              -0.000050584               0.000319008               0.000268424               0.000000000               0.000000000               0.000000000               0.000000000               0.000142464               0.000966511               0.000051419              -0.000067390               0.000344630               0.000277241               0.000000000               0.000000000               0.000000000               0.000000000               0.000120788               0.001026299               0.000045694              -0.000082992               0.000369760               0.000286769               0.000000000               0.000000000               0.000000000               0.000000000               0.000097952               0.001082429               0.000038004              -0.000098571               0.000393663               0.000295092               0.000000000               0.000000000               0.000000000               0.000000000               0.000071464               0.001133673               0.000029572              -0.000114910               0.000416190               0.000301281               0.000000000               0.000000000               0.000000000               0.000000000               0.000046181               0.001180650               0.000019987              -0.000130263               0.000436967               0.000306704               0.000000000               0.000000000               0.000000000               0.000000000               0.000023410               0.001223623               0.000010037              -0.000144174               0.000455928               0.000311754               0.000000000               0.000000000               0.000000000               0.000000000               0.000017506               0.001252610               0.000008318              -0.000150011               0.000467536               0.000317525               0.000000000               0.000000000               0.000000000               0.000000000               0.000171739               0.000395204               0.000181720               0.000015001               0.000126733               0.000141734               0.000000000               0.000000000               0.000000000               0.000000000               0.000125731               0.000423230               0.000121038              -0.000005755               0.000142993               0.000137239               0.000000000               0.000000000               0.000000000               0.000000000               0.000113294               0.000524328               0.000061537              -0.000023056               0.000182459               0.000159404               0.000000000               0.000000000               0.000000000               0.000000000               0.000128776               0.000611587               0.000036349              -0.000028157               0.000213246               0.000185089               0.000000000               0.000000000               0.000000000               0.000000000               0.000164535               0.000688199               0.000028977              -0.000024324               0.000237506               0.000213181               0.000000000               0.000000000               0.000000000               0.000000000               0.000203488               0.000752540               0.000037358              -0.000017760               0.000256764               0.000239005               0.000000000               0.000000000               0.000000000               0.000000000               0.000224516               0.000818807               0.000047934              -0.000018157               0.000278985               0.000260828               0.000000000               0.000000000               0.000000000               0.000000000               0.000219911               0.000892189               0.000050190              -0.000029057               0.000307079               0.000278022               0.000000000               0.000000000               0.000000000               0.000000000               0.000198488               0.000960784               0.000052254              -0.000045665               0.000335480               0.000289815               0.000000000               0.000000000               0.000000000               0.000000000               0.000173242               0.001026596               0.000053493              -0.000063358               0.000363315               0.000299956               0.000000000               0.000000000               0.000000000               0.000000000               0.000147782               0.001093172               0.000047147              -0.000081228               0.000391463               0.000310235               0.000000000               0.000000000               0.000000000               0.000000000               0.000123214               0.001160020               0.000039118              -0.000098797               0.000419602               0.000320805               0.000000000               0.000000000               0.000000000               0.000000000               0.000096456               0.001222906               0.000030918              -0.000116692               0.000446528               0.000329837               0.000000000               0.000000000               0.000000000               0.000000000               0.000069707               0.001283140               0.000022088              -0.000134252               0.000472460               0.000338208               0.000000000               0.000000000               0.000000000               0.000000000               0.000045202               0.001341627               0.000014083              -0.000150752               0.000497455               0.000346703               0.000000000               0.000000000               0.000000000               0.000000000               0.000022857               0.001395761               0.000006904              -0.000165898               0.000520548               0.000354650               0.000000000               0.000000000               0.000000000               0.000000000               0.000016558               0.001430754               0.000006637              -0.000172635               0.000534458               0.000361823               0.000000000               0.000000000               0.000000000               0.000000000               0.000178223               0.000354718               0.000171730               0.000022493               0.000110740               0.000133234               0.000000000               0.000000000               0.000000000               0.000000000               0.000131913               0.000418603               0.000124998              -0.000002858               0.000140486               0.000137627               0.000000000               0.000000000               0.000000000               0.000000000               0.000119069               0.000555032               0.000075080              -0.000024728               0.000193251               0.000168523               0.000000000               0.000000000               0.000000000               0.000000000               0.000143153               0.000661503               0.000049778              -0.000029006               0.000230167               0.000201162               0.000000000               0.000000000               0.000000000               0.000000000               0.000184338               0.000749619               0.000040688              -0.000024576               0.000258062               0.000233487               0.000000000               0.000000000               0.000000000               0.000000000               0.000222817               0.000817725               0.000040752              -0.000018659               0.000278792               0.000260133               0.000000000               0.000000000               0.000000000               0.000000000               0.000239955               0.000890044               0.000043953              -0.000021273               0.000303769               0.000282497               0.000000000               0.000000000               0.000000000               0.000000000               0.000227207               0.000967412               0.000045842              -0.000035724               0.000334375               0.000298652               0.000000000               0.000000000               0.000000000               0.000000000               0.000203928               0.001040017               0.000048295              -0.000053529               0.000364512               0.000310983               0.000000000               0.000000000               0.000000000               0.000000000               0.000181747               0.001113446               0.000047180              -0.000071025               0.000394820               0.000323795               0.000000000               0.000000000               0.000000000               0.000000000               0.000160469               0.001190655               0.000039731              -0.000088656               0.000426433               0.000337777               0.000000000               0.000000000               0.000000000               0.000000000               0.000137849               0.001266647               0.000031483              -0.000106637               0.000457757               0.000351120               0.000000000               0.000000000               0.000000000               0.000000000               0.000113038               0.001339604               0.000023796              -0.000125061               0.000488217               0.000363156               0.000000000               0.000000000               0.000000000               0.000000000               0.000089016               0.001411200               0.000014597              -0.000143019               0.000518068               0.000375049               0.000000000               0.000000000               0.000000000               0.000000000               0.000066662               0.001481355               0.000006882              -0.000160171               0.000547170               0.000387000               0.000000000               0.000000000               0.000000000               0.000000000               0.000046986               0.001545962               0.000001778              -0.000175625               0.000573857               0.000398232               0.000000000               0.000000000               0.000000000               0.000000000               0.000037847               0.001581464               0.000000653              -0.000183490               0.000588313               0.000404823               0.000000000               0.000000000               0.000000000               0.000000000               0.000180131               0.000311832               0.000161535               0.000028570               0.000094420               0.000122989               0.000000000               0.000000000               0.000000000               0.000000000               0.000141299               0.000395494               0.000131095               0.000003550               0.000130647               0.000134197               0.000000000               0.000000000               0.000000000               0.000000000               0.000129798               0.000551779               0.000094433              -0.000020298               0.000190690               0.000170392               0.000000000               0.000000000               0.000000000               0.000000000               0.000151637               0.000676675               0.000069008              -0.000027720               0.000234796               0.000207076               0.000000000               0.000000000               0.000000000               0.000000000               0.000186139               0.000774389               0.000052813              -0.000026997               0.000267126               0.000240130               0.000000000               0.000000000               0.000000000               0.000000000               0.000221687               0.000845726               0.000043228              -0.000022583               0.000289433               0.000266850               0.000000000               0.000000000               0.000000000               0.000000000               0.000246419               0.000916356               0.000038390              -0.000022138               0.000312828               0.000290691               0.000000000               0.000000000               0.000000000               0.000000000               0.000246389               0.000994074               0.000040157              -0.000031863               0.000341976               0.000310112               0.000000000               0.000000000               0.000000000               0.000000000               0.000230837               0.001070957               0.000045038              -0.000047306               0.000372750               0.000325445               0.000000000               0.000000000               0.000000000               0.000000000               0.000212785               0.001145555               0.000045243              -0.000063400               0.000402981               0.000339581               0.000000000               0.000000000               0.000000000               0.000000000               0.000195247               0.001222139               0.000041948              -0.000079549               0.000433892               0.000354343               0.000000000               0.000000000               0.000000000               0.000000000               0.000179157               0.001302706               0.000035958              -0.000095654               0.000466116               0.000370462               0.000000000               0.000000000               0.000000000               0.000000000               0.000159927               0.001380023               0.000027742              -0.000112530               0.000497513               0.000384983               0.000000000               0.000000000               0.000000000               0.000000000               0.000138721               0.001454856               0.000019266              -0.000129836               0.000528226               0.000398390               0.000000000               0.000000000               0.000000000               0.000000000               0.000118559               0.001530118               0.000010544              -0.000146805               0.000558969               0.000412164               0.000000000               0.000000000               0.000000000               0.000000000               0.000100855               0.001606534               0.000003505              -0.000162996               0.000589838               0.000426842               0.000000000               0.000000000               0.000000000               0.000000000               0.000086871               0.001642535              -0.000001568              -0.000172740               0.000605086               0.000432346               0.000000000               0.000000000               0.000000000               0.000000000               0.000178630               0.000261618               0.000147741               0.000034284               0.000075777               0.000110061               0.000000000               0.000000000               0.000000000               0.000000000               0.000151588               0.000358816               0.000134713               0.000011993               0.000115606               0.000127599               0.000000000               0.000000000               0.000000000               0.000000000               0.000143467               0.000531184               0.000110635              -0.000012598               0.000181259               0.000168661               0.000000000               0.000000000               0.000000000               0.000000000               0.000158202               0.000667516               0.000084296              -0.000024114               0.000230541               0.000206427               0.000000000               0.000000000               0.000000000               0.000000000               0.000182170               0.000768275               0.000063011              -0.000027721               0.000265330               0.000237609               0.000000000               0.000000000               0.000000000               0.000000000               0.000214513               0.000847449               0.000046390              -0.000025489               0.000290976               0.000265488               0.000000000               0.000000000               0.000000000               0.000000000               0.000248358               0.000924140               0.000035249              -0.000022383               0.000315505               0.000293121               0.000000000               0.000000000               0.000000000               0.000000000               0.000267736               0.001005948               0.000034494              -0.000025342               0.000343760               0.000318418               0.000000000               0.000000000               0.000000000               0.000000000               0.000265812               0.001086345               0.000039553              -0.000036113               0.000374149               0.000338036               0.000000000               0.000000000               0.000000000               0.000000000               0.000255606               0.001162191               0.000043001              -0.000049422               0.000403867               0.000354445               0.000000000               0.000000000               0.000000000               0.000000000               0.000242909               0.001234062               0.000043582              -0.000063167               0.000432406               0.000369239               0.000000000               0.000000000               0.000000000               0.000000000               0.000229645               0.001309421               0.000040144              -0.000077560               0.000462323               0.000384762               0.000000000               0.000000000               0.000000000               0.000000000               0.000216537               0.001386472               0.000032163              -0.000092107               0.000492855               0.000400748               0.000000000               0.000000000               0.000000000               0.000000000               0.000200639               0.001460944               0.000023755              -0.000107378               0.000522769               0.000415391               0.000000000               0.000000000               0.000000000               0.000000000               0.000182611               0.001532964               0.000014835              -0.000123141               0.000552030               0.000428889               0.000000000               0.000000000               0.000000000               0.000000000               0.000164997               0.001607286               0.000006032              -0.000139036               0.000582102               0.000443066               0.000000000               0.000000000               0.000000000               0.000000000               0.000147284               0.001638016              -0.000001966              -0.000149520               0.000595840               0.000446320               0.000000000               0.000000000               0.000000000               0.000000000               0.000169410               0.000209992               0.000127164               0.000037279               0.000057570               0.000094850               0.000000000               0.000000000               0.000000000               0.000000000               0.000159774               0.000318600               0.000129692               0.000020090               0.000099502               0.000119592               0.000000000               0.000000000               0.000000000               0.000000000               0.000157527               0.000498405               0.000118265              -0.000003228               0.000167209               0.000163981               0.000000000               0.000000000               0.000000000               0.000000000               0.000170550               0.000636117               0.000094683              -0.000015558               0.000217223               0.000201664               0.000000000               0.000000000               0.000000000               0.000000000               0.000188618               0.000745106               0.000072590              -0.000022406               0.000255835               0.000233429               0.000000000               0.000000000               0.000000000               0.000000000               0.000216652               0.000841430               0.000053675              -0.000023934               0.000288452               0.000264518               0.000000000               0.000000000               0.000000000               0.000000000               0.000253590               0.000932599               0.000039403              -0.000021479               0.000318023               0.000296544               0.000000000               0.000000000               0.000000000               0.000000000               0.000284123               0.001019449               0.000032544              -0.000020885               0.000346775               0.000325890               0.000000000               0.000000000               0.000000000               0.000000000               0.000295867               0.001101917               0.000033110              -0.000026789               0.000376232               0.000349442               0.000000000               0.000000000               0.000000000               0.000000000               0.000294270               0.001178256               0.000036239              -0.000036931               0.000405058               0.000368128               0.000000000               0.000000000               0.000000000               0.000000000               0.000286895               0.001246677               0.000038368              -0.000048249               0.000431638               0.000383389               0.000000000               0.000000000               0.000000000               0.000000000               0.000276529               0.001314305               0.000037824              -0.000060589               0.000458294               0.000397704               0.000000000               0.000000000               0.000000000               0.000000000               0.000268382               0.001387498               0.000033479              -0.000072794               0.000486759               0.000413965               0.000000000               0.000000000               0.000000000               0.000000000               0.000260761               0.001463653               0.000026334              -0.000085171               0.000516270               0.000431099               0.000000000               0.000000000               0.000000000               0.000000000               0.000249146               0.001535660               0.000018251              -0.000098527               0.000544724               0.000446197               0.000000000               0.000000000               0.000000000               0.000000000               0.000234362               0.001605060               0.000009715              -0.000112747               0.000572597               0.000459850               0.000000000               0.000000000               0.000000000               0.000000000               0.000217132               0.001632952               0.000001895              -0.000122694               0.000585210               0.000462516               0.000000000               0.000000000               0.000000000               0.000000000               0.000148792               0.000163602               0.000101243               0.000035346               0.000042751               0.000078098               0.000000000               0.000000000               0.000000000               0.000000000               0.000163056               0.000275065               0.000115368               0.000026762               0.000082766               0.000109529               0.000000000               0.000000000               0.000000000               0.000000000               0.000174317               0.000449864               0.000115882               0.000009136               0.000146908               0.000156044               0.000000000               0.000000000               0.000000000               0.000000000               0.000188327               0.000591949               0.000097837              -0.000003371               0.000198438               0.000195067               0.000000000               0.000000000               0.000000000               0.000000000               0.000204721               0.000717621               0.000078515              -0.000012932               0.000243515               0.000230583               0.000000000               0.000000000               0.000000000               0.000000000               0.000230700               0.000832697               0.000060819              -0.000017574               0.000283421               0.000265846               0.000000000               0.000000000               0.000000000               0.000000000               0.000263042               0.000934130               0.000044900              -0.000018125               0.000317415               0.000299290               0.000000000               0.000000000               0.000000000               0.000000000               0.000294427               0.001023484               0.000031820              -0.000017525               0.000347000               0.000329474               0.000000000               0.000000000               0.000000000               0.000000000               0.000314878               0.001107079               0.000026011              -0.000020305               0.000375791               0.000355486               0.000000000               0.000000000               0.000000000               0.000000000               0.000324167               0.001186288               0.000026655              -0.000026723               0.000404333               0.000377610               0.000000000               0.000000000               0.000000000               0.000000000               0.000326411               0.001257720               0.000028636              -0.000034811               0.000430839               0.000396029               0.000000000               0.000000000               0.000000000               0.000000000               0.000323940               0.001323494               0.000030237              -0.000043959               0.000455813               0.000411854               0.000000000               0.000000000               0.000000000               0.000000000               0.000321117               0.001392870               0.000030142              -0.000053690               0.000482182               0.000428492               0.000000000               0.000000000               0.000000000               0.000000000               0.000319705               0.001465815               0.000025627              -0.000063337               0.000509713               0.000446375               0.000000000               0.000000000               0.000000000               0.000000000               0.000317422               0.001539447               0.000018595              -0.000073397               0.000537610               0.000464212               0.000000000               0.000000000               0.000000000               0.000000000               0.000312573               0.001611831               0.000010842              -0.000084264               0.000565359               0.000481096               0.000000000               0.000000000               0.000000000               0.000000000               0.000302046               0.001642606               0.000004511              -0.000092058               0.000578216               0.000486158               0.000000000               0.000000000               0.000000000               0.000000000               0.000124096               0.000123690               0.000072481               0.000031074               0.000030871               0.000061946               0.000000000               0.000000000               0.000000000               0.000000000               0.000161831               0.000229896               0.000092579               0.000031949               0.000065981               0.000097931               0.000000000               0.000000000               0.000000000               0.000000000               0.000191078               0.000398840               0.000101352               0.000021799               0.000125679               0.000147478               0.000000000               0.000000000               0.000000000               0.000000000               0.000210046               0.000549373               0.000090307               0.000010095               0.000179757               0.000189853               0.000000000               0.000000000               0.000000000               0.000000000               0.000228514               0.000685894               0.000076662              -0.000000044               0.000228644               0.000228600               0.000000000               0.000000000               0.000000000               0.000000000               0.000250277               0.000810320               0.000061803              -0.000007436               0.000272583               0.000265146               0.000000000               0.000000000               0.000000000               0.000000000               0.000275190               0.000919021               0.000045071              -0.000011682               0.000310231               0.000298550               0.000000000               0.000000000               0.000000000               0.000000000               0.000302973               0.001015535               0.000029205              -0.000013327               0.000342951               0.000329624               0.000000000               0.000000000               0.000000000               0.000000000               0.000329492               0.001106638               0.000019454              -0.000014770               0.000373799               0.000359029               0.000000000               0.000000000               0.000000000               0.000000000               0.000348424               0.001191900               0.000017849              -0.000018328               0.000403405               0.000385077               0.000000000               0.000000000               0.000000000               0.000000000               0.000360367               0.001269057               0.000018823              -0.000023494               0.000430846               0.000407352               0.000000000               0.000000000               0.000000000               0.000000000               0.000367303               0.001337700               0.000020248              -0.000029474               0.000455720               0.000426246               0.000000000               0.000000000               0.000000000               0.000000000               0.000370506               0.001401469               0.000021519              -0.000036244               0.000479233               0.000442989               0.000000000               0.000000000               0.000000000               0.000000000               0.000374278               0.001467802               0.000019703              -0.000043121               0.000503636               0.000460515               0.000000000               0.000000000               0.000000000               0.000000000               0.000381566               0.001541500               0.000015332              -0.000049600               0.000530361               0.000480761               0.000000000               0.000000000               0.000000000               0.000000000               0.000389150               0.001616411               0.000008467              -0.000056120               0.000557505               0.000501385               0.000000000               0.000000000               0.000000000               0.000000000               0.000388596               0.001650554               0.000003089              -0.000060596               0.000570378               0.000509782               0.000000000               0.000000000               0.000000000               0.000000000               0.000100899               0.000095232               0.000045897               0.000025933               0.000023099               0.000049032               0.000000000               0.000000000               0.000000000               0.000000000               0.000157963               0.000193773               0.000064348               0.000035014               0.000052919               0.000087933               0.000000000               0.000000000               0.000000000               0.000000000               0.000205205               0.000356346               0.000075321               0.000032408               0.000107978               0.000140386               0.000000000               0.000000000               0.000000000               0.000000000               0.000233161               0.000509483               0.000070584               0.000023750               0.000161910               0.000185659               0.000000000               0.000000000               0.000000000               0.000000000               0.000253113               0.000651368               0.000061423               0.000013496               0.000212622               0.000226118               0.000000000               0.000000000               0.000000000               0.000000000               0.000269560               0.000781540               0.000050090               0.000003392               0.000259380               0.000262772               0.000000000               0.000000000               0.000000000               0.000000000               0.000288795               0.000897758               0.000037115              -0.000003922               0.000300557               0.000296635               0.000000000               0.000000000               0.000000000               0.000000000               0.000313132               0.001004835               0.000024592              -0.000008180               0.000337668               0.000329488               0.000000000               0.000000000               0.000000000               0.000000000               0.000340882               0.001104095               0.000014986              -0.000010181               0.000371422               0.000361241               0.000000000               0.000000000               0.000000000               0.000000000               0.000365590               0.001194197               0.000010752              -0.000012178               0.000402121               0.000389943               0.000000000               0.000000000               0.000000000               0.000000000               0.000384963               0.001275222               0.000009921              -0.000015042               0.000430084               0.000415042               0.000000000               0.000000000               0.000000000               0.000000000               0.000400116               0.001347176               0.000009994              -0.000018353               0.000455172               0.000436818               0.000000000               0.000000000               0.000000000               0.000000000               0.000410516               0.001408239               0.000010762              -0.000022086               0.000476771               0.000454684               0.000000000               0.000000000               0.000000000               0.000000000               0.000421092               0.001470942               0.000010834              -0.000025958               0.000498962               0.000473004               0.000000000               0.000000000               0.000000000               0.000000000               0.000435307               0.001542360               0.000009053              -0.000029555               0.000523966               0.000494412               0.000000000               0.000000000               0.000000000               0.000000000               0.000450699               0.001613546               0.000004638              -0.000032681               0.000548737               0.000516056               0.000000000               0.000000000               0.000000000               0.000000000               0.000457591               0.001647569               0.000001132              -0.000034349               0.000560634               0.000526285               0.000000000               0.000000000               0.000000000               0.000000000               0.000083450               0.000077850               0.000022416               0.000021562               0.000018762               0.000040324               0.000000000               0.000000000               0.000000000               0.000000000               0.000155792               0.000169788               0.000033161               0.000037198               0.000044196               0.000081394               0.000000000               0.000000000               0.000000000               0.000000000               0.000217097               0.000326895               0.000040323               0.000040549               0.000095448               0.000135997               0.000000000               0.000000000               0.000000000               0.000000000               0.000249497               0.000480438               0.000038752               0.000033506               0.000148976               0.000182482               0.000000000               0.000000000               0.000000000               0.000000000               0.000269266               0.000624115               0.000033814               0.000022960               0.000200383               0.000223343               0.000000000               0.000000000               0.000000000               0.000000000               0.000284716               0.000757925               0.000028050               0.000012028               0.000248630               0.000260658               0.000000000               0.000000000               0.000000000               0.000000000               0.000301573               0.000881934               0.000021382               0.000002848               0.000293026               0.000295874               0.000000000               0.000000000               0.000000000               0.000000000               0.000322980               0.000997134               0.000014141              -0.000003524               0.000333549               0.000330025               0.000000000               0.000000000               0.000000000               0.000000000               0.000347922               0.001099119               0.000008005              -0.000006919               0.000368676               0.000361757               0.000000000               0.000000000               0.000000000               0.000000000               0.000374717               0.001191765               0.000004735              -0.000008452               0.000400068               0.000391617               0.000000000               0.000000000               0.000000000               0.000000000               0.000399665               0.001276168               0.000003756              -0.000009647               0.000428601               0.000418954               0.000000000               0.000000000               0.000000000               0.000000000               0.000420871               0.001350264               0.000003293              -0.000010956               0.000453735               0.000442779               0.000000000               0.000000000               0.000000000               0.000000000               0.000437397               0.001412163               0.000003363              -0.000012497               0.000474882               0.000462385               0.000000000               0.000000000               0.000000000               0.000000000               0.000452948               0.001473664               0.000003693              -0.000014352               0.000496000               0.000481648               0.000000000               0.000000000               0.000000000               0.000000000               0.000469962               0.001540791               0.000002919              -0.000016363               0.000519046               0.000502683               0.000000000               0.000000000               0.000000000               0.000000000               0.000487684               0.001608302               0.000001176              -0.000018156               0.000542147               0.000523991               0.000000000               0.000000000               0.000000000               0.000000000               0.000496466               0.001642037              -0.000000022              -0.000019080               0.000553700               0.000534620               0.000000000               0.000000000               0.000000000               0.000000000               0.000077026               0.000071344               0.000000000               0.000019967               0.000017125               0.000037092               0.000000000               0.000000000               0.000000000               0.000000000               0.000155952               0.000160937               0.000000000               0.000038365               0.000040857               0.000079222               0.000000000               0.000000000               0.000000000               0.000000000               0.000222480               0.000316543               0.000000000               0.000043862               0.000090893               0.000134754               0.000000000               0.000000000               0.000000000               0.000000000               0.000254645               0.000469954               0.000000000               0.000036747               0.000144400               0.000181148               0.000000000               0.000000000               0.000000000               0.000000000               0.000275151               0.000614146              -0.000000000               0.000026413               0.000195909               0.000222322               0.000000000               0.000000000               0.000000000               0.000000000               0.000291211               0.000749627              -0.000000000               0.000015501               0.000244706               0.000260207               0.000000000               0.000000000               0.000000000               0.000000000               0.000306022               0.000875455              -0.000000000               0.000005327               0.000290040               0.000295366               0.000000000               0.000000000               0.000000000               0.000000000               0.000325750               0.000992463              -0.000000000              -0.000001902               0.000331452               0.000329550               0.000000000               0.000000000               0.000000000               0.000000000               0.000350555               0.001096495              -0.000000000              -0.000005604               0.000367363               0.000361759               0.000000000               0.000000000               0.000000000               0.000000000               0.000378524               0.001191528              -0.000000000              -0.000006995               0.000399504               0.000392509               0.000000000               0.000000000               0.000000000               0.000000000               0.000405081               0.001276735               0.000000000              -0.000007687               0.000428136               0.000420450               0.000000000               0.000000000               0.000000000               0.000000000               0.000428021               0.001350517              -0.000000000              -0.000008307               0.000452937               0.000444630               0.000000000               0.000000000               0.000000000               0.000000000               0.000446755               0.001413024               0.000000000              -0.000009095               0.000474035               0.000464940               0.000000000               0.000000000               0.000000000               0.000000000               0.000463831               0.001474115               0.000000000              -0.000010328               0.000494809               0.000484481               0.000000000               0.000000000               0.000000000               0.000000000               0.000481433               0.001539395              -0.000000000              -0.000011887               0.000517089               0.000505202               0.000000000               0.000000000               0.000000000               0.000000000               0.000499481               0.001606202               0.000000000              -0.000013470               0.000539885               0.000526416               0.000000000               0.000000000               0.000000000               0.000000000               0.000507852               0.001640022               0.000000000              -0.000014558               0.000551521               0.000536963               0.000000000               0.000000000               0.000000000               0.000000000               0.000068079               0.000656458               0.000000000              -0.000056527               0.000237660               0.000181132               0.000000000               0.000000000               0.000000000               0.000000000               0.000092472               0.000563583              -0.000000000              -0.000035771               0.000199783               0.000164012               0.000000000               0.000000000               0.000000000               0.000000000               0.000141116               0.000492613               0.000000000              -0.000008658               0.000167089               0.000158431               0.000000000               0.000000000               0.000000000               0.000000000               0.000157489               0.000469034               0.000000000               0.000000429               0.000156200               0.000156629               0.000000000               0.000000000               0.000000000               0.000000000               0.000155674               0.000465880               0.000000000               0.000000143               0.000155244               0.000155387               0.000000000               0.000000000               0.000000000               0.000000000               0.000150085               0.000472813              -0.000000000              -0.000002820               0.000158543               0.000155723               0.000000000               0.000000000               0.000000000               0.000000000               0.000145110               0.000467554              -0.000000000              -0.000004028               0.000157193               0.000153165               0.000000000               0.000000000               0.000000000               0.000000000               0.000145255               0.000451989              -0.000000000              -0.000002028               0.000151338               0.000149309               0.000000000               0.000000000               0.000000000               0.000000000               0.000149522               0.000437416              -0.000000000               0.000001394               0.000145339               0.000146733               0.000000000               0.000000000               0.000000000               0.000000000               0.000152369               0.000421159               0.000000000               0.000004494               0.000138887               0.000143380               0.000000000               0.000000000               0.000000000               0.000000000               0.000151183               0.000407086               0.000000000               0.000005808               0.000133758               0.000139566               0.000000000               0.000000000               0.000000000               0.000000000               0.000144661               0.000399081               0.000000000               0.000004363               0.000131571               0.000135934               0.000000000               0.000000000               0.000000000               0.000000000               0.000130154               0.000397966               0.000000000              -0.000000938               0.000132967               0.000132029               0.000000000               0.000000000               0.000000000               0.000000000               0.000106753               0.000404750              -0.000000000              -0.000010562               0.000138436               0.000127874               0.000000000               0.000000000               0.000000000               0.000000000               0.000076347               0.000419275              -0.000000000              -0.000023779               0.000147683               0.000123904               0.000000000               0.000000000               0.000000000               0.000000000               0.000039890               0.000439954              -0.000000000              -0.000040035               0.000159995               0.000119960               0.000000000               0.000000000               0.000000000               0.000000000               0.000023179               0.000459247              -0.000000000              -0.000048714               0.000169319               0.000120605               0.000000000               0.000000000               0.000000000               0.000000000               0.000075743               0.000650761              -0.000052110              -0.000052941               0.000234565               0.000181624               0.000000000               0.000000000               0.000000000               0.000000000               0.000096585               0.000557472              -0.000035809              -0.000033465               0.000196977               0.000163513               0.000000000               0.000000000               0.000000000               0.000000000               0.000141704               0.000491300              -0.000015593              -0.000008274               0.000166523               0.000158249               0.000000000               0.000000000               0.000000000               0.000000000               0.000155407               0.000468204              -0.000003752              -0.000000248               0.000156149               0.000155901               0.000000000               0.000000000               0.000000000               0.000000000               0.000153252               0.000466998               0.000002270              -0.000000905               0.000155966               0.000155061               0.000000000               0.000000000               0.000000000               0.000000000               0.000150013               0.000471363               0.000000394              -0.000002666               0.000158008               0.000155343               0.000000000               0.000000000               0.000000000               0.000000000               0.000149232               0.000465999              -0.000006653              -0.000002288               0.000156094               0.000153806               0.000000000               0.000000000               0.000000000               0.000000000               0.000147378               0.000452522              -0.000008784              -0.000001299               0.000151272               0.000149973               0.000000000               0.000000000               0.000000000               0.000000000               0.000147198               0.000441001              -0.000009871               0.000000074               0.000146974               0.000147048               0.000000000               0.000000000               0.000000000               0.000000000               0.000147840               0.000430059              -0.000012134               0.000001683               0.000142791               0.000144473               0.000000000               0.000000000               0.000000000               0.000000000               0.000143955               0.000421247              -0.000012310               0.000001327               0.000139972               0.000141299               0.000000000               0.000000000               0.000000000               0.000000000               0.000135360               0.000418000              -0.000011716              -0.000001490               0.000139829               0.000138339               0.000000000               0.000000000               0.000000000               0.000000000               0.000121622               0.000421369              -0.000010062              -0.000007063               0.000142809               0.000135746               0.000000000               0.000000000               0.000000000               0.000000000               0.000099730               0.000431117              -0.000007247              -0.000016491               0.000149201               0.000132710               0.000000000               0.000000000               0.000000000               0.000000000               0.000071042               0.000447443              -0.000004361              -0.000029289               0.000158909               0.000129620               0.000000000               0.000000000               0.000000000               0.000000000               0.000037261               0.000470098              -0.000001829              -0.000044789               0.000171628               0.000126838               0.000000000               0.000000000               0.000000000               0.000000000               0.000022562               0.000491201              -0.000001950              -0.000052939               0.000181378               0.000128439               0.000000000               0.000000000               0.000000000               0.000000000               0.000088955               0.000627214              -0.000098083              -0.000045044               0.000224084               0.000179040               0.000000000               0.000000000               0.000000000               0.000000000               0.000102024               0.000538469              -0.000066357              -0.000029050               0.000189171               0.000160121               0.000000000               0.000000000               0.000000000               0.000000000               0.000138779               0.000483683              -0.000028003              -0.000008418               0.000164032               0.000155614               0.000000000               0.000000000               0.000000000               0.000000000               0.000150339               0.000467278              -0.000005541              -0.000002033               0.000156435               0.000154403               0.000000000               0.000000000               0.000000000               0.000000000               0.000149453               0.000468602               0.000004027              -0.000002530               0.000157043               0.000154512               0.000000000               0.000000000               0.000000000               0.000000000               0.000147244               0.000469842              -0.000000639              -0.000003514               0.000157784               0.000154270               0.000000000               0.000000000               0.000000000               0.000000000               0.000149992               0.000465396              -0.000012679              -0.000001928               0.000155773               0.000153845               0.000000000               0.000000000               0.000000000               0.000000000               0.000151543               0.000460521              -0.000016300              -0.000000737               0.000153751               0.000153014               0.000000000               0.000000000               0.000000000               0.000000000               0.000150539               0.000459770              -0.000017740              -0.000001019               0.000153595               0.000152576               0.000000000               0.000000000               0.000000000               0.000000000               0.000145040               0.000461615              -0.000021903              -0.000003312               0.000154974               0.000151662               0.000000000               0.000000000               0.000000000               0.000000000               0.000132852               0.000467203              -0.000023121              -0.000008581               0.000158593               0.000150012               0.000000000               0.000000000               0.000000000               0.000000000               0.000118104               0.000477427              -0.000022741              -0.000015390               0.000164271               0.000148881               0.000000000               0.000000000               0.000000000               0.000000000               0.000102386               0.000492734              -0.000020831              -0.000023197               0.000171975               0.000148779               0.000000000               0.000000000               0.000000000               0.000000000               0.000081915               0.000511715              -0.000016968              -0.000033246               0.000181652               0.000148406               0.000000000               0.000000000               0.000000000               0.000000000               0.000057105               0.000534719              -0.000012044              -0.000045425               0.000193380               0.000147954               0.000000000               0.000000000               0.000000000               0.000000000               0.000029605               0.000562892              -0.000006275              -0.000059260               0.000207382               0.000148122               0.000000000               0.000000000               0.000000000               0.000000000               0.000019695               0.000587570              -0.000005633              -0.000066061               0.000217875               0.000151814               0.000000000               0.000000000               0.000000000               0.000000000               0.000107747               0.000588009              -0.000138154              -0.000033096               0.000207033               0.000173937               0.000000000               0.000000000               0.000000000               0.000000000               0.000111188               0.000512249              -0.000090216              -0.000022336               0.000178193               0.000155858               0.000000000               0.000000000               0.000000000               0.000000000               0.000134757               0.000474168              -0.000035007              -0.000008737               0.000160967               0.000152230               0.000000000               0.000000000               0.000000000               0.000000000               0.000139001               0.000470523              -0.000007003              -0.000006690               0.000159069               0.000152379               0.000000000               0.000000000               0.000000000               0.000000000               0.000140185               0.000475634               0.000003859              -0.000006885               0.000160838               0.000153953               0.000000000               0.000000000               0.000000000               0.000000000               0.000146218               0.000479985              -0.000003259              -0.000005166               0.000161715               0.000156549               0.000000000               0.000000000               0.000000000               0.000000000               0.000156608               0.000481222              -0.000018439              -0.000001425               0.000160881               0.000159456               0.000000000               0.000000000               0.000000000               0.000000000               0.000161964               0.000489888              -0.000024073              -0.000000499               0.000163461               0.000162961               0.000000000               0.000000000               0.000000000               0.000000000               0.000156376               0.000502824              -0.000027681              -0.000004212               0.000169010               0.000164798               0.000000000               0.000000000               0.000000000               0.000000000               0.000144727               0.000522702              -0.000033256              -0.000011065               0.000177920               0.000166855               0.000000000               0.000000000               0.000000000               0.000000000               0.000126670               0.000548263              -0.000035319              -0.000021032               0.000189763               0.000168732               0.000000000               0.000000000               0.000000000               0.000000000               0.000106000               0.000577953              -0.000035616              -0.000032494               0.000203481               0.000170987               0.000000000               0.000000000               0.000000000               0.000000000               0.000087343               0.000611404              -0.000033447              -0.000043672               0.000218357               0.000174685               0.000000000               0.000000000               0.000000000               0.000000000               0.000066669               0.000645751              -0.000028640              -0.000055718               0.000233821               0.000178103               0.000000000               0.000000000               0.000000000               0.000000000               0.000043839               0.000680222              -0.000021588              -0.000068588               0.000249601               0.000181013               0.000000000               0.000000000               0.000000000               0.000000000               0.000021968               0.000716002              -0.000011952              -0.000081262               0.000265752               0.000184490               0.000000000               0.000000000               0.000000000               0.000000000               0.000016451               0.000743213              -0.000009497              -0.000086732               0.000276646               0.000189914               0.000000000               0.000000000               0.000000000               0.000000000               0.000131529               0.000546357              -0.000163121              -0.000018971               0.000188441               0.000169470               0.000000000               0.000000000               0.000000000               0.000000000               0.000119800               0.000485079              -0.000104282              -0.000015710               0.000166928               0.000151218               0.000000000               0.000000000               0.000000000               0.000000000               0.000127877               0.000470237              -0.000039839              -0.000010826               0.000160353               0.000149527               0.000000000               0.000000000               0.000000000               0.000000000               0.000127018               0.000483015              -0.000009342              -0.000012745               0.000165252               0.000152507               0.000000000               0.000000000               0.000000000               0.000000000               0.000134085               0.000499809               0.000000213              -0.000012194               0.000170666               0.000158472               0.000000000               0.000000000               0.000000000               0.000000000               0.000147394               0.000511007              -0.000010326              -0.000008603               0.000173202               0.000164599               0.000000000               0.000000000               0.000000000               0.000000000               0.000162991               0.000527447              -0.000027098              -0.000004809               0.000177417               0.000172608               0.000000000               0.000000000               0.000000000               0.000000000               0.000170643               0.000555083              -0.000033509              -0.000005394               0.000186824               0.000181430               0.000000000               0.000000000               0.000000000               0.000000000               0.000165888               0.000588528              -0.000037439              -0.000011358               0.000199960               0.000188602               0.000000000               0.000000000               0.000000000               0.000000000               0.000153215               0.000628964              -0.000042279              -0.000021165               0.000216708               0.000195543               0.000000000               0.000000000               0.000000000               0.000000000               0.000131913               0.000671876              -0.000043929              -0.000034517               0.000235462               0.000200945               0.000000000               0.000000000               0.000000000               0.000000000               0.000109465               0.000718468              -0.000042943              -0.000048759               0.000255740               0.000206981               0.000000000               0.000000000               0.000000000               0.000000000               0.000089119               0.000766889              -0.000039462              -0.000062441               0.000276441               0.000214000               0.000000000               0.000000000               0.000000000               0.000000000               0.000066017               0.000813493              -0.000033430              -0.000076930               0.000296805               0.000219875               0.000000000               0.000000000               0.000000000               0.000000000               0.000041844               0.000857291              -0.000024915              -0.000091470               0.000316251               0.000224781               0.000000000               0.000000000               0.000000000               0.000000000               0.000020332               0.000898165              -0.000013503              -0.000104646               0.000334267               0.000229621               0.000000000               0.000000000               0.000000000               0.000000000               0.000015453               0.000926030              -0.000010152              -0.000109959               0.000345326               0.000235368               0.000000000               0.000000000               0.000000000               0.000000000               0.000148875               0.000499567              -0.000177865              -0.000006618               0.000168726               0.000162109               0.000000000               0.000000000               0.000000000               0.000000000               0.000121889               0.000457528              -0.000112821              -0.000011483               0.000156335               0.000144852               0.000000000               0.000000000               0.000000000               0.000000000               0.000118804               0.000476082              -0.000044606              -0.000014959               0.000163679               0.000148720               0.000000000               0.000000000               0.000000000               0.000000000               0.000118899               0.000507856              -0.000014460              -0.000018895               0.000175582               0.000156687               0.000000000               0.000000000               0.000000000               0.000000000               0.000131502               0.000541568              -0.000007976              -0.000018383               0.000186648               0.000168266               0.000000000               0.000000000               0.000000000               0.000000000               0.000155133               0.000574786              -0.000018714              -0.000013673               0.000196151               0.000182478               0.000000000               0.000000000               0.000000000               0.000000000               0.000179104               0.000615430              -0.000033892              -0.000009765               0.000208396               0.000198631               0.000000000               0.000000000               0.000000000               0.000000000               0.000184917               0.000662087              -0.000039769              -0.000013417               0.000225166               0.000211749               0.000000000               0.000000000               0.000000000               0.000000000               0.000176409               0.000714403              -0.000043199              -0.000023147               0.000245848               0.000222701               0.000000000               0.000000000               0.000000000               0.000000000               0.000159912               0.000768200              -0.000047863              -0.000036058               0.000268084               0.000232025               0.000000000               0.000000000               0.000000000               0.000000000               0.000137862               0.000822746              -0.000049026              -0.000051145               0.000291294               0.000240149               0.000000000               0.000000000               0.000000000               0.000000000               0.000116755               0.000877721              -0.000046002              -0.000065932               0.000314548               0.000248616               0.000000000               0.000000000               0.000000000               0.000000000               0.000095986               0.000931795              -0.000040679              -0.000080479               0.000337422               0.000256942               0.000000000               0.000000000               0.000000000               0.000000000               0.000071289               0.000981552              -0.000033064              -0.000095960               0.000359168               0.000263207               0.000000000               0.000000000               0.000000000               0.000000000               0.000045965               0.001026948              -0.000023619              -0.000111132               0.000379356               0.000268225               0.000000000               0.000000000               0.000000000               0.000000000               0.000023004               0.001067793              -0.000012316              -0.000124847               0.000397543               0.000272696               0.000000000               0.000000000               0.000000000               0.000000000               0.000017075               0.001094806              -0.000009161              -0.000130447               0.000408414               0.000277967               0.000000000               0.000000000               0.000000000               0.000000000               0.000161969               0.000446377              -0.000185279               0.000004941               0.000147144               0.000152085               0.000000000               0.000000000               0.000000000               0.000000000               0.000123403               0.000435068              -0.000117528              -0.000008107               0.000147724               0.000139616               0.000000000               0.000000000               0.000000000               0.000000000               0.000111502               0.000493529              -0.000051459              -0.000019878               0.000171134               0.000151256               0.000000000               0.000000000               0.000000000               0.000000000               0.000116732               0.000552395              -0.000024767              -0.000025275               0.000192555               0.000167280               0.000000000               0.000000000               0.000000000               0.000000000               0.000142815               0.000609304              -0.000016369              -0.000022607               0.000210635               0.000188028               0.000000000               0.000000000               0.000000000               0.000000000               0.000176868               0.000664168              -0.000026425              -0.000016695               0.000226952               0.000210257               0.000000000               0.000000000               0.000000000               0.000000000               0.000201000               0.000719156              -0.000041618              -0.000014520               0.000244556               0.000230037               0.000000000               0.000000000               0.000000000               0.000000000               0.000203667               0.000782002              -0.000046996              -0.000021375               0.000267790               0.000246415               0.000000000               0.000000000               0.000000000               0.000000000               0.000189439               0.000846367              -0.000050117              -0.000034756               0.000293705               0.000258949               0.000000000               0.000000000               0.000000000               0.000000000               0.000167258               0.000906449              -0.000053183              -0.000050584               0.000319008               0.000268424               0.000000000               0.000000000               0.000000000               0.000000000               0.000142464               0.000966511              -0.000051419              -0.000067390               0.000344630               0.000277241               0.000000000               0.000000000               0.000000000               0.000000000               0.000120788               0.001026299              -0.000045694              -0.000082992               0.000369760               0.000286769               0.000000000               0.000000000               0.000000000               0.000000000               0.000097952               0.001082429              -0.000038004              -0.000098571               0.000393663               0.000295092               0.000000000               0.000000000               0.000000000               0.000000000               0.000071464               0.001133673              -0.000029572              -0.000114910               0.000416190               0.000301281               0.000000000               0.000000000               0.000000000               0.000000000               0.000046181               0.001180650              -0.000019987              -0.000130263               0.000436967               0.000306704               0.000000000               0.000000000               0.000000000               0.000000000               0.000023410               0.001223623              -0.000010037              -0.000144174               0.000455928               0.000311754               0.000000000               0.000000000               0.000000000               0.000000000               0.000017506               0.001252610              -0.000008318              -0.000150011               0.000467536               0.000317525               0.000000000               0.000000000               0.000000000               0.000000000               0.000171739               0.000395204              -0.000181720               0.000015001               0.000126733               0.000141734               0.000000000               0.000000000               0.000000000               0.000000000               0.000125731               0.000423230              -0.000121038              -0.000005755               0.000142993               0.000137239               0.000000000               0.000000000               0.000000000               0.000000000               0.000113294               0.000524328              -0.000061537              -0.000023056               0.000182459               0.000159404               0.000000000               0.000000000               0.000000000               0.000000000               0.000128776               0.000611587              -0.000036349              -0.000028157               0.000213246               0.000185089               0.000000000               0.000000000               0.000000000               0.000000000               0.000164535               0.000688199              -0.000028977              -0.000024324               0.000237506               0.000213181               0.000000000               0.000000000               0.000000000               0.000000000               0.000203488               0.000752540              -0.000037358              -0.000017760               0.000256764               0.000239005               0.000000000               0.000000000               0.000000000               0.000000000               0.000224516               0.000818807              -0.000047934              -0.000018157               0.000278985               0.000260828               0.000000000               0.000000000               0.000000000               0.000000000               0.000219911               0.000892189              -0.000050190              -0.000029057               0.000307079               0.000278022               0.000000000               0.000000000               0.000000000               0.000000000               0.000198488               0.000960784              -0.000052254              -0.000045665               0.000335480               0.000289815               0.000000000               0.000000000               0.000000000               0.000000000               0.000173242               0.001026596              -0.000053493              -0.000063358               0.000363315               0.000299956               0.000000000               0.000000000               0.000000000               0.000000000               0.000147782               0.001093172              -0.000047147              -0.000081228               0.000391463               0.000310235               0.000000000               0.000000000               0.000000000               0.000000000               0.000123214               0.001160020              -0.000039118              -0.000098797               0.000419602               0.000320805               0.000000000               0.000000000               0.000000000               0.000000000               0.000096456               0.001222906              -0.000030918              -0.000116692               0.000446528               0.000329837               0.000000000               0.000000000               0.000000000               0.000000000               0.000069707               0.001283140              -0.000022088              -0.000134252               0.000472460               0.000338208               0.000000000               0.000000000               0.000000000               0.000000000               0.000045202               0.001341627              -0.000014083              -0.000150752               0.000497455               0.000346703               0.000000000               0.000000000               0.000000000               0.000000000               0.000022857               0.001395761              -0.000006904              -0.000165898               0.000520548               0.000354650               0.000000000               0.000000000               0.000000000               0.000000000               0.000016558               0.001430754              -0.000006637              -0.000172635               0.000534458               0.000361823               0.000000000               0.000000000               0.000000000               0.000000000               0.000178223               0.000354718              -0.000171730               0.000022493               0.000110740               0.000133234               0.000000000               0.000000000               0.000000000               0.000000000               0.000131913               0.000418603              -0.000124998              -0.000002858               0.000140486               0.000137627               0.000000000               0.000000000               0.000000000               0.000000000               0.000119069               0.000555032              -0.000075080              -0.000024728               0.000193251               0.000168523               0.000000000               0.000000000               0.000000000               0.000000000               0.000143153               0.000661503              -0.000049778              -0.000029006               0.000230167               0.000201162               0.000000000               0.000000000               0.000000000               0.000000000               0.000184338               0.000749619              -0.000040688              -0.000024576               0.000258062               0.000233487               0.000000000               0.000000000               0.000000000               0.000000000               0.000222817               0.000817725              -0.000040752              -0.000018659               0.000278792               0.000260133               0.000000000               0.000000000               0.000000000               0.000000000               0.000239955               0.000890044              -0.000043953              -0.000021273               0.000303769               0.000282497               0.000000000               0.000000000               0.000000000               0.000000000               0.000227207               0.000967412              -0.000045842              -0.000035724               0.000334375               0.000298652               0.000000000               0.000000000               0.000000000               0.000000000               0.000203928               0.001040017              -0.000048295              -0.000053529               0.000364512               0.000310983               0.000000000               0.000000000               0.000000000               0.000000000               0.000181747               0.001113446              -0.000047180              -0.000071025               0.000394820               0.000323795               0.000000000               0.000000000               0.000000000               0.000000000               0.000160469               0.001190655              -0.000039731              -0.000088656               0.000426433               0.000337777               0.000000000               0.000000000               0.000000000               0.000000000               0.000137849               0.001266647              -0.000031483              -0.000106637               0.000457757               0.000351120               0.000000000               0.000000000               0.000000000               0.000000000               0.000113038               0.001339604              -0.000023796              -0.000125061               0.000488217               0.000363156               0.000000000               0.000000000               0.000000000               0.000000000               0.000089016               0.001411200              -0.000014597              -0.000143019               0.000518068               0.000375049               0.000000000               0.000000000               0.000000000               0.000000000               0.000066662               0.001481355              -0.000006882              -0.000160171               0.000547170               0.000387000               0.000000000               0.000000000               0.000000000               0.000000000               0.000046986               0.001545962              -0.000001778              -0.000175625               0.000573857               0.000398232               0.000000000               0.000000000               0.000000000               0.000000000               0.000037847               0.001581464              -0.000000653              -0.000183490               0.000588313               0.000404823               0.000000000               0.000000000               0.000000000               0.000000000               0.000180131               0.000311832              -0.000161535               0.000028570               0.000094420               0.000122989               0.000000000               0.000000000               0.000000000               0.000000000               0.000141299               0.000395494              -0.000131095               0.000003550               0.000130647               0.000134197               0.000000000               0.000000000               0.000000000               0.000000000               0.000129798               0.000551779              -0.000094433              -0.000020298               0.000190690               0.000170392               0.000000000               0.000000000               0.000000000               0.000000000               0.000151637               0.000676675              -0.000069008              -0.000027720               0.000234796               0.000207076               0.000000000               0.000000000               0.000000000               0.000000000               0.000186139               0.000774389              -0.000052813              -0.000026997               0.000267126               0.000240130               0.000000000               0.000000000               0.000000000               0.000000000               0.000221687               0.000845726              -0.000043228              -0.000022583               0.000289433               0.000266850               0.000000000               0.000000000               0.000000000               0.000000000               0.000246419               0.000916356              -0.000038390              -0.000022138               0.000312828               0.000290691               0.000000000               0.000000000               0.000000000               0.000000000               0.000246389               0.000994074              -0.000040157              -0.000031863               0.000341976               0.000310112               0.000000000               0.000000000               0.000000000               0.000000000               0.000230837               0.001070957              -0.000045038              -0.000047306               0.000372750               0.000325445               0.000000000               0.000000000               0.000000000               0.000000000               0.000212785               0.001145555              -0.000045243              -0.000063400               0.000402981               0.000339581               0.000000000               0.000000000               0.000000000               0.000000000               0.000195247               0.001222139              -0.000041948              -0.000079549               0.000433892               0.000354343               0.000000000               0.000000000               0.000000000               0.000000000               0.000179157               0.001302706              -0.000035958              -0.000095654               0.000466116               0.000370462               0.000000000               0.000000000               0.000000000               0.000000000               0.000159927               0.001380023              -0.000027742              -0.000112530               0.000497513               0.000384983               0.000000000               0.000000000               0.000000000               0.000000000               0.000138721               0.001454856              -0.000019266              -0.000129836               0.000528226               0.000398390               0.000000000               0.000000000               0.000000000               0.000000000               0.000118559               0.001530118              -0.000010544              -0.000146805               0.000558969               0.000412164               0.000000000               0.000000000               0.000000000               0.000000000               0.000100855               0.001606534              -0.000003505              -0.000162996               0.000589838               0.000426842               0.000000000               0.000000000               0.000000000               0.000000000               0.000086871               0.001642535               0.000001568              -0.000172740               0.000605086               0.000432346               0.000000000               0.000000000               0.000000000               0.000000000               0.000178630               0.000261618              -0.000147741               0.000034284               0.000075777               0.000110061               0.000000000               0.000000000               0.000000000               0.000000000               0.000151588               0.000358816              -0.000134713               0.000011993               0.000115606               0.000127599               0.000000000               0.000000000               0.000000000               0.000000000               0.000143467               0.000531184              -0.000110635              -0.000012598               0.000181259               0.000168661               0.000000000               0.000000000               0.000000000               0.000000000               0.000158202               0.000667516              -0.000084296              -0.000024114               0.000230541               0.000206427               0.000000000               0.000000000               0.000000000               0.000000000               0.000182170               0.000768275              -0.000063011              -0.000027721               0.000265330               0.000237609               0.000000000               0.000000000               0.000000000               0.000000000               0.000214513               0.000847449              -0.000046390              -0.000025489               0.000290976               0.000265488               0.000000000               0.000000000               0.000000000               0.000000000               0.000248358               0.000924140              -0.000035249              -0.000022383               0.000315505               0.000293121               0.000000000               0.000000000               0.000000000               0.000000000               0.000267736               0.001005948              -0.000034494              -0.000025342               0.000343760               0.000318418               0.000000000               0.000000000               0.000000000               0.000000000               0.000265812               0.001086345              -0.000039553              -0.000036113               0.000374149               0.000338036               0.000000000               0.000000000               0.000000000               0.000000000               0.000255606               0.001162191              -0.000043001              -0.000049422               0.000403867               0.000354445               0.000000000               0.000000000               0.000000000               0.000000000               0.000242909               0.001234062              -0.000043582              -0.000063167               0.000432406               0.000369239               0.000000000               0.000000000               0.000000000               0.000000000               0.000229645               0.001309421              -0.000040144              -0.000077560               0.000462323               0.000384762               0.000000000               0.000000000               0.000000000               0.000000000               0.000216537               0.001386472              -0.000032163              -0.000092107               0.000492855               0.000400748               0.000000000               0.000000000               0.000000000               0.000000000               0.000200639               0.001460944              -0.000023755              -0.000107378               0.000522769               0.000415391               0.000000000               0.000000000               0.000000000               0.000000000               0.000182611               0.001532964              -0.000014835              -0.000123141               0.000552030               0.000428889               0.000000000               0.000000000               0.000000000               0.000000000               0.000164997               0.001607286              -0.000006032              -0.000139036               0.000582102               0.000443066               0.000000000               0.000000000               0.000000000               0.000000000               0.000147284               0.001638016               0.000001966              -0.000149520               0.000595840               0.000446320               0.000000000               0.000000000               0.000000000               0.000000000               0.000169410               0.000209992              -0.000127164               0.000037279               0.000057570               0.000094850               0.000000000               0.000000000               0.000000000               0.000000000               0.000159774               0.000318600              -0.000129692               0.000020090               0.000099502               0.000119592               0.000000000               0.000000000               0.000000000               0.000000000               0.000157527               0.000498405              -0.000118265              -0.000003228               0.000167209               0.000163981               0.000000000               0.000000000               0.000000000               0.000000000               0.000170550               0.000636117              -0.000094683              -0.000015558               0.000217223               0.000201664               0.000000000               0.000000000               0.000000000               0.000000000               0.000188618               0.000745106              -0.000072590              -0.000022406               0.000255835               0.000233429               0.000000000               0.000000000               0.000000000               0.000000000               0.000216652               0.000841430              -0.000053675              -0.000023934               0.000288452               0.000264518               0.000000000               0.000000000               0.000000000               0.000000000               0.000253590               0.000932599              -0.000039403              -0.000021479               0.000318023               0.000296544               0.000000000               0.000000000               0.000000000               0.000000000               0.000284123               0.001019449              -0.000032544              -0.000020885               0.000346775               0.000325890               0.000000000               0.000000000               0.000000000               0.000000000               0.000295867               0.001101917              -0.000033110              -0.000026789               0.000376232               0.000349442               0.000000000               0.000000000               0.000000000               0.000000000               0.000294270               0.001178256              -0.000036239              -0.000036931               0.000405058               0.000368128               0.000000000               0.000000000               0.000000000               0.000000000               0.000286895               0.001246677              -0.000038368              -0.000048249               0.000431638               0.000383389               0.000000000               0.000000000               0.000000000               0.000000000               0.000276529               0.001314305              -0.000037824              -0.000060589               0.000458294               0.000397704               0.000000000               0.000000000               0.000000000               0.000000000               0.000268382               0.001387498              -0.000033479              -0.000072794               0.000486759               0.000413965               0.000000000               0.000000000               0.000000000               0.000000000               0.000260761               0.001463653              -0.000026334              -0.000085171               0.000516270               0.000431099               0.000000000               0.000000000               0.000000000               0.000000000               0.000249146               0.001535660              -0.000018251              -0.000098527               0.000544724               0.000446197               0.000000000               0.000000000               0.000000000               0.000000000               0.000234362               0.001605060              -0.000009715              -0.000112747               0.000572597               0.000459850               0.000000000               0.000000000               0.000000000               0.000000000               0.000217132               0.001632952              -0.000001895              -0.000122694               0.000585210               0.000462516               0.000000000               0.000000000               0.000000000               0.000000000               0.000148792               0.000163602              -0.000101243               0.000035346               0.000042751               0.000078098               0.000000000               0.000000000               0.000000000               0.000000000               0.000163056               0.000275065              -0.000115368               0.000026762               0.000082766               0.000109529               0.000000000               0.000000000               0.000000000               0.000000000               0.000174317               0.000449864              -0.000115882               0.000009136               0.000146908               0.000156044               0.000000000               0.000000000               0.000000000               0.000000000               0.000188327               0.000591949              -0.000097837              -0.000003371               0.000198438               0.000195067               0.000000000               0.000000000               0.000000000               0.000000000               0.000204721               0.000717621              -0.000078515              -0.000012932               0.000243515               0.000230583               0.000000000               0.000000000               0.000000000               0.000000000               0.000230700               0.000832697              -0.000060819              -0.000017574               0.000283421               0.000265846               0.000000000               0.000000000               0.000000000               0.000000000               0.000263042               0.000934130              -0.000044900              -0.000018125               0.000317415               0.000299290               0.000000000               0.000000000               0.000000000               0.000000000               0.000294427               0.001023484              -0.000031820              -0.000017525               0.000347000               0.000329474               0.000000000               0.000000000               0.000000000               0.000000000               0.000314878               0.001107079              -0.000026011              -0.000020305               0.000375791               0.000355486               0.000000000               0.000000000               0.000000000               0.000000000               0.000324167               0.001186288              -0.000026655              -0.000026723               0.000404333               0.000377610               0.000000000               0.000000000               0.000000000               0.000000000               0.000326411               0.001257720              -0.000028636              -0.000034811               0.000430839               0.000396029               0.000000000               0.000000000               0.000000000               0.000000000               0.000323940               0.001323494              -0.000030237              -0.000043959               0.000455813               0.000411854               0.000000000               0.000000000               0.000000000               0.000000000               0.000321117               0.001392870              -0.000030142              -0.000053690               0.000482182               0.000428492               0.000000000               0.000000000               0.000000000               0.000000000               0.000319705               0.001465815              -0.000025627              -0.000063337               0.000509713               0.000446375               0.000000000               0.000000000               0.000000000               0.000000000               0.000317422               0.001539447              -0.000018595              -0.000073397               0.000537610               0.000464212               0.000000000               0.000000000               0.000000000               0.000000000               0.000312573               0.001611831              -0.000010842              -0.000084264               0.000565359               0.000481096               0.000000000               0.000000000               0.000000000               0.000000000               0.000302046               0.001642606              -0.000004511              -0.000092058               0.000578216               0.000486158               0.000000000               0.000000000               0.000000000               0.000000000               0.000124096               0.000123690              -0.000072481               0.000031074               0.000030871               0.000061946               0.000000000               0.000000000               0.000000000               0.000000000               0.000161831               0.000229896              -0.000092579               0.000031949               0.000065981               0.000097931               0.000000000               0.000000000               0.000000000               0.000000000               0.000191078               0.000398840              -0.000101352               0.000021799               0.000125679               0.000147478               0.000000000               0.000000000               0.000000000               0.000000000               0.000210046               0.000549373              -0.000090307               0.000010095               0.000179757               0.000189853               0.000000000               0.000000000               0.000000000               0.000000000               0.000228514               0.000685894              -0.000076662              -0.000000044               0.000228644               0.000228600               0.000000000               0.000000000               0.000000000               0.000000000               0.000250277               0.000810320              -0.000061803              -0.000007436               0.000272583               0.000265146               0.000000000               0.000000000               0.000000000               0.000000000               0.000275190               0.000919021              -0.000045071              -0.000011682               0.000310231               0.000298550               0.000000000               0.000000000               0.000000000               0.000000000               0.000302973               0.001015535              -0.000029205              -0.000013327               0.000342951               0.000329624               0.000000000               0.000000000               0.000000000               0.000000000               0.000329492               0.001106638              -0.000019454              -0.000014770               0.000373799               0.000359029               0.000000000               0.000000000               0.000000000               0.000000000               0.000348424               0.001191900              -0.000017849              -0.000018328               0.000403405               0.000385077               0.000000000               0.000000000               0.000000000               0.000000000               0.000360367               0.001269057              -0.000018823              -0.000023494               0.000430846               0.000407352               0.000000000               0.000000000               0.000000000               0.000000000               0.000367303               0.001337700              -0.000020248              -0.000029474               0.000455720               0.000426246               0.000000000               0.000000000               0.000000000               0.000000000               0.000370506               0.001401469              -0.000021519              -0.000036244               0.000479233               0.000442989               0.000000000               0.000000000               0.000000000               0.000000000               0.000374278               0.001467802              -0.000019703              -0.000043121               0.000503636               0.000460515               0.000000000               0.000000000               0.000000000               0.000000000               0.000381566               0.001541500              -0.000015332              -0.000049600               0.000530361               0.000480761               0.000000000               0.000000000               0.000000000               0.000000000               0.000389150               0.001616411              -0.000008467              -0.000056120               0.000557505               0.000501385               0.000000000               0.000000000               0.000000000               0.000000000               0.000388596               0.001650554              -0.000003089              -0.000060596               0.000570378               0.000509782               0.000000000               0.000000000               0.000000000               0.000000000               0.000100899               0.000095232              -0.000045897               0.000025933               0.000023099               0.000049032               0.000000000               0.000000000               0.000000000               0.000000000               0.000157963               0.000193773              -0.000064348               0.000035014               0.000052919               0.000087933               0.000000000               0.000000000               0.000000000               0.000000000               0.000205205               0.000356346              -0.000075321               0.000032408               0.000107978               0.000140386               0.000000000               0.000000000               0.000000000               0.000000000               0.000233161               0.000509483              -0.000070584               0.000023750               0.000161910               0.000185659               0.000000000               0.000000000               0.000000000               0.000000000               0.000253113               0.000651368              -0.000061423               0.000013496               0.000212622               0.000226118               0.000000000               0.000000000               0.000000000               0.000000000               0.000269560               0.000781540              -0.000050090               0.000003392               0.000259380               0.000262772               0.000000000               0.000000000               0.000000000               0.000000000               0.000288795               0.000897758              -0.000037115              -0.000003922               0.000300557               0.000296635               0.000000000               0.000000000               0.000000000               0.000000000               0.000313132               0.001004835              -0.000024592              -0.000008180               0.000337668               0.000329488               0.000000000               0.000000000               0.000000000               0.000000000               0.000340882               0.001104095              -0.000014986              -0.000010181               0.000371422               0.000361241               0.000000000               0.000000000               0.000000000               0.000000000               0.000365590               0.001194197              -0.000010752              -0.000012178               0.000402121               0.000389943               0.000000000               0.000000000               0.000000000               0.000000000               0.000384963               0.001275222              -0.000009921              -0.000015042               0.000430084               0.000415042               0.000000000               0.000000000               0.000000000               0.000000000               0.000400116               0.001347176              -0.000009994              -0.000018353               0.000455172               0.000436818               0.000000000               0.000000000               0.000000000               0.000000000               0.000410516               0.001408239              -0.000010762              -0.000022086               0.000476771               0.000454684               0.000000000               0.000000000               0.000000000               0.000000000               0.000421092               0.001470942              -0.000010834              -0.000025958               0.000498962               0.000473004               0.000000000               0.000000000               0.000000000               0.000000000               0.000435307               0.001542360              -0.000009053              -0.000029555               0.000523966               0.000494412               0.000000000               0.000000000               0.000000000               0.000000000               0.000450699               0.001613546              -0.000004638              -0.000032681               0.000548737               0.000516056               0.000000000               0.000000000               0.000000000               0.000000000               0.000457591               0.001647569              -0.000001132              -0.000034349               0.000560634               0.000526285               0.000000000               0.000000000               0.000000000               0.000000000               0.000083450               0.000077850              -0.000022416               0.000021562               0.000018762               0.000040324               0.000000000               0.000000000               0.000000000               0.000000000               0.000155792               0.000169788              -0.000033161               0.000037198               0.000044196               0.000081394               0.000000000               0.000000000               0.000000000               0.000000000               0.000217097               0.000326895              -0.000040323               0.000040549               0.000095448               0.000135997               0.000000000               0.000000000               0.000000000               0.000000000               0.000249497               0.000480438              -0.000038752               0.000033506               0.000148976               0.000182482               0.000000000               0.000000000               0.000000000               0.000000000               0.000269266               0.000624115              -0.000033814               0.000022960               0.000200383               0.000223343               0.000000000               0.000000000               0.000000000               0.000000000               0.000284716               0.000757925              -0.000028050               0.000012028               0.000248630               0.000260658               0.000000000               0.000000000               0.000000000               0.000000000               0.000301573               0.000881934              -0.000021382               0.000002848               0.000293026               0.000295874               0.000000000               0.000000000               0.000000000               0.000000000               0.000322980               0.000997134              -0.000014141              -0.000003524               0.000333549               0.000330025               0.000000000               0.000000000               0.000000000               0.000000000               0.000347922               0.001099119              -0.000008005              -0.000006919               0.000368676               0.000361757               0.000000000               0.000000000               0.000000000               0.000000000               0.000374717               0.001191765              -0.000004735              -0.000008452               0.000400068               0.000391617               0.000000000               0.000000000               0.000000000               0.000000000               0.000399665               0.001276168              -0.000003756              -0.000009647               0.000428601               0.000418954               0.000000000               0.000000000               0.000000000               0.000000000               0.000420871               0.001350264              -0.000003293              -0.000010956               0.000453735               0.000442779               0.000000000               0.000000000               0.000000000               0.000000000               0.000437397               0.001412163              -0.000003363              -0.000012497               0.000474882               0.000462385               0.000000000               0.000000000               0.000000000               0.000000000               0.000452948               0.001473664              -0.000003693              -0.000014352               0.000496000               0.000481648               0.000000000               0.000000000               0.000000000               0.000000000               0.000469962               0.001540791              -0.000002919              -0.000016363               0.000519046               0.000502683               0.000000000               0.000000000               0.000000000               0.000000000               0.000487684               0.001608302              -0.000001176              -0.000018156               0.000542147               0.000523991               0.000000000               0.000000000               0.000000000               0.000000000               0.000496466               0.001642037               0.000000022              -0.000019080               0.000553700               0.000534620               0.000000000               0.000000000               0.000000000               0.000000000               0.000000000               0.000000000               0.000000000               0.000000000               0.000000000               0.000000000               0.000000000               0.000000000               0.000000000               0.000000000               0.000000000               0.000000000               0.000000000               0.000000000               0.000000000               0.000000000               0.000000000               0.000000000               0.000000000               0.000000000               0.000000000               0.000000000               0.000000000               0.000000000               0.000000000               0.000000000               0.000000000               0.000000000               0.000000000               0.000000000               0.000000000               0.000000000               0.000000000               0.000000000               0.000000000               0.000000000               0.000000000               0.000000000               0.000000000               0.000000000               0.000000000               0.000000000               0.000000000               0.000000000               0.000000000               0.000000000               0.000000000               0.000000000               0.000000000               0.000000000               0.000000000               0.000000000               0.000000000               0.000000000               0.000000000               0.000000000               0.000000000               0.000000000               0.000000000               0.000000000               0.000000000               0.000000000               0.000000000               0.000000000               0.000000000               0.000000000               0.000000000               0.000000000               0.000000000               0.000000000               0.000000000               0.000000000               0.000000000               0.000000000               0.000000000               0.000000000               0.000000000               0.000000000               0.000000000               0.000000000               0.000000000               0.000000000               0.000000000               0.000000000               0.000000000               0.000000000               0.000000000               0.000000000               0.000000000               0.000000000               0.000000000               0.000000000               0.000000000               0.000000000               0.000000000               0.000000000               0.000000000               0.000000000               0.000000000               0.000000000               0.000000000               0.000000000               0.000000000               0.000000000               0.000000000               0.000000000               0.000000000               0.000000000               0.000000000               0.000000000               0.000000000               0.000000000               0.000000000               0.000000000               0.000000000               0.000000000               0.000000000               0.000000000               0.000000000               0.000000000               0.000000000               0.000000000               0.000000000               0.000000000               0.000000000               0.000000000               0.000000000               0.000000000               0.000000000               0.000000000               0.000000000               0.000000000               0.000000000               0.000000000               0.000000000               0.000000000               0.000000000               0.000000000               0.000000000               0.000000000               0.000000000               0.000000000               0.000000000               0.000000000               0.000000000               0.000000000               0.000000000               0.000000000               0.000000000               0.000000000               0.000000000               0.000000000               0.000000000               0.000000000               0.000000000               0.000000000               0.000000000               0.000000000               0.000000000               0.000000000               0.000000000               0.000000000               0.000000000               0.000000000               0.000000000               0.000000000               0.000000000               0.000000000               0.000000000               0.000000000               0.000000000               0.000000000               0.000000000               0.000000000               0.000000000               0.000000000               0.000000000               0.000000000               0.000000000               0.000000000               0.000000000               0.000000000               0.000000000               0.000000000               0.000000000               0.000000000               0.000000000               0.000000000               0.000000000               0.000000000               0.000000000               0.000000000               0.000000000               0.000000000               0.000000000               0.000000000               0.000000000               0.000000000               0.000000000               0.000000000               0.000000000               0.000000000               0.000000000               0.000000000               0.000000000               0.000000000               0.000000000               0.000000000               0.000000000               0.000000000               0.000000000               0.000000000               0.000000000               0.000000000               0.000000000               0.000000000               0.000000000               0.000000000               0.000000000               0.000000000               0.000000000               0.000000000               0.000000000               0.000000000               0.000000000               0.000000000               0.000000000               0.000000000               0.000000000               0.000000000               0.000000000               0.000000000               0.000000000               0.000000000               0.000000000               0.000000000               0.000000000               0.000000000               0.000000000               0.000000000               0.000000000               0.000000000               0.000000000               0.000000000               0.000000000               0.000000000               0.000000000               0.000000000               0.000000000               0.000000000               0.000000000               0.000000000               0.000000000               0.000000000               0.000000000               0.000000000               0.000000000               0.000000000               0.000000000               0.000000000               0.000000000               0.000000000               0.000000000               0.000000000               0.000000000               0.000000000               0.000000000               0.000000000               0.000000000               0.000000000               0.000000000               0.000000000               0.000000000               0.000000000               0.000000000               0.000000000               0.000000000               0.000000000               0.000000000               0.000000000               0.000000000               0.000000000               0.000000000               0.000000000               0.000000000               0.000000000               0.000000000               0.000000000               0.000000000               0.000000000               0.000000000               0.000000000               0.000000000               0.000000000               0.000000000               0.000000000               0.000000000               0.000000000               0.000000000               0.000000000               0.000000000               0.000000000               0.000000000               0.000000000               0.000000000               0.000000000               0.000000000               0.000000000               0.000000000               0.000000000               0.000000000               0.000000000               0.000000000               0.000000000               0.000000000               0.000000000               0.000000000               0.000000000               0.000000000               0.000000000               0.000000000               0.000000000               0.000000000               0.000000000               0.000000000               0.000000000               0.000000000               0.000000000               0.000000000               0.000000000               0.000000000               0.000000000               0.000000000               0.000000000               0.000000000               0.000000000               0.000000000               0.000000000               0.000000000               0.000000000               0.000075743               0.000650761               0.000052110              -0.000052941               0.000234565               0.000181624               0.000000000               0.000000000               0.000000000               0.000000000               0.000096585               0.000557472               0.000035809              -0.000033465               0.000196977               0.000163513               0.000000000               0.000000000               0.000000000               0.000000000               0.000141704               0.000491300               0.000015593              -0.000008274               0.000166523               0.000158249               0.000000000               0.000000000               0.000000000               0.000000000               0.000155407               0.000468204               0.000003752              -0.000000248               0.000156149               0.000155901               0.000000000               0.000000000               0.000000000               0.000000000               0.000153252               0.000466998              -0.000002270              -0.000000905               0.000155966               0.000155061               0.000000000               0.000000000               0.000000000               0.000000000               0.000150013               0.000471363              -0.000000394              -0.000002666               0.000158008               0.000155343               0.000000000               0.000000000               0.000000000               0.000000000               0.000149232               0.000465999               0.000006653              -0.000002288               0.000156094               0.000153806               0.000000000               0.000000000               0.000000000               0.000000000               0.000147378               0.000452522               0.000008784              -0.000001299               0.000151272               0.000149973               0.000000000               0.000000000               0.000000000               0.000000000               0.000147198               0.000441001               0.000009871               0.000000074               0.000146974               0.000147048               0.000000000               0.000000000               0.000000000               0.000000000               0.000147840               0.000430059               0.000012134               0.000001683               0.000142791               0.000144473               0.000000000               0.000000000               0.000000000               0.000000000               0.000143955               0.000421247               0.000012310               0.000001327               0.000139972               0.000141299               0.000000000               0.000000000               0.000000000               0.000000000               0.000135360               0.000418000               0.000011716              -0.000001490               0.000139829               0.000138339               0.000000000               0.000000000               0.000000000               0.000000000               0.000121622               0.000421369               0.000010062              -0.000007063               0.000142809               0.000135746               0.000000000               0.000000000               0.000000000               0.000000000               0.000099730               0.000431117               0.000007247              -0.000016491               0.000149201               0.000132710               0.000000000               0.000000000               0.000000000               0.000000000               0.000071042               0.000447443               0.000004361              -0.000029289               0.000158909               0.000129620               0.000000000               0.000000000               0.000000000               0.000000000               0.000037261               0.000470098               0.000001829              -0.000044789               0.000171628               0.000126838               0.000000000               0.000000000               0.000000000               0.000000000               0.000022562               0.000491201               0.000001950              -0.000052939               0.000181378               0.000128439               0.000000000               0.000000000               0.000000000               0.000000000               0.000088955               0.000627214               0.000098083              -0.000045044               0.000224084               0.000179040               0.000000000               0.000000000               0.000000000               0.000000000               0.000102024               0.000538469               0.000066357              -0.000029050               0.000189171               0.000160121               0.000000000               0.000000000               0.000000000               0.000000000               0.000138779               0.000483683               0.000028003              -0.000008418               0.000164032               0.000155614               0.000000000               0.000000000               0.000000000               0.000000000               0.000150339               0.000467278               0.000005541              -0.000002033               0.000156435               0.000154403               0.000000000               0.000000000               0.000000000               0.000000000               0.000149453               0.000468602              -0.000004027              -0.000002530               0.000157043               0.000154512               0.000000000               0.000000000               0.000000000               0.000000000               0.000147244               0.000469842               0.000000639              -0.000003514               0.000157784               0.000154270               0.000000000               0.000000000               0.000000000               0.000000000               0.000149992               0.000465396               0.000012679              -0.000001928               0.000155773               0.000153845               0.000000000               0.000000000               0.000000000               0.000000000               0.000151543               0.000460521               0.000016300              -0.000000737               0.000153751               0.000153014               0.000000000               0.000000000               0.000000000               0.000000000               0.000150539               0.000459770               0.000017740              -0.000001019               0.000153595               0.000152576               0.000000000               0.000000000               0.000000000               0.000000000               0.000145040               0.000461615               0.000021903              -0.000003312               0.000154974               0.000151662               0.000000000               0.000000000               0.000000000               0.000000000               0.000132852               0.000467203               0.000023121              -0.000008581               0.000158593               0.000150012               0.000000000               0.000000000               0.000000000               0.000000000               0.000118104               0.000477427               0.000022741              -0.000015390               0.000164271               0.000148881               0.000000000               0.000000000               0.000000000               0.000000000               0.000102386               0.000492734               0.000020831              -0.000023197               0.000171975               0.000148779               0.000000000               0.000000000               0.000000000               0.000000000               0.000081915               0.000511715               0.000016968              -0.000033246               0.000181652               0.000148406               0.000000000               0.000000000               0.000000000               0.000000000               0.000057105               0.000534719               0.000012044              -0.000045425               0.000193380               0.000147954               0.000000000               0.000000000               0.000000000               0.000000000               0.000029605               0.000562892               0.000006275              -0.000059260               0.000207382               0.000148122               0.000000000               0.000000000               0.000000000               0.000000000               0.000019695               0.000587570               0.000005633              -0.000066061               0.000217875               0.000151814               0.000000000               0.000000000               0.000000000               0.000000000               0.000107747               0.000588009               0.000138154              -0.000033096               0.000207033               0.000173937               0.000000000               0.000000000               0.000000000               0.000000000               0.000111188               0.000512249               0.000090216              -0.000022336               0.000178193               0.000155858               0.000000000               0.000000000               0.000000000               0.000000000               0.000134757               0.000474168               0.000035007              -0.000008737               0.000160967               0.000152230               0.000000000               0.000000000               0.000000000               0.000000000               0.000139001               0.000470523               0.000007003              -0.000006690               0.000159069               0.000152379               0.000000000               0.000000000               0.000000000               0.000000000               0.000140185               0.000475634              -0.000003859              -0.000006885               0.000160838               0.000153953               0.000000000               0.000000000               0.000000000               0.000000000               0.000146218               0.000479985               0.000003259              -0.000005166               0.000161715               0.000156549               0.000000000               0.000000000               0.000000000               0.000000000               0.000156608               0.000481222               0.000018439              -0.000001425               0.000160881               0.000159456               0.000000000               0.000000000               0.000000000               0.000000000               0.000161964               0.000489888               0.000024073              -0.000000499               0.000163461               0.000162961               0.000000000               0.000000000               0.000000000               0.000000000               0.000156376               0.000502824               0.000027681              -0.000004212               0.000169010               0.000164798               0.000000000               0.000000000               0.000000000               0.000000000               0.000144727               0.000522702               0.000033256              -0.000011065               0.000177920               0.000166855               0.000000000               0.000000000               0.000000000               0.000000000               0.000126670               0.000548263               0.000035319              -0.000021032               0.000189763               0.000168732               0.000000000               0.000000000               0.000000000               0.000000000               0.000106000               0.000577953               0.000035616              -0.000032494               0.000203481               0.000170987               0.000000000               0.000000000               0.000000000               0.000000000               0.000087343               0.000611404               0.000033447              -0.000043672               0.000218357               0.000174685               0.000000000               0.000000000               0.000000000               0.000000000               0.000066669               0.000645751               0.000028640              -0.000055718               0.000233821               0.000178103               0.000000000               0.000000000               0.000000000               0.000000000               0.000043839               0.000680222               0.000021588              -0.000068588               0.000249601               0.000181013               0.000000000               0.000000000               0.000000000               0.000000000               0.000021968               0.000716002               0.000011952              -0.000081262               0.000265752               0.000184490               0.000000000               0.000000000               0.000000000               0.000000000               0.000016451               0.000743213               0.000009497              -0.000086732               0.000276646               0.000189914               0.000000000               0.000000000               0.000000000               0.000000000               0.000131529               0.000546357               0.000163121              -0.000018971               0.000188441               0.000169470               0.000000000               0.000000000               0.000000000               0.000000000               0.000119800               0.000485079               0.000104282              -0.000015710               0.000166928               0.000151218               0.000000000               0.000000000               0.000000000               0.000000000               0.000127877               0.000470237               0.000039839              -0.000010826               0.000160353               0.000149527               0.000000000               0.000000000               0.000000000               0.000000000               0.000127018               0.000483015               0.000009342              -0.000012745               0.000165252               0.000152507               0.000000000               0.000000000               0.000000000               0.000000000               0.000134085               0.000499809              -0.000000213              -0.000012194               0.000170666               0.000158472               0.000000000               0.000000000               0.000000000               0.000000000               0.000147394               0.000511007               0.000010326              -0.000008603               0.000173202               0.000164599               0.000000000               0.000000000               0.000000000               0.000000000               0.000162991               0.000527447               0.000027098              -0.000004809               0.000177417               0.000172608               0.000000000               0.000000000               0.000000000               0.000000000               0.000170643               0.000555083               0.000033509              -0.000005394               0.000186824               0.000181430               0.000000000               0.000000000               0.000000000               0.000000000               0.000165888               0.000588528               0.000037439              -0.000011358               0.000199960               0.000188602               0.000000000               0.000000000               0.000000000               0.000000000               0.000153215               0.000628964               0.000042279              -0.000021165               0.000216708               0.000195543               0.000000000               0.000000000               0.000000000               0.000000000               0.000131913               0.000671876               0.000043929              -0.000034517               0.000235462               0.000200945               0.000000000               0.000000000               0.000000000               0.000000000               0.000109465               0.000718468               0.000042943              -0.000048759               0.000255740               0.000206981               0.000000000               0.000000000               0.000000000               0.000000000               0.000089119               0.000766889               0.000039462              -0.000062441               0.000276441               0.000214000               0.000000000               0.000000000               0.000000000               0.000000000               0.000066017               0.000813493               0.000033430              -0.000076930               0.000296805               0.000219875               0.000000000               0.000000000               0.000000000               0.000000000               0.000041844               0.000857291               0.000024915              -0.000091470               0.000316251               0.000224781               0.000000000               0.000000000               0.000000000               0.000000000               0.000020332               0.000898165               0.000013503              -0.000104646               0.000334267               0.000229621               0.000000000               0.000000000               0.000000000               0.000000000               0.000015453               0.000926030               0.000010152              -0.000109959               0.000345326               0.000235368               0.000000000               0.000000000               0.000000000               0.000000000               0.000148875               0.000499567               0.000177865              -0.000006618               0.000168726               0.000162109               0.000000000               0.000000000               0.000000000               0.000000000               0.000121889               0.000457528               0.000112821              -0.000011483               0.000156335               0.000144852               0.000000000               0.000000000               0.000000000               0.000000000               0.000118804               0.000476082               0.000044606              -0.000014959               0.000163679               0.000148720               0.000000000               0.000000000               0.000000000               0.000000000               0.000118899               0.000507856               0.000014460              -0.000018895               0.000175582               0.000156687               0.000000000               0.000000000               0.000000000               0.000000000               0.000131502               0.000541568               0.000007976              -0.000018383               0.000186648               0.000168266               0.000000000               0.000000000               0.000000000               0.000000000               0.000155133               0.000574786               0.000018714              -0.000013673               0.000196151               0.000182478               0.000000000               0.000000000               0.000000000               0.000000000               0.000179104               0.000615430               0.000033892              -0.000009765               0.000208396               0.000198631               0.000000000               0.000000000               0.000000000               0.000000000               0.000184917               0.000662087               0.000039769              -0.000013417               0.000225166               0.000211749               0.000000000               0.000000000               0.000000000               0.000000000               0.000176409               0.000714403               0.000043199              -0.000023147               0.000245848               0.000222701               0.000000000               0.000000000               0.000000000               0.000000000               0.000159912               0.000768200               0.000047863              -0.000036058               0.000268084               0.000232025               0.000000000               0.000000000               0.000000000               0.000000000               0.000137862               0.000822746               0.000049026              -0.000051145               0.000291294               0.000240149               0.000000000               0.000000000               0.000000000               0.000000000               0.000116755               0.000877721               0.000046002              -0.000065932               0.000314548               0.000248616               0.000000000               0.000000000               0.000000000               0.000000000               0.000095986               0.000931795               0.000040679              -0.000080479               0.000337422               0.000256942               0.000000000               0.000000000               0.000000000               0.000000000               0.000071289               0.000981552               0.000033064              -0.000095960               0.000359168               0.000263207               0.000000000               0.000000000               0.000000000               0.000000000               0.000045965               0.001026948               0.000023619              -0.000111132               0.000379356               0.000268225               0.000000000               0.000000000               0.000000000               0.000000000               0.000023004               0.001067793               0.000012316              -0.000124847               0.000397543               0.000272696               0.000000000               0.000000000               0.000000000               0.000000000               0.000017075               0.001094806               0.000009161              -0.000130447               0.000408414               0.000277967               0.000000000               0.000000000               0.000000000               0.000000000               0.000161969               0.000446377               0.000185279               0.000004941               0.000147144               0.000152085               0.000000000               0.000000000               0.000000000               0.000000000               0.000123403               0.000435068               0.000117528              -0.000008107               0.000147724               0.000139616               0.000000000               0.000000000               0.000000000               0.000000000               0.000111502               0.000493529               0.000051459              -0.000019878               0.000171134               0.000151256               0.000000000               0.000000000               0.000000000               0.000000000               0.000116732               0.000552395               0.000024767              -0.000025275               0.000192555               0.000167280               0.000000000               0.000000000               0.000000000               0.000000000               0.000142815               0.000609304               0.000016369              -0.000022607               0.000210635               0.000188028               0.000000000               0.000000000               0.000000000               0.000000000               0.000176868               0.000664168               0.000026425              -0.000016695               0.000226952               0.000210257               0.000000000               0.000000000               0.000000000               0.000000000               0.000201000               0.000719156               0.000041618              -0.000014520               0.000244556               0.000230037               0.000000000               0.000000000               0.000000000               0.000000000               0.000203667               0.000782002               0.000046996              -0.000021375               0.000267790               0.000246415               0.000000000               0.000000000               0.000000000               0.000000000               0.000189439               0.000846367               0.000050117              -0.000034756               0.000293705               0.000258949               0.000000000               0.000000000               0.000000000               0.000000000               0.000167258               0.000906449               0.000053183              -0.000050584               0.000319008               0.000268424               0.000000000               0.000000000               0.000000000               0.000000000               0.000142464               0.000966511               0.000051419              -0.000067390               0.000344630               0.000277241               0.000000000               0.000000000               0.000000000               0.000000000               0.000120788               0.001026299               0.000045694              -0.000082992               0.000369760               0.000286769               0.000000000               0.000000000               0.000000000               0.000000000               0.000097952               0.001082429               0.000038004              -0.000098571               0.000393663               0.000295092               0.000000000               0.000000000               0.000000000               0.000000000               0.000071464               0.001133673               0.000029572              -0.000114910               0.000416190               0.000301281               0.000000000               0.000000000               0.000000000               0.000000000               0.000046181               0.001180650               0.000019987              -0.000130263               0.000436967               0.000306704               0.000000000               0.000000000               0.000000000               0.000000000               0.000023410               0.001223623               0.000010037              -0.000144174               0.000455928               0.000311754               0.000000000               0.000000000               0.000000000               0.000000000               0.000017506               0.001252610               0.000008318              -0.000150011               0.000467536               0.000317525               0.000000000               0.000000000               0.000000000               0.000000000               0.000171739               0.000395204               0.000181720               0.000015001               0.000126733               0.000141734               0.000000000               0.000000000               0.000000000               0.000000000               0.000125731               0.000423230               0.000121038              -0.000005755               0.000142993               0.000137239               0.000000000               0.000000000               0.000000000               0.000000000               0.000113294               0.000524328               0.000061537              -0.000023056               0.000182459               0.000159404               0.000000000               0.000000000               0.000000000               0.000000000               0.000128776               0.000611587               0.000036349              -0.000028157               0.000213246               0.000185089               0.000000000               0.000000000               0.000000000               0.000000000               0.000164535               0.000688199               0.000028977              -0.000024324               0.000237506               0.000213181               0.000000000               0.000000000               0.000000000               0.000000000               0.000203488               0.000752540               0.000037358              -0.000017760               0.000256764               0.000239005               0.000000000               0.000000000               0.000000000               0.000000000               0.000224516               0.000818807               0.000047934              -0.000018157               0.000278985               0.000260828               0.000000000               0.000000000               0.000000000               0.000000000               0.000219911               0.000892189               0.000050190              -0.000029057               0.000307079               0.000278022               0.000000000               0.000000000               0.000000000               0.000000000               0.000198488               0.000960784               0.000052254              -0.000045665               0.000335480               0.000289815               0.000000000               0.000000000               0.000000000               0.000000000               0.000173242               0.001026596               0.000053493              -0.000063358               0.000363315               0.000299956               0.000000000               0.000000000               0.000000000               0.000000000               0.000147782               0.001093172               0.000047147              -0.000081228               0.000391463               0.000310235               0.000000000               0.000000000               0.000000000               0.000000000               0.000123214               0.001160020               0.000039118              -0.000098797               0.000419602               0.000320805               0.000000000               0.000000000               0.000000000               0.000000000               0.000096456               0.001222906               0.000030918              -0.000116692               0.000446528               0.000329837               0.000000000               0.000000000               0.000000000               0.000000000               0.000069707               0.001283140               0.000022088              -0.000134252               0.000472460               0.000338208               0.000000000               0.000000000               0.000000000               0.000000000               0.000045202               0.001341627               0.000014083              -0.000150752               0.000497455               0.000346703               0.000000000               0.000000000               0.000000000               0.000000000               0.000022857               0.001395761               0.000006904              -0.000165898               0.000520548               0.000354650               0.000000000               0.000000000               0.000000000               0.000000000               0.000016558               0.001430754               0.000006637              -0.000172635               0.000534458               0.000361823               0.000000000               0.000000000               0.000000000               0.000000000               0.000178223               0.000354718               0.000171730               0.000022493               0.000110740               0.000133234               0.000000000               0.000000000               0.000000000               0.000000000               0.000131913               0.000418603               0.000124998              -0.000002858               0.000140486               0.000137627               0.000000000               0.000000000               0.000000000               0.000000000               0.000119069               0.000555032               0.000075080              -0.000024728               0.000193251               0.000168523               0.000000000               0.000000000               0.000000000               0.000000000               0.000143153               0.000661503               0.000049778              -0.000029006               0.000230167               0.000201162               0.000000000               0.000000000               0.000000000               0.000000000               0.000184338               0.000749619               0.000040688              -0.000024576               0.000258062               0.000233487               0.000000000               0.000000000               0.000000000               0.000000000               0.000222817               0.000817725               0.000040752              -0.000018659               0.000278792               0.000260133               0.000000000               0.000000000               0.000000000               0.000000000               0.000239955               0.000890044               0.000043953              -0.000021273               0.000303769               0.000282497               0.000000000               0.000000000               0.000000000               0.000000000               0.000227207               0.000967412               0.000045842              -0.000035724               0.000334375               0.000298652               0.000000000               0.000000000               0.000000000               0.000000000               0.000203928               0.001040017               0.000048295              -0.000053529               0.000364512               0.000310983               0.000000000               0.000000000               0.000000000               0.000000000               0.000181747               0.001113446               0.000047180              -0.000071025               0.000394820               0.000323795               0.000000000               0.000000000               0.000000000               0.000000000               0.000160469               0.001190655               0.000039731              -0.000088656               0.000426433               0.000337777               0.000000000               0.000000000               0.000000000               0.000000000               0.000137849               0.001266647               0.000031483              -0.000106637               0.000457757               0.000351120               0.000000000               0.000000000               0.000000000               0.000000000               0.000113038               0.001339604               0.000023796              -0.000125061               0.000488217               0.000363156               0.000000000               0.000000000               0.000000000               0.000000000               0.000089016               0.001411200               0.000014597              -0.000143019               0.000518068               0.000375049               0.000000000               0.000000000               0.000000000               0.000000000               0.000066662               0.001481355               0.000006882              -0.000160171               0.000547170               0.000387000               0.000000000               0.000000000               0.000000000               0.000000000               0.000046986               0.001545962               0.000001778              -0.000175625               0.000573857               0.000398232               0.000000000               0.000000000               0.000000000               0.000000000               0.000037847               0.001581464               0.000000653              -0.000183490               0.000588313               0.000404823               0.000000000               0.000000000               0.000000000               0.000000000               0.000180131               0.000311832               0.000161535               0.000028570               0.000094420               0.000122989               0.000000000               0.000000000               0.000000000               0.000000000               0.000141299               0.000395494               0.000131095               0.000003550               0.000130647               0.000134197               0.000000000               0.000000000               0.000000000               0.000000000               0.000129798               0.000551779               0.000094433              -0.000020298               0.000190690               0.000170392               0.000000000               0.000000000               0.000000000               0.000000000               0.000151637               0.000676675               0.000069008              -0.000027720               0.000234796               0.000207076               0.000000000               0.000000000               0.000000000               0.000000000               0.000186139               0.000774389               0.000052813              -0.000026997               0.000267126               0.000240130               0.000000000               0.000000000               0.000000000               0.000000000               0.000221687               0.000845726               0.000043228              -0.000022583               0.000289433               0.000266850               0.000000000               0.000000000               0.000000000               0.000000000               0.000246419               0.000916356               0.000038390              -0.000022138               0.000312828               0.000290691               0.000000000               0.000000000               0.000000000               0.000000000               0.000246389               0.000994074               0.000040157              -0.000031863               0.000341976               0.000310112               0.000000000               0.000000000               0.000000000               0.000000000               0.000230837               0.001070957               0.000045038              -0.000047306               0.000372750               0.000325445               0.000000000               0.000000000               0.000000000               0.000000000               0.000212785               0.001145555               0.000045243              -0.000063400               0.000402981               0.000339581               0.000000000               0.000000000               0.000000000               0.000000000               0.000195247               0.001222139               0.000041948              -0.000079549               0.000433892               0.000354343               0.000000000               0.000000000               0.000000000               0.000000000               0.000179157               0.001302706               0.000035958              -0.000095654               0.000466116               0.000370462               0.000000000               0.000000000               0.000000000               0.000000000               0.000159927               0.001380023               0.000027742              -0.000112530               0.000497513               0.000384983               0.000000000               0.000000000               0.000000000               0.000000000               0.000138721               0.001454856               0.000019266              -0.000129836               0.000528226               0.000398390               0.000000000               0.000000000               0.000000000               0.000000000               0.000118559               0.001530118               0.000010544              -0.000146805               0.000558969               0.000412164               0.000000000               0.000000000               0.000000000               0.000000000               0.000100855               0.001606534               0.000003505              -0.000162996               0.000589838               0.000426842               0.000000000               0.000000000               0.000000000               0.000000000               0.000086871               0.001642535              -0.000001568              -0.000172740               0.000605086               0.000432346               0.000000000               0.000000000               0.000000000               0.000000000               0.000178630               0.000261618               0.000147741               0.000034284               0.000075777               0.000110061               0.000000000               0.000000000               0.000000000               0.000000000               0.000151588               0.000358816               0.000134713               0.000011993               0.000115606               0.000127599               0.000000000               0.000000000               0.000000000               0.000000000               0.000143467               0.000531184               0.000110635              -0.000012598               0.000181259               0.000168661               0.000000000               0.000000000               0.000000000               0.000000000               0.000158202               0.000667516               0.000084296              -0.000024114               0.000230541               0.000206427               0.000000000               0.000000000               0.000000000               0.000000000               0.000182170               0.000768275               0.000063011              -0.000027721               0.000265330               0.000237609               0.000000000               0.000000000               0.000000000               0.000000000               0.000214513               0.000847449               0.000046390              -0.000025489               0.000290976               0.000265488               0.000000000               0.000000000               0.000000000               0.000000000               0.000248358               0.000924140               0.000035249              -0.000022383               0.000315505               0.000293121               0.000000000               0.000000000               0.000000000               0.000000000               0.000267736               0.001005948               0.000034494              -0.000025342               0.000343760               0.000318418               0.000000000               0.000000000               0.000000000               0.000000000               0.000265812               0.001086345               0.000039553              -0.000036113               0.000374149               0.000338036               0.000000000               0.000000000               0.000000000               0.000000000               0.000255606               0.001162191               0.000043001              -0.000049422               0.000403867               0.000354445               0.000000000               0.000000000               0.000000000               0.000000000               0.000242909               0.001234062               0.000043582              -0.000063167               0.000432406               0.000369239               0.000000000               0.000000000               0.000000000               0.000000000               0.000229645               0.001309421               0.000040144              -0.000077560               0.000462323               0.000384762               0.000000000               0.000000000               0.000000000               0.000000000               0.000216537               0.001386472               0.000032163              -0.000092107               0.000492855               0.000400748               0.000000000               0.000000000               0.000000000               0.000000000               0.000200639               0.001460944               0.000023755              -0.000107378               0.000522769               0.000415391               0.000000000               0.000000000               0.000000000               0.000000000               0.000182611               0.001532964               0.000014835              -0.000123141               0.000552030               0.000428889               0.000000000               0.000000000               0.000000000               0.000000000               0.000164997               0.001607286               0.000006032              -0.000139036               0.000582102               0.000443066               0.000000000               0.000000000               0.000000000               0.000000000               0.000147284               0.001638016              -0.000001966              -0.000149520               0.000595840               0.000446320               0.000000000               0.000000000               0.000000000               0.000000000               0.000169410               0.000209992               0.000127164               0.000037279               0.000057570               0.000094850               0.000000000               0.000000000               0.000000000               0.000000000               0.000159774               0.000318600               0.000129692               0.000020090               0.000099502               0.000119592               0.000000000               0.000000000               0.000000000               0.000000000               0.000157527               0.000498405               0.000118265              -0.000003228               0.000167209               0.000163981               0.000000000               0.000000000               0.000000000               0.000000000               0.000170550               0.000636117               0.000094683              -0.000015558               0.000217223               0.000201664               0.000000000               0.000000000               0.000000000               0.000000000               0.000188618               0.000745106               0.000072590              -0.000022406               0.000255835               0.000233429               0.000000000               0.000000000               0.000000000               0.000000000               0.000216652               0.000841430               0.000053675              -0.000023934               0.000288452               0.000264518               0.000000000               0.000000000               0.000000000               0.000000000               0.000253590               0.000932599               0.000039403              -0.000021479               0.000318023               0.000296544               0.000000000               0.000000000               0.000000000               0.000000000               0.000284123               0.001019449               0.000032544              -0.000020885               0.000346775               0.000325890               0.000000000               0.000000000               0.000000000               0.000000000               0.000295867               0.001101917               0.000033110              -0.000026789               0.000376232               0.000349442               0.000000000               0.000000000               0.000000000               0.000000000               0.000294270               0.001178256               0.000036239              -0.000036931               0.000405058               0.000368128               0.000000000               0.000000000               0.000000000               0.000000000               0.000286895               0.001246677               0.000038368              -0.000048249               0.000431638               0.000383389               0.000000000               0.000000000               0.000000000               0.000000000               0.000276529               0.001314305               0.000037824              -0.000060589               0.000458294               0.000397704               0.000000000               0.000000000               0.000000000               0.000000000               0.000268382               0.001387498               0.000033479              -0.000072794               0.000486759               0.000413965               0.000000000               0.000000000               0.000000000               0.000000000               0.000260761               0.001463653               0.000026334              -0.000085171               0.000516270               0.000431099               0.000000000               0.000000000               0.000000000               0.000000000               0.000249146               0.001535660               0.000018251              -0.000098527               0.000544724               0.000446197               0.000000000               0.000000000               0.000000000               0.000000000               0.000234362               0.001605060               0.000009715              -0.000112747               0.000572597               0.000459850               0.000000000               0.000000000               0.000000000               0.000000000               0.000217132               0.001632952               0.000001895              -0.000122694               0.000585210               0.000462516               0.000000000               0.000000000               0.000000000               0.000000000               0.000148792               0.000163602               0.000101243               0.000035346               0.000042751               0.000078098               0.000000000               0.000000000               0.000000000               0.000000000               0.000163056               0.000275065               0.000115368               0.000026762               0.000082766               0.000109529               0.000000000               0.000000000               0.000000000               0.000000000               0.000174317               0.000449864               0.000115882               0.000009136               0.000146908               0.000156044               0.000000000               0.000000000               0.000000000               0.000000000               0.000188327               0.000591949               0.000097837              -0.000003371               0.000198438               0.000195067               0.000000000               0.000000000               0.000000000               0.000000000               0.000204721               0.000717621               0.000078515              -0.000012932               0.000243515               0.000230583               0.000000000               0.000000000               0.000000000               0.000000000               0.000230700               0.000832697               0.000060819              -0.000017574               0.000283421               0.000265846               0.000000000               0.000000000               0.000000000               0.000000000               0.000263042               0.000934130               0.000044900              -0.000018125               0.000317415               0.000299290               0.000000000               0.000000000               0.000000000               0.000000000               0.000294427               0.001023484               0.000031820              -0.000017525               0.000347000               0.000329474               0.000000000               0.000000000               0.000000000               0.000000000               0.000314878               0.001107079               0.000026011              -0.000020305               0.000375791               0.000355486               0.000000000               0.000000000               0.000000000               0.000000000               0.000324167               0.001186288               0.000026655              -0.000026723               0.000404333               0.000377610               0.000000000               0.000000000               0.000000000               0.000000000               0.000326411               0.001257720               0.000028636              -0.000034811               0.000430839               0.000396029               0.000000000               0.000000000               0.000000000               0.000000000               0.000323940               0.001323494               0.000030237              -0.000043959               0.000455813               0.000411854               0.000000000               0.000000000               0.000000000               0.000000000               0.000321117               0.001392870               0.000030142              -0.000053690               0.000482182               0.000428492               0.000000000               0.000000000               0.000000000               0.000000000               0.000319705               0.001465815               0.000025627              -0.000063337               0.000509713               0.000446375               0.000000000               0.000000000               0.000000000               0.000000000               0.000317422               0.001539447               0.000018595              -0.000073397               0.000537610               0.000464212               0.000000000               0.000000000               0.000000000               0.000000000               0.000312573               0.001611831               0.000010842              -0.000084264               0.000565359               0.000481096               0.000000000               0.000000000               0.000000000               0.000000000               0.000302046               0.001642606               0.000004511              -0.000092058               0.000578216               0.000486158               0.000000000               0.000000000               0.000000000               0.000000000               0.000124096               0.000123690               0.000072481               0.000031074               0.000030871               0.000061946               0.000000000               0.000000000               0.000000000               0.000000000               0.000161831               0.000229896               0.000092579               0.000031949               0.000065981               0.000097931               0.000000000               0.000000000               0.000000000               0.000000000               0.000191078               0.000398840               0.000101352               0.000021799               0.000125679               0.000147478               0.000000000               0.000000000               0.000000000               0.000000000               0.000210046               0.000549373               0.000090307               0.000010095               0.000179757               0.000189853               0.000000000               0.000000000               0.000000000               0.000000000               0.000228514               0.000685894               0.000076662              -0.000000044               0.000228644               0.000228600               0.000000000               0.000000000               0.000000000               0.000000000               0.000250277               0.000810320               0.000061803              -0.000007436               0.000272583               0.000265146               0.000000000               0.000000000               0.000000000               0.000000000               0.000275190               0.000919021               0.000045071              -0.000011682               0.000310231               0.000298550               0.000000000               0.000000000               0.000000000               0.000000000               0.000302973               0.001015535               0.000029205              -0.000013327               0.000342951               0.000329624               0.000000000               0.000000000               0.000000000               0.000000000               0.000329492               0.001106638               0.000019454              -0.000014770               0.000373799               0.000359029               0.000000000               0.000000000               0.000000000               0.000000000               0.000348424               0.001191900               0.000017849              -0.000018328               0.000403405               0.000385077               0.000000000               0.000000000               0.000000000               0.000000000               0.000360367               0.001269057               0.000018823              -0.000023494               0.000430846               0.000407352               0.000000000               0.000000000               0.000000000               0.000000000               0.000367303               0.001337700               0.000020248              -0.000029474               0.000455720               0.000426246               0.000000000               0.000000000               0.000000000               0.000000000               0.000370506               0.001401469               0.000021519              -0.000036244               0.000479233               0.000442989               0.000000000               0.000000000               0.000000000               0.000000000               0.000374278               0.001467802               0.000019703              -0.000043121               0.000503636               0.000460515               0.000000000               0.000000000               0.000000000               0.000000000               0.000381566               0.001541500               0.000015332              -0.000049600               0.000530361               0.000480761               0.000000000               0.000000000               0.000000000               0.000000000               0.000389150               0.001616411               0.000008467              -0.000056120               0.000557505               0.000501385               0.000000000               0.000000000               0.000000000               0.000000000               0.000388596               0.001650554               0.000003089              -0.000060596               0.000570378               0.000509782               0.000000000               0.000000000               0.000000000               0.000000000               0.000100899               0.000095232               0.000045897               0.000025933               0.000023099               0.000049032               0.000000000               0.000000000               0.000000000               0.000000000               0.000157963               0.000193773               0.000064348               0.000035014               0.000052919               0.000087933               0.000000000               0.000000000               0.000000000               0.000000000               0.000205205               0.000356346               0.000075321               0.000032408               0.000107978               0.000140386               0.000000000               0.000000000               0.000000000               0.000000000               0.000233161               0.000509483               0.000070584               0.000023750               0.000161910               0.000185659               0.000000000               0.000000000               0.000000000               0.000000000               0.000253113               0.000651368               0.000061423               0.000013496               0.000212622               0.000226118               0.000000000               0.000000000               0.000000000               0.000000000               0.000269560               0.000781540               0.000050090               0.000003392               0.000259380               0.000262772               0.000000000               0.000000000               0.000000000               0.000000000               0.000288795               0.000897758               0.000037115              -0.000003922               0.000300557               0.000296635               0.000000000               0.000000000               0.000000000               0.000000000               0.000313132               0.001004835               0.000024592              -0.000008180               0.000337668               0.000329488               0.000000000               0.000000000               0.000000000               0.000000000               0.000340882               0.001104095               0.000014986              -0.000010181               0.000371422               0.000361241               0.000000000               0.000000000               0.000000000               0.000000000               0.000365590               0.001194197               0.000010752              -0.000012178               0.000402121               0.000389943               0.000000000               0.000000000               0.000000000               0.000000000               0.000384963               0.001275222               0.000009921              -0.000015042               0.000430084               0.000415042               0.000000000               0.000000000               0.000000000               0.000000000               0.000400116               0.001347176               0.000009994              -0.000018353               0.000455172               0.000436818               0.000000000               0.000000000               0.000000000               0.000000000               0.000410516               0.001408239               0.000010762              -0.000022086               0.000476771               0.000454684               0.000000000               0.000000000               0.000000000               0.000000000               0.000421092               0.001470942               0.000010834              -0.000025958               0.000498962               0.000473004               0.000000000               0.000000000               0.000000000               0.000000000               0.000435307               0.001542360               0.000009053              -0.000029555               0.000523966               0.000494412               0.000000000               0.000000000               0.000000000               0.000000000               0.000450699               0.001613546               0.000004638              -0.000032681               0.000548737               0.000516056               0.000000000               0.000000000               0.000000000               0.000000000               0.000457591               0.001647569               0.000001132              -0.000034349               0.000560634               0.000526285               0.000000000               0.000000000               0.000000000               0.000000000               0.000083450               0.000077850               0.000022416               0.000021562               0.000018762               0.000040324               0.000000000               0.000000000               0.000000000               0.000000000               0.000155792               0.000169788               0.000033161               0.000037198               0.000044196               0.000081394               0.000000000               0.000000000               0.000000000               0.000000000               0.000217097               0.000326895               0.000040323               0.000040549               0.000095448               0.000135997               0.000000000               0.000000000               0.000000000               0.000000000               0.000249497               0.000480438               0.000038752               0.000033506               0.000148976               0.000182482               0.000000000               0.000000000               0.000000000               0.000000000               0.000269266               0.000624115               0.000033814               0.000022960               0.000200383               0.000223343               0.000000000               0.000000000               0.000000000               0.000000000               0.000284716               0.000757925               0.000028050               0.000012028               0.000248630               0.000260658               0.000000000               0.000000000               0.000000000               0.000000000               0.000301573               0.000881934               0.000021382               0.000002848               0.000293026               0.000295874               0.000000000               0.000000000               0.000000000               0.000000000               0.000322980               0.000997134               0.000014141              -0.000003524               0.000333549               0.000330025               0.000000000               0.000000000               0.000000000               0.000000000               0.000347922               0.001099119               0.000008005              -0.000006919               0.000368676               0.000361757               0.000000000               0.000000000               0.000000000               0.000000000               0.000374717               0.001191765               0.000004735              -0.000008452               0.000400068               0.000391617               0.000000000               0.000000000               0.000000000               0.000000000               0.000399665               0.001276168               0.000003756              -0.000009647               0.000428601               0.000418954               0.000000000               0.000000000               0.000000000               0.000000000               0.000420871               0.001350264               0.000003293              -0.000010956               0.000453735               0.000442779               0.000000000               0.000000000               0.000000000               0.000000000               0.000437397               0.001412163               0.000003363              -0.000012497               0.000474882               0.000462385               0.000000000               0.000000000               0.000000000               0.000000000               0.000452948               0.001473664               0.000003693              -0.000014352               0.000496000               0.000481648               0.000000000               0.000000000               0.000000000               0.000000000               0.000469962               0.001540791               0.000002919              -0.000016363               0.000519046               0.000502683               0.000000000               0.000000000               0.000000000               0.000000000               0.000487684               0.001608302               0.000001176              -0.000018156               0.000542147               0.000523991               0.000000000               0.000000000               0.000000000               0.000000000               0.000496466               0.001642037              -0.000000022              -0.000019080               0.000553700               0.000534620               0.000000000               0.000000000               0.000000000               0.000000000               0.000000000               0.000000000               0.000000000               0.000000000               0.000000000               0.000000000               0.000000000               0.000000000               0.000000000               0.000000000               0.000000000               0.000000000               0.000000000               0.000000000               0.000000000               0.000000000               0.000000000               0.000000000               0.000000000               0.000000000               0.000000000               0.000000000               0.000000000               0.000000000               0.000000000               0.000000000               0.000000000               0.000000000               0.000000000               0.000000000               0.000000000               0.000000000               0.000000000               0.000000000               0.000000000               0.000000000               0.000000000               0.000000000               0.000000000               0.000000000               0.000000000               0.000000000               0.000000000               0.000000000               0.000000000               0.000000000               0.000000000               0.000000000               0.000000000               0.000000000               0.000000000               0.000000000               0.000000000               0.000000000               0.000000000               0.000000000               0.000000000               0.000000000               0.000000000               0.000000000               0.000000000               0.000000000               0.000000000               0.000000000               0.000000000               0.000000000               0.000000000               0.000000000               0.000000000               0.000000000               0.000000000               0.000000000               0.000000000               0.000000000               0.000000000               0.000000000               0.000000000               0.000000000               0.000000000               0.000000000               0.000000000               0.000000000               0.000000000               0.000000000               0.000000000               0.000000000               0.000000000               0.000000000               0.000000000               0.000000000               0.000000000               0.000000000               0.000000000               0.000000000               0.000000000               0.000000000               0.000000000               0.000000000               0.000000000               0.000000000               0.000000000               0.000000000               0.000000000               0.000000000               0.000000000               0.000000000               0.000000000               0.000000000               0.000000000               0.000000000               0.000000000               0.000000000               0.000000000               0.000000000               0.000000000               0.000000000               0.000000000               0.000000000               0.000000000               0.000000000               0.000000000               0.000000000               0.000000000               0.000000000               0.000000000               0.000000000               0.000000000               0.000000000               0.000000000               0.000000000               0.000000000               0.000000000               0.000000000               0.000000000               0.000000000               0.000000000               0.000000000               0.000000000               0.000000000               0.000000000               0.000000000               0.000000000               0.000000000               0.000000000               0.000000000               0.000000000               0.000000000               0.000000000               0.000000000               0.000000000               0.000000000               0.000000000               0.000000000               0.000000000               0.000000000               0.000000000               0.000000000               0.000000000               0.000000000               0.000000000               0.000000000               0.000000000               0.000000000               0.000000000               0.000000000               0.000000000               0.000000000               0.000000000               0.000000000               0.000000000 </DataArray>
</PointData>
</Piece>
</UnstructuredGrid> </VTKFile>
