<?xml version="1.0"?>
<VTKFile type="UnstructuredGrid" version="0.1">
<UnstructuredGrid>
<Piece NumberOfPoints="      1156" NumberOfCells="      1024">
<Points>
<DataArray type="Float64"                                    Name="coordinates"                                                      NumberOfComponents=" 3" format="ascii">
              0.133000000               0.000000000               0.000000000               0.155937500               0.000000000               0.000000000               0.178875000               0.000000000               0.000000000               0.201812500               0.000000000               0.000000000               0.224750000               0.000000000               0.000000000               0.247687500               0.000000000               0.000000000               0.270625000               0.000000000               0.000000000               0.293562500               0.000000000               0.000000000               0.316500000               0.000000000               0.000000000               0.339437500               0.000000000               0.000000000               0.362375000               0.000000000               0.000000000               0.385312500               0.000000000               0.000000000               0.408250000               0.000000000               0.000000000               0.431187500               0.000000000               0.000000000               0.454125000               0.000000000               0.000000000               0.477062500               0.000000000               0.000000000               0.500000000               0.000000000               0.000000000               0.132359569               0.013036280               0.000000000               0.155337096               0.016127762               0.000000000               0.178314623               0.019219245               0.000000000               0.201292150               0.022310727               0.000000000               0.224269676               0.025402210               0.000000000               0.247247203               0.028493692               0.000000000               0.270224730               0.031585175               0.000000000               0.293202257               0.034676657               0.000000000               0.316179784               0.037768140               0.000000000               0.339157311               0.040859622               0.000000000               0.362134838               0.043951105               0.000000000               0.385112365               0.047042587               0.000000000               0.408089892               0.050134070               0.000000000               0.431067419               0.053225552               0.000000000               0.454044946               0.056317035               0.000000000               0.477022473               0.059408517               0.000000000               0.500000000               0.062500000               0.000000000               0.130444442               0.025947013               0.000000000               0.153541665               0.032137825               0.000000000               0.176638887               0.038328636               0.000000000               0.199736109               0.044519448               0.000000000               0.222833332               0.050710260               0.000000000               0.245930554               0.056901071               0.000000000               0.269027776               0.063091883               0.000000000               0.292124999               0.069282695               0.000000000               0.315222221               0.075473506               0.000000000               0.338319444               0.081664318               0.000000000               0.361416666               0.087855130               0.000000000               0.384513888               0.094045942               0.000000000               0.407611111               0.100236753               0.000000000               0.430708333               0.106427565               0.000000000               0.453805555               0.112618377               0.000000000               0.476902778               0.118809188               0.000000000               0.500000000               0.125000000               0.000000000               0.127273065               0.038607862               0.000000000               0.150568498               0.047913621               0.000000000               0.173863932               0.057219379               0.000000000               0.197159365               0.066525138               0.000000000               0.220454798               0.075830897               0.000000000               0.243750232               0.085136655               0.000000000               0.267045665               0.094442414               0.000000000               0.290341099               0.103748172               0.000000000               0.313636532               0.113053931               0.000000000               0.336931966               0.122359690               0.000000000               0.360227399               0.131665448               0.000000000               0.383522833               0.140971207               0.000000000               0.406818266               0.150276966               0.000000000               0.430113700               0.159582724               0.000000000               0.453409133               0.168888483               0.000000000               0.476704567               0.178194241               0.000000000               0.500000000               0.187500000               0.000000000               0.122875978               0.050896897               0.000000000               0.146446229               0.063340840               0.000000000               0.170016481               0.075784784               0.000000000               0.193586732               0.088228728               0.000000000               0.217156983               0.100672672               0.000000000               0.240727235               0.113116616               0.000000000               0.264297486               0.125560560               0.000000000               0.287867738               0.138004504               0.000000000               0.311437989               0.150448448               0.000000000               0.335008240               0.162892392               0.000000000               0.358578492               0.175336336               0.000000000               0.382148743               0.187780280               0.000000000               0.405718994               0.200224224               0.000000000               0.429289246               0.212668168               0.000000000               0.452859497               0.225112112               0.000000000               0.476429749               0.237556056               0.000000000               0.500000000               0.250000000               0.000000000               0.117295528               0.062695766               0.000000000               0.141214558               0.078308531               0.000000000               0.165133587               0.093921295               0.000000000               0.189052617               0.109534060               0.000000000               0.212971646               0.125146824               0.000000000               0.236890676               0.140759589               0.000000000               0.260809705               0.156372354               0.000000000               0.284728735               0.171985118               0.000000000               0.308647764               0.187597883               0.000000000               0.332566794               0.203210648               0.000000000               0.356485823               0.218823412               0.000000000               0.380404853               0.234436177               0.000000000               0.404323882               0.250048941               0.000000000               0.428242912               0.265661706               0.000000000               0.452161941               0.281274471               0.000000000               0.476080971               0.296887235               0.000000000               0.500000000               0.312500000               0.000000000               0.110585458               0.073890841               0.000000000               0.134923867               0.092710163               0.000000000               0.159262276               0.111529486               0.000000000               0.183600685               0.130348808               0.000000000               0.207939094               0.149168131               0.000000000               0.232277503               0.167987453               0.000000000               0.256615912               0.186806776               0.000000000               0.280954320               0.205626098               0.000000000               0.305292729               0.224445420               0.000000000               0.329631138               0.243264743               0.000000000               0.353969547               0.262084065               0.000000000               0.378307956               0.280903388               0.000000000               0.402646365               0.299722710               0.000000000               0.426984773               0.318542033               0.000000000               0.451323182               0.337361355               0.000000000               0.475661591               0.356180678               0.000000000               0.500000000               0.375000000               0.000000000               0.102810390               0.084374307               0.000000000               0.127634741               0.106444663               0.000000000               0.152459092               0.128515018               0.000000000               0.177283442               0.150585374               0.000000000               0.202107793               0.172655730               0.000000000               0.226932143               0.194726086               0.000000000               0.251756494               0.216796442               0.000000000               0.276580845               0.238866798               0.000000000               0.301405195               0.260937153               0.000000000               0.326229546               0.283007509               0.000000000               0.351053896               0.305077865               0.000000000               0.375878247               0.327148221               0.000000000               0.400702598               0.349218577               0.000000000               0.425526948               0.371288933               0.000000000               0.450351299               0.393359288               0.000000000               0.475175649               0.415429644               0.000000000               0.500000000               0.437500000               0.000000000               0.094045202               0.094045202               0.000000000               0.119417377               0.119417377               0.000000000               0.144789552               0.144789552               0.000000000               0.170161727               0.170161727               0.000000000               0.195533901               0.195533901               0.000000000               0.220906076               0.220906076               0.000000000               0.246278251               0.246278251               0.000000000               0.271650426               0.271650426               0.000000000               0.297022601               0.297022601               0.000000000               0.322394776               0.322394776               0.000000000               0.347766951               0.347766951               0.000000000               0.373139126               0.373139126               0.000000000               0.398511300               0.398511300               0.000000000               0.423883475               0.423883475               0.000000000               0.449255650               0.449255650               0.000000000               0.474627825               0.474627825               0.000000000               0.500000000               0.500000000               0.000000000               0.084374307               0.102810390               0.000000000               0.106444663               0.127634741               0.000000000               0.128515018               0.152459092               0.000000000               0.150585374               0.177283442               0.000000000               0.172655730               0.202107793               0.000000000               0.194726086               0.226932143               0.000000000               0.216796442               0.251756494               0.000000000               0.238866798               0.276580845               0.000000000               0.260937153               0.301405195               0.000000000               0.283007509               0.326229546               0.000000000               0.305077865               0.351053896               0.000000000               0.327148221               0.375878247               0.000000000               0.349218577               0.400702598               0.000000000               0.371288933               0.425526948               0.000000000               0.393359288               0.450351299               0.000000000               0.415429644               0.475175649               0.000000000               0.437500000               0.500000000               0.000000000               0.073890841               0.110585458               0.000000000               0.092710163               0.134923867               0.000000000               0.111529486               0.159262276               0.000000000               0.130348808               0.183600685               0.000000000               0.149168131               0.207939094               0.000000000               0.167987453               0.232277503               0.000000000               0.186806776               0.256615912               0.000000000               0.205626098               0.280954320               0.000000000               0.224445420               0.305292729               0.000000000               0.243264743               0.329631138               0.000000000               0.262084065               0.353969547               0.000000000               0.280903388               0.378307956               0.000000000               0.299722710               0.402646365               0.000000000               0.318542033               0.426984773               0.000000000               0.337361355               0.451323182               0.000000000               0.356180678               0.475661591               0.000000000               0.375000000               0.500000000               0.000000000               0.062695766               0.117295528               0.000000000               0.078308531               0.141214558               0.000000000               0.093921295               0.165133587               0.000000000               0.109534060               0.189052617               0.000000000               0.125146824               0.212971646               0.000000000               0.140759589               0.236890676               0.000000000               0.156372354               0.260809705               0.000000000               0.171985118               0.284728735               0.000000000               0.187597883               0.308647764               0.000000000               0.203210648               0.332566794               0.000000000               0.218823412               0.356485823               0.000000000               0.234436177               0.380404853               0.000000000               0.250048941               0.404323882               0.000000000               0.265661706               0.428242912               0.000000000               0.281274471               0.452161941               0.000000000               0.296887235               0.476080971               0.000000000               0.312500000               0.500000000               0.000000000               0.050896897               0.122875978               0.000000000               0.063340840               0.146446229               0.000000000               0.075784784               0.170016481               0.000000000               0.088228728               0.193586732               0.000000000               0.100672672               0.217156983               0.000000000               0.113116616               0.240727235               0.000000000               0.125560560               0.264297486               0.000000000               0.138004504               0.287867738               0.000000000               0.150448448               0.311437989               0.000000000               0.162892392               0.335008240               0.000000000               0.175336336               0.358578492               0.000000000               0.187780280               0.382148743               0.000000000               0.200224224               0.405718994               0.000000000               0.212668168               0.429289246               0.000000000               0.225112112               0.452859497               0.000000000               0.237556056               0.476429749               0.000000000               0.250000000               0.500000000               0.000000000               0.038607862               0.127273065               0.000000000               0.047913621               0.150568498               0.000000000               0.057219379               0.173863932               0.000000000               0.066525138               0.197159365               0.000000000               0.075830897               0.220454798               0.000000000               0.085136655               0.243750232               0.000000000               0.094442414               0.267045665               0.000000000               0.103748172               0.290341099               0.000000000               0.113053931               0.313636532               0.000000000               0.122359690               0.336931966               0.000000000               0.131665448               0.360227399               0.000000000               0.140971207               0.383522833               0.000000000               0.150276966               0.406818266               0.000000000               0.159582724               0.430113700               0.000000000               0.168888483               0.453409133               0.000000000               0.178194241               0.476704567               0.000000000               0.187500000               0.500000000               0.000000000               0.025947013               0.130444442               0.000000000               0.032137825               0.153541665               0.000000000               0.038328636               0.176638887               0.000000000               0.044519448               0.199736109               0.000000000               0.050710260               0.222833332               0.000000000               0.056901071               0.245930554               0.000000000               0.063091883               0.269027776               0.000000000               0.069282695               0.292124999               0.000000000               0.075473506               0.315222221               0.000000000               0.081664318               0.338319444               0.000000000               0.087855130               0.361416666               0.000000000               0.094045942               0.384513888               0.000000000               0.100236753               0.407611111               0.000000000               0.106427565               0.430708333               0.000000000               0.112618377               0.453805555               0.000000000               0.118809188               0.476902778               0.000000000               0.125000000               0.500000000               0.000000000               0.013036280               0.132359569               0.000000000               0.016127762               0.155337096               0.000000000               0.019219245               0.178314623               0.000000000               0.022310727               0.201292150               0.000000000               0.025402210               0.224269676               0.000000000               0.028493692               0.247247203               0.000000000               0.031585175               0.270224730               0.000000000               0.034676657               0.293202257               0.000000000               0.037768140               0.316179784               0.000000000               0.040859622               0.339157311               0.000000000               0.043951105               0.362134838               0.000000000               0.047042587               0.385112365               0.000000000               0.050134070               0.408089892               0.000000000               0.053225552               0.431067419               0.000000000               0.056317035               0.454044946               0.000000000               0.059408517               0.477022473               0.000000000               0.062500000               0.500000000               0.000000000               0.000000000               0.133000000               0.000000000               0.000000000               0.155937500               0.000000000               0.000000000               0.178875000               0.000000000               0.000000000               0.201812500               0.000000000               0.000000000               0.224750000               0.000000000               0.000000000               0.247687500               0.000000000               0.000000000               0.270625000               0.000000000               0.000000000               0.293562500               0.000000000               0.000000000               0.316500000               0.000000000               0.000000000               0.339437500               0.000000000               0.000000000               0.362375000               0.000000000               0.000000000               0.385312500               0.000000000               0.000000000               0.408250000               0.000000000               0.000000000               0.431187500               0.000000000               0.000000000               0.454125000               0.000000000               0.000000000               0.477062500               0.000000000               0.000000000               0.500000000               0.000000000               0.133000000               0.000000000               0.000000000               0.155937500               0.000000000               0.000000000               0.178875000               0.000000000               0.000000000               0.201812500               0.000000000               0.000000000               0.224750000               0.000000000               0.000000000               0.247687500               0.000000000               0.000000000               0.270625000               0.000000000               0.000000000               0.293562500               0.000000000               0.000000000               0.316500000               0.000000000               0.000000000               0.339437500               0.000000000               0.000000000               0.362375000               0.000000000               0.000000000               0.385312500               0.000000000               0.000000000               0.408250000               0.000000000               0.000000000               0.431187500               0.000000000               0.000000000               0.454125000               0.000000000               0.000000000               0.477062500               0.000000000               0.000000000               0.500000000               0.000000000               0.000000000               0.132359569              -0.013036280               0.000000000               0.155337096              -0.016127762               0.000000000               0.178314623              -0.019219245               0.000000000               0.201292150              -0.022310727               0.000000000               0.224269676              -0.025402210               0.000000000               0.247247203              -0.028493692               0.000000000               0.270224730              -0.031585175               0.000000000               0.293202257              -0.034676657               0.000000000               0.316179784              -0.037768140               0.000000000               0.339157311              -0.040859622               0.000000000               0.362134838              -0.043951105               0.000000000               0.385112365              -0.047042587               0.000000000               0.408089892              -0.050134070               0.000000000               0.431067419              -0.053225552               0.000000000               0.454044946              -0.056317035               0.000000000               0.477022473              -0.059408517               0.000000000               0.500000000              -0.062500000               0.000000000               0.130444442              -0.025947013               0.000000000               0.153541665              -0.032137825               0.000000000               0.176638887              -0.038328636               0.000000000               0.199736109              -0.044519448               0.000000000               0.222833332              -0.050710260               0.000000000               0.245930554              -0.056901071               0.000000000               0.269027776              -0.063091883               0.000000000               0.292124999              -0.069282695               0.000000000               0.315222221              -0.075473506               0.000000000               0.338319444              -0.081664318               0.000000000               0.361416666              -0.087855130               0.000000000               0.384513888              -0.094045942               0.000000000               0.407611111              -0.100236753               0.000000000               0.430708333              -0.106427565               0.000000000               0.453805555              -0.112618377               0.000000000               0.476902778              -0.118809188               0.000000000               0.500000000              -0.125000000               0.000000000               0.127273065              -0.038607862               0.000000000               0.150568498              -0.047913621               0.000000000               0.173863932              -0.057219379               0.000000000               0.197159365              -0.066525138               0.000000000               0.220454798              -0.075830897               0.000000000               0.243750232              -0.085136655               0.000000000               0.267045665              -0.094442414               0.000000000               0.290341099              -0.103748172               0.000000000               0.313636532              -0.113053931               0.000000000               0.336931966              -0.122359690               0.000000000               0.360227399              -0.131665448               0.000000000               0.383522833              -0.140971207               0.000000000               0.406818266              -0.150276966               0.000000000               0.430113700              -0.159582724               0.000000000               0.453409133              -0.168888483               0.000000000               0.476704567              -0.178194241               0.000000000               0.500000000              -0.187500000               0.000000000               0.122875978              -0.050896897               0.000000000               0.146446229              -0.063340840               0.000000000               0.170016481              -0.075784784               0.000000000               0.193586732              -0.088228728               0.000000000               0.217156983              -0.100672672               0.000000000               0.240727235              -0.113116616               0.000000000               0.264297486              -0.125560560               0.000000000               0.287867738              -0.138004504               0.000000000               0.311437989              -0.150448448               0.000000000               0.335008240              -0.162892392               0.000000000               0.358578492              -0.175336336               0.000000000               0.382148743              -0.187780280               0.000000000               0.405718994              -0.200224224               0.000000000               0.429289246              -0.212668168               0.000000000               0.452859497              -0.225112112               0.000000000               0.476429749              -0.237556056               0.000000000               0.500000000              -0.250000000               0.000000000               0.117295528              -0.062695766               0.000000000               0.141214558              -0.078308531               0.000000000               0.165133587              -0.093921295               0.000000000               0.189052617              -0.109534060               0.000000000               0.212971646              -0.125146824               0.000000000               0.236890676              -0.140759589               0.000000000               0.260809705              -0.156372354               0.000000000               0.284728735              -0.171985118               0.000000000               0.308647764              -0.187597883               0.000000000               0.332566794              -0.203210648               0.000000000               0.356485823              -0.218823412               0.000000000               0.380404853              -0.234436177               0.000000000               0.404323882              -0.250048941               0.000000000               0.428242912              -0.265661706               0.000000000               0.452161941              -0.281274471               0.000000000               0.476080971              -0.296887235               0.000000000               0.500000000              -0.312500000               0.000000000               0.110585458              -0.073890841               0.000000000               0.134923867              -0.092710163               0.000000000               0.159262276              -0.111529486               0.000000000               0.183600685              -0.130348808               0.000000000               0.207939094              -0.149168131               0.000000000               0.232277503              -0.167987453               0.000000000               0.256615912              -0.186806776               0.000000000               0.280954320              -0.205626098               0.000000000               0.305292729              -0.224445420               0.000000000               0.329631138              -0.243264743               0.000000000               0.353969547              -0.262084065               0.000000000               0.378307956              -0.280903388               0.000000000               0.402646365              -0.299722710               0.000000000               0.426984773              -0.318542033               0.000000000               0.451323182              -0.337361355               0.000000000               0.475661591              -0.356180678               0.000000000               0.500000000              -0.375000000               0.000000000               0.102810390              -0.084374307               0.000000000               0.127634741              -0.106444663               0.000000000               0.152459092              -0.128515018               0.000000000               0.177283442              -0.150585374               0.000000000               0.202107793              -0.172655730               0.000000000               0.226932143              -0.194726086               0.000000000               0.251756494              -0.216796442               0.000000000               0.276580845              -0.238866798               0.000000000               0.301405195              -0.260937153               0.000000000               0.326229546              -0.283007509               0.000000000               0.351053896              -0.305077865               0.000000000               0.375878247              -0.327148221               0.000000000               0.400702598              -0.349218577               0.000000000               0.425526948              -0.371288933               0.000000000               0.450351299              -0.393359288               0.000000000               0.475175649              -0.415429644               0.000000000               0.500000000              -0.437500000               0.000000000               0.094045202              -0.094045202               0.000000000               0.119417377              -0.119417377               0.000000000               0.144789552              -0.144789552               0.000000000               0.170161727              -0.170161727               0.000000000               0.195533901              -0.195533901               0.000000000               0.220906076              -0.220906076               0.000000000               0.246278251              -0.246278251               0.000000000               0.271650426              -0.271650426               0.000000000               0.297022601              -0.297022601               0.000000000               0.322394776              -0.322394776               0.000000000               0.347766951              -0.347766951               0.000000000               0.373139126              -0.373139126               0.000000000               0.398511300              -0.398511300               0.000000000               0.423883475              -0.423883475               0.000000000               0.449255650              -0.449255650               0.000000000               0.474627825              -0.474627825               0.000000000               0.500000000              -0.500000000               0.000000000               0.084374307              -0.102810390               0.000000000               0.106444663              -0.127634741               0.000000000               0.128515018              -0.152459092               0.000000000               0.150585374              -0.177283442               0.000000000               0.172655730              -0.202107793               0.000000000               0.194726086              -0.226932143               0.000000000               0.216796442              -0.251756494               0.000000000               0.238866798              -0.276580845               0.000000000               0.260937153              -0.301405195               0.000000000               0.283007509              -0.326229546               0.000000000               0.305077865              -0.351053896               0.000000000               0.327148221              -0.375878247               0.000000000               0.349218577              -0.400702598               0.000000000               0.371288933              -0.425526948               0.000000000               0.393359288              -0.450351299               0.000000000               0.415429644              -0.475175649               0.000000000               0.437500000              -0.500000000               0.000000000               0.073890841              -0.110585458               0.000000000               0.092710163              -0.134923867               0.000000000               0.111529486              -0.159262276               0.000000000               0.130348808              -0.183600685               0.000000000               0.149168131              -0.207939094               0.000000000               0.167987453              -0.232277503               0.000000000               0.186806776              -0.256615912               0.000000000               0.205626098              -0.280954320               0.000000000               0.224445420              -0.305292729               0.000000000               0.243264743              -0.329631138               0.000000000               0.262084065              -0.353969547               0.000000000               0.280903388              -0.378307956               0.000000000               0.299722710              -0.402646365               0.000000000               0.318542033              -0.426984773               0.000000000               0.337361355              -0.451323182               0.000000000               0.356180678              -0.475661591               0.000000000               0.375000000              -0.500000000               0.000000000               0.062695766              -0.117295528               0.000000000               0.078308531              -0.141214558               0.000000000               0.093921295              -0.165133587               0.000000000               0.109534060              -0.189052617               0.000000000               0.125146824              -0.212971646               0.000000000               0.140759589              -0.236890676               0.000000000               0.156372354              -0.260809705               0.000000000               0.171985118              -0.284728735               0.000000000               0.187597883              -0.308647764               0.000000000               0.203210648              -0.332566794               0.000000000               0.218823412              -0.356485823               0.000000000               0.234436177              -0.380404853               0.000000000               0.250048941              -0.404323882               0.000000000               0.265661706              -0.428242912               0.000000000               0.281274471              -0.452161941               0.000000000               0.296887235              -0.476080971               0.000000000               0.312500000              -0.500000000               0.000000000               0.050896897              -0.122875978               0.000000000               0.063340840              -0.146446229               0.000000000               0.075784784              -0.170016481               0.000000000               0.088228728              -0.193586732               0.000000000               0.100672672              -0.217156983               0.000000000               0.113116616              -0.240727235               0.000000000               0.125560560              -0.264297486               0.000000000               0.138004504              -0.287867738               0.000000000               0.150448448              -0.311437989               0.000000000               0.162892392              -0.335008240               0.000000000               0.175336336              -0.358578492               0.000000000               0.187780280              -0.382148743               0.000000000               0.200224224              -0.405718994               0.000000000               0.212668168              -0.429289246               0.000000000               0.225112112              -0.452859497               0.000000000               0.237556056              -0.476429749               0.000000000               0.250000000              -0.500000000               0.000000000               0.038607862              -0.127273065               0.000000000               0.047913621              -0.150568498               0.000000000               0.057219379              -0.173863932               0.000000000               0.066525138              -0.197159365               0.000000000               0.075830897              -0.220454798               0.000000000               0.085136655              -0.243750232               0.000000000               0.094442414              -0.267045665               0.000000000               0.103748172              -0.290341099               0.000000000               0.113053931              -0.313636532               0.000000000               0.122359690              -0.336931966               0.000000000               0.131665448              -0.360227399               0.000000000               0.140971207              -0.383522833               0.000000000               0.150276966              -0.406818266               0.000000000               0.159582724              -0.430113700               0.000000000               0.168888483              -0.453409133               0.000000000               0.178194241              -0.476704567               0.000000000               0.187500000              -0.500000000               0.000000000               0.025947013              -0.130444442               0.000000000               0.032137825              -0.153541665               0.000000000               0.038328636              -0.176638887               0.000000000               0.044519448              -0.199736109               0.000000000               0.050710260              -0.222833332               0.000000000               0.056901071              -0.245930554               0.000000000               0.063091883              -0.269027776               0.000000000               0.069282695              -0.292124999               0.000000000               0.075473506              -0.315222221               0.000000000               0.081664318              -0.338319444               0.000000000               0.087855130              -0.361416666               0.000000000               0.094045942              -0.384513888               0.000000000               0.100236753              -0.407611111               0.000000000               0.106427565              -0.430708333               0.000000000               0.112618377              -0.453805555               0.000000000               0.118809188              -0.476902778               0.000000000               0.125000000              -0.500000000               0.000000000               0.013036280              -0.132359569               0.000000000               0.016127762              -0.155337096               0.000000000               0.019219245              -0.178314623               0.000000000               0.022310727              -0.201292150               0.000000000               0.025402210              -0.224269676               0.000000000               0.028493692              -0.247247203               0.000000000               0.031585175              -0.270224730               0.000000000               0.034676657              -0.293202257               0.000000000               0.037768140              -0.316179784               0.000000000               0.040859622              -0.339157311               0.000000000               0.043951105              -0.362134838               0.000000000               0.047042587              -0.385112365               0.000000000               0.050134070              -0.408089892               0.000000000               0.053225552              -0.431067419               0.000000000               0.056317035              -0.454044946               0.000000000               0.059408517              -0.477022473               0.000000000               0.062500000              -0.500000000               0.000000000               0.000000000              -0.133000000               0.000000000               0.000000000              -0.155937500               0.000000000               0.000000000              -0.178875000               0.000000000               0.000000000              -0.201812500               0.000000000               0.000000000              -0.224750000               0.000000000               0.000000000              -0.247687500               0.000000000               0.000000000              -0.270625000               0.000000000               0.000000000              -0.293562500               0.000000000               0.000000000              -0.316500000               0.000000000               0.000000000              -0.339437500               0.000000000               0.000000000              -0.362375000               0.000000000               0.000000000              -0.385312500               0.000000000               0.000000000              -0.408250000               0.000000000               0.000000000              -0.431187500               0.000000000               0.000000000              -0.454125000               0.000000000               0.000000000              -0.477062500               0.000000000               0.000000000              -0.500000000               0.000000000              -0.133000000               0.000000000               0.000000000              -0.155937500               0.000000000               0.000000000              -0.178875000               0.000000000               0.000000000              -0.201812500               0.000000000               0.000000000              -0.224750000               0.000000000               0.000000000              -0.247687500               0.000000000               0.000000000              -0.270625000               0.000000000               0.000000000              -0.293562500               0.000000000               0.000000000              -0.316500000               0.000000000               0.000000000              -0.339437500               0.000000000               0.000000000              -0.362375000               0.000000000               0.000000000              -0.385312500               0.000000000               0.000000000              -0.408250000               0.000000000               0.000000000              -0.431187500               0.000000000               0.000000000              -0.454125000               0.000000000               0.000000000              -0.477062500               0.000000000               0.000000000              -0.500000000               0.000000000               0.000000000              -0.132359569              -0.013036280               0.000000000              -0.155337096              -0.016127762               0.000000000              -0.178314623              -0.019219245               0.000000000              -0.201292150              -0.022310727               0.000000000              -0.224269676              -0.025402210               0.000000000              -0.247247203              -0.028493692               0.000000000              -0.270224730              -0.031585175               0.000000000              -0.293202257              -0.034676657               0.000000000              -0.316179784              -0.037768140               0.000000000              -0.339157311              -0.040859622               0.000000000              -0.362134838              -0.043951105               0.000000000              -0.385112365              -0.047042587               0.000000000              -0.408089892              -0.050134070               0.000000000              -0.431067419              -0.053225552               0.000000000              -0.454044946              -0.056317035               0.000000000              -0.477022473              -0.059408517               0.000000000              -0.500000000              -0.062500000               0.000000000              -0.130444442              -0.025947013               0.000000000              -0.153541665              -0.032137825               0.000000000              -0.176638887              -0.038328636               0.000000000              -0.199736109              -0.044519448               0.000000000              -0.222833332              -0.050710260               0.000000000              -0.245930554              -0.056901071               0.000000000              -0.269027776              -0.063091883               0.000000000              -0.292124999              -0.069282695               0.000000000              -0.315222221              -0.075473506               0.000000000              -0.338319444              -0.081664318               0.000000000              -0.361416666              -0.087855130               0.000000000              -0.384513888              -0.094045942               0.000000000              -0.407611111              -0.100236753               0.000000000              -0.430708333              -0.106427565               0.000000000              -0.453805555              -0.112618377               0.000000000              -0.476902778              -0.118809188               0.000000000              -0.500000000              -0.125000000               0.000000000              -0.127273065              -0.038607862               0.000000000              -0.150568498              -0.047913621               0.000000000              -0.173863932              -0.057219379               0.000000000              -0.197159365              -0.066525138               0.000000000              -0.220454798              -0.075830897               0.000000000              -0.243750232              -0.085136655               0.000000000              -0.267045665              -0.094442414               0.000000000              -0.290341099              -0.103748172               0.000000000              -0.313636532              -0.113053931               0.000000000              -0.336931966              -0.122359690               0.000000000              -0.360227399              -0.131665448               0.000000000              -0.383522833              -0.140971207               0.000000000              -0.406818266              -0.150276966               0.000000000              -0.430113700              -0.159582724               0.000000000              -0.453409133              -0.168888483               0.000000000              -0.476704567              -0.178194241               0.000000000              -0.500000000              -0.187500000               0.000000000              -0.122875978              -0.050896897               0.000000000              -0.146446229              -0.063340840               0.000000000              -0.170016481              -0.075784784               0.000000000              -0.193586732              -0.088228728               0.000000000              -0.217156983              -0.100672672               0.000000000              -0.240727235              -0.113116616               0.000000000              -0.264297486              -0.125560560               0.000000000              -0.287867738              -0.138004504               0.000000000              -0.311437989              -0.150448448               0.000000000              -0.335008240              -0.162892392               0.000000000              -0.358578492              -0.175336336               0.000000000              -0.382148743              -0.187780280               0.000000000              -0.405718994              -0.200224224               0.000000000              -0.429289246              -0.212668168               0.000000000              -0.452859497              -0.225112112               0.000000000              -0.476429749              -0.237556056               0.000000000              -0.500000000              -0.250000000               0.000000000              -0.117295528              -0.062695766               0.000000000              -0.141214558              -0.078308531               0.000000000              -0.165133587              -0.093921295               0.000000000              -0.189052617              -0.109534060               0.000000000              -0.212971646              -0.125146824               0.000000000              -0.236890676              -0.140759589               0.000000000              -0.260809705              -0.156372354               0.000000000              -0.284728735              -0.171985118               0.000000000              -0.308647764              -0.187597883               0.000000000              -0.332566794              -0.203210648               0.000000000              -0.356485823              -0.218823412               0.000000000              -0.380404853              -0.234436177               0.000000000              -0.404323882              -0.250048941               0.000000000              -0.428242912              -0.265661706               0.000000000              -0.452161941              -0.281274471               0.000000000              -0.476080971              -0.296887235               0.000000000              -0.500000000              -0.312500000               0.000000000              -0.110585458              -0.073890841               0.000000000              -0.134923867              -0.092710163               0.000000000              -0.159262276              -0.111529486               0.000000000              -0.183600685              -0.130348808               0.000000000              -0.207939094              -0.149168131               0.000000000              -0.232277503              -0.167987453               0.000000000              -0.256615912              -0.186806776               0.000000000              -0.280954320              -0.205626098               0.000000000              -0.305292729              -0.224445420               0.000000000              -0.329631138              -0.243264743               0.000000000              -0.353969547              -0.262084065               0.000000000              -0.378307956              -0.280903388               0.000000000              -0.402646365              -0.299722710               0.000000000              -0.426984773              -0.318542033               0.000000000              -0.451323182              -0.337361355               0.000000000              -0.475661591              -0.356180678               0.000000000              -0.500000000              -0.375000000               0.000000000              -0.102810390              -0.084374307               0.000000000              -0.127634741              -0.106444663               0.000000000              -0.152459092              -0.128515018               0.000000000              -0.177283442              -0.150585374               0.000000000              -0.202107793              -0.172655730               0.000000000              -0.226932143              -0.194726086               0.000000000              -0.251756494              -0.216796442               0.000000000              -0.276580845              -0.238866798               0.000000000              -0.301405195              -0.260937153               0.000000000              -0.326229546              -0.283007509               0.000000000              -0.351053896              -0.305077865               0.000000000              -0.375878247              -0.327148221               0.000000000              -0.400702598              -0.349218577               0.000000000              -0.425526948              -0.371288933               0.000000000              -0.450351299              -0.393359288               0.000000000              -0.475175649              -0.415429644               0.000000000              -0.500000000              -0.437500000               0.000000000              -0.094045202              -0.094045202               0.000000000              -0.119417377              -0.119417377               0.000000000              -0.144789552              -0.144789552               0.000000000              -0.170161727              -0.170161727               0.000000000              -0.195533901              -0.195533901               0.000000000              -0.220906076              -0.220906076               0.000000000              -0.246278251              -0.246278251               0.000000000              -0.271650426              -0.271650426               0.000000000              -0.297022601              -0.297022601               0.000000000              -0.322394776              -0.322394776               0.000000000              -0.347766951              -0.347766951               0.000000000              -0.373139126              -0.373139126               0.000000000              -0.398511300              -0.398511300               0.000000000              -0.423883475              -0.423883475               0.000000000              -0.449255650              -0.449255650               0.000000000              -0.474627825              -0.474627825               0.000000000              -0.500000000              -0.500000000               0.000000000              -0.084374307              -0.102810390               0.000000000              -0.106444663              -0.127634741               0.000000000              -0.128515018              -0.152459092               0.000000000              -0.150585374              -0.177283442               0.000000000              -0.172655730              -0.202107793               0.000000000              -0.194726086              -0.226932143               0.000000000              -0.216796442              -0.251756494               0.000000000              -0.238866798              -0.276580845               0.000000000              -0.260937153              -0.301405195               0.000000000              -0.283007509              -0.326229546               0.000000000              -0.305077865              -0.351053896               0.000000000              -0.327148221              -0.375878247               0.000000000              -0.349218577              -0.400702598               0.000000000              -0.371288933              -0.425526948               0.000000000              -0.393359288              -0.450351299               0.000000000              -0.415429644              -0.475175649               0.000000000              -0.437500000              -0.500000000               0.000000000              -0.073890841              -0.110585458               0.000000000              -0.092710163              -0.134923867               0.000000000              -0.111529486              -0.159262276               0.000000000              -0.130348808              -0.183600685               0.000000000              -0.149168131              -0.207939094               0.000000000              -0.167987453              -0.232277503               0.000000000              -0.186806776              -0.256615912               0.000000000              -0.205626098              -0.280954320               0.000000000              -0.224445420              -0.305292729               0.000000000              -0.243264743              -0.329631138               0.000000000              -0.262084065              -0.353969547               0.000000000              -0.280903388              -0.378307956               0.000000000              -0.299722710              -0.402646365               0.000000000              -0.318542033              -0.426984773               0.000000000              -0.337361355              -0.451323182               0.000000000              -0.356180678              -0.475661591               0.000000000              -0.375000000              -0.500000000               0.000000000              -0.062695766              -0.117295528               0.000000000              -0.078308531              -0.141214558               0.000000000              -0.093921295              -0.165133587               0.000000000              -0.109534060              -0.189052617               0.000000000              -0.125146824              -0.212971646               0.000000000              -0.140759589              -0.236890676               0.000000000              -0.156372354              -0.260809705               0.000000000              -0.171985118              -0.284728735               0.000000000              -0.187597883              -0.308647764               0.000000000              -0.203210648              -0.332566794               0.000000000              -0.218823412              -0.356485823               0.000000000              -0.234436177              -0.380404853               0.000000000              -0.250048941              -0.404323882               0.000000000              -0.265661706              -0.428242912               0.000000000              -0.281274471              -0.452161941               0.000000000              -0.296887235              -0.476080971               0.000000000              -0.312500000              -0.500000000               0.000000000              -0.050896897              -0.122875978               0.000000000              -0.063340840              -0.146446229               0.000000000              -0.075784784              -0.170016481               0.000000000              -0.088228728              -0.193586732               0.000000000              -0.100672672              -0.217156983               0.000000000              -0.113116616              -0.240727235               0.000000000              -0.125560560              -0.264297486               0.000000000              -0.138004504              -0.287867738               0.000000000              -0.150448448              -0.311437989               0.000000000              -0.162892392              -0.335008240               0.000000000              -0.175336336              -0.358578492               0.000000000              -0.187780280              -0.382148743               0.000000000              -0.200224224              -0.405718994               0.000000000              -0.212668168              -0.429289246               0.000000000              -0.225112112              -0.452859497               0.000000000              -0.237556056              -0.476429749               0.000000000              -0.250000000              -0.500000000               0.000000000              -0.038607862              -0.127273065               0.000000000              -0.047913621              -0.150568498               0.000000000              -0.057219379              -0.173863932               0.000000000              -0.066525138              -0.197159365               0.000000000              -0.075830897              -0.220454798               0.000000000              -0.085136655              -0.243750232               0.000000000              -0.094442414              -0.267045665               0.000000000              -0.103748172              -0.290341099               0.000000000              -0.113053931              -0.313636532               0.000000000              -0.122359690              -0.336931966               0.000000000              -0.131665448              -0.360227399               0.000000000              -0.140971207              -0.383522833               0.000000000              -0.150276966              -0.406818266               0.000000000              -0.159582724              -0.430113700               0.000000000              -0.168888483              -0.453409133               0.000000000              -0.178194241              -0.476704567               0.000000000              -0.187500000              -0.500000000               0.000000000              -0.025947013              -0.130444442               0.000000000              -0.032137825              -0.153541665               0.000000000              -0.038328636              -0.176638887               0.000000000              -0.044519448              -0.199736109               0.000000000              -0.050710260              -0.222833332               0.000000000              -0.056901071              -0.245930554               0.000000000              -0.063091883              -0.269027776               0.000000000              -0.069282695              -0.292124999               0.000000000              -0.075473506              -0.315222221               0.000000000              -0.081664318              -0.338319444               0.000000000              -0.087855130              -0.361416666               0.000000000              -0.094045942              -0.384513888               0.000000000              -0.100236753              -0.407611111               0.000000000              -0.106427565              -0.430708333               0.000000000              -0.112618377              -0.453805555               0.000000000              -0.118809188              -0.476902778               0.000000000              -0.125000000              -0.500000000               0.000000000              -0.013036280              -0.132359569               0.000000000              -0.016127762              -0.155337096               0.000000000              -0.019219245              -0.178314623               0.000000000              -0.022310727              -0.201292150               0.000000000              -0.025402210              -0.224269676               0.000000000              -0.028493692              -0.247247203               0.000000000              -0.031585175              -0.270224730               0.000000000              -0.034676657              -0.293202257               0.000000000              -0.037768140              -0.316179784               0.000000000              -0.040859622              -0.339157311               0.000000000              -0.043951105              -0.362134838               0.000000000              -0.047042587              -0.385112365               0.000000000              -0.050134070              -0.408089892               0.000000000              -0.053225552              -0.431067419               0.000000000              -0.056317035              -0.454044946               0.000000000              -0.059408517              -0.477022473               0.000000000              -0.062500000              -0.500000000               0.000000000               0.000000000              -0.133000000               0.000000000               0.000000000              -0.155937500               0.000000000               0.000000000              -0.178875000               0.000000000               0.000000000              -0.201812500               0.000000000               0.000000000              -0.224750000               0.000000000               0.000000000              -0.247687500               0.000000000               0.000000000              -0.270625000               0.000000000               0.000000000              -0.293562500               0.000000000               0.000000000              -0.316500000               0.000000000               0.000000000              -0.339437500               0.000000000               0.000000000              -0.362375000               0.000000000               0.000000000              -0.385312500               0.000000000               0.000000000              -0.408250000               0.000000000               0.000000000              -0.431187500               0.000000000               0.000000000              -0.454125000               0.000000000               0.000000000              -0.477062500               0.000000000               0.000000000              -0.500000000               0.000000000              -0.133000000               0.000000000               0.000000000              -0.155937500               0.000000000               0.000000000              -0.178875000               0.000000000               0.000000000              -0.201812500               0.000000000               0.000000000              -0.224750000               0.000000000               0.000000000              -0.247687500               0.000000000               0.000000000              -0.270625000               0.000000000               0.000000000              -0.293562500               0.000000000               0.000000000              -0.316500000               0.000000000               0.000000000              -0.339437500               0.000000000               0.000000000              -0.362375000               0.000000000               0.000000000              -0.385312500               0.000000000               0.000000000              -0.408250000               0.000000000               0.000000000              -0.431187500               0.000000000               0.000000000              -0.454125000               0.000000000               0.000000000              -0.477062500               0.000000000               0.000000000              -0.500000000               0.000000000               0.000000000              -0.132359569               0.013036280               0.000000000              -0.155337096               0.016127762               0.000000000              -0.178314623               0.019219245               0.000000000              -0.201292150               0.022310727               0.000000000              -0.224269676               0.025402210               0.000000000              -0.247247203               0.028493692               0.000000000              -0.270224730               0.031585175               0.000000000              -0.293202257               0.034676657               0.000000000              -0.316179784               0.037768140               0.000000000              -0.339157311               0.040859622               0.000000000              -0.362134838               0.043951105               0.000000000              -0.385112365               0.047042587               0.000000000              -0.408089892               0.050134070               0.000000000              -0.431067419               0.053225552               0.000000000              -0.454044946               0.056317035               0.000000000              -0.477022473               0.059408517               0.000000000              -0.500000000               0.062500000               0.000000000              -0.130444442               0.025947013               0.000000000              -0.153541665               0.032137825               0.000000000              -0.176638887               0.038328636               0.000000000              -0.199736109               0.044519448               0.000000000              -0.222833332               0.050710260               0.000000000              -0.245930554               0.056901071               0.000000000              -0.269027776               0.063091883               0.000000000              -0.292124999               0.069282695               0.000000000              -0.315222221               0.075473506               0.000000000              -0.338319444               0.081664318               0.000000000              -0.361416666               0.087855130               0.000000000              -0.384513888               0.094045942               0.000000000              -0.407611111               0.100236753               0.000000000              -0.430708333               0.106427565               0.000000000              -0.453805555               0.112618377               0.000000000              -0.476902778               0.118809188               0.000000000              -0.500000000               0.125000000               0.000000000              -0.127273065               0.038607862               0.000000000              -0.150568498               0.047913621               0.000000000              -0.173863932               0.057219379               0.000000000              -0.197159365               0.066525138               0.000000000              -0.220454798               0.075830897               0.000000000              -0.243750232               0.085136655               0.000000000              -0.267045665               0.094442414               0.000000000              -0.290341099               0.103748172               0.000000000              -0.313636532               0.113053931               0.000000000              -0.336931966               0.122359690               0.000000000              -0.360227399               0.131665448               0.000000000              -0.383522833               0.140971207               0.000000000              -0.406818266               0.150276966               0.000000000              -0.430113700               0.159582724               0.000000000              -0.453409133               0.168888483               0.000000000              -0.476704567               0.178194241               0.000000000              -0.500000000               0.187500000               0.000000000              -0.122875978               0.050896897               0.000000000              -0.146446229               0.063340840               0.000000000              -0.170016481               0.075784784               0.000000000              -0.193586732               0.088228728               0.000000000              -0.217156983               0.100672672               0.000000000              -0.240727235               0.113116616               0.000000000              -0.264297486               0.125560560               0.000000000              -0.287867738               0.138004504               0.000000000              -0.311437989               0.150448448               0.000000000              -0.335008240               0.162892392               0.000000000              -0.358578492               0.175336336               0.000000000              -0.382148743               0.187780280               0.000000000              -0.405718994               0.200224224               0.000000000              -0.429289246               0.212668168               0.000000000              -0.452859497               0.225112112               0.000000000              -0.476429749               0.237556056               0.000000000              -0.500000000               0.250000000               0.000000000              -0.117295528               0.062695766               0.000000000              -0.141214558               0.078308531               0.000000000              -0.165133587               0.093921295               0.000000000              -0.189052617               0.109534060               0.000000000              -0.212971646               0.125146824               0.000000000              -0.236890676               0.140759589               0.000000000              -0.260809705               0.156372354               0.000000000              -0.284728735               0.171985118               0.000000000              -0.308647764               0.187597883               0.000000000              -0.332566794               0.203210648               0.000000000              -0.356485823               0.218823412               0.000000000              -0.380404853               0.234436177               0.000000000              -0.404323882               0.250048941               0.000000000              -0.428242912               0.265661706               0.000000000              -0.452161941               0.281274471               0.000000000              -0.476080971               0.296887235               0.000000000              -0.500000000               0.312500000               0.000000000              -0.110585458               0.073890841               0.000000000              -0.134923867               0.092710163               0.000000000              -0.159262276               0.111529486               0.000000000              -0.183600685               0.130348808               0.000000000              -0.207939094               0.149168131               0.000000000              -0.232277503               0.167987453               0.000000000              -0.256615912               0.186806776               0.000000000              -0.280954320               0.205626098               0.000000000              -0.305292729               0.224445420               0.000000000              -0.329631138               0.243264743               0.000000000              -0.353969547               0.262084065               0.000000000              -0.378307956               0.280903388               0.000000000              -0.402646365               0.299722710               0.000000000              -0.426984773               0.318542033               0.000000000              -0.451323182               0.337361355               0.000000000              -0.475661591               0.356180678               0.000000000              -0.500000000               0.375000000               0.000000000              -0.102810390               0.084374307               0.000000000              -0.127634741               0.106444663               0.000000000              -0.152459092               0.128515018               0.000000000              -0.177283442               0.150585374               0.000000000              -0.202107793               0.172655730               0.000000000              -0.226932143               0.194726086               0.000000000              -0.251756494               0.216796442               0.000000000              -0.276580845               0.238866798               0.000000000              -0.301405195               0.260937153               0.000000000              -0.326229546               0.283007509               0.000000000              -0.351053896               0.305077865               0.000000000              -0.375878247               0.327148221               0.000000000              -0.400702598               0.349218577               0.000000000              -0.425526948               0.371288933               0.000000000              -0.450351299               0.393359288               0.000000000              -0.475175649               0.415429644               0.000000000              -0.500000000               0.437500000               0.000000000              -0.094045202               0.094045202               0.000000000              -0.119417377               0.119417377               0.000000000              -0.144789552               0.144789552               0.000000000              -0.170161727               0.170161727               0.000000000              -0.195533901               0.195533901               0.000000000              -0.220906076               0.220906076               0.000000000              -0.246278251               0.246278251               0.000000000              -0.271650426               0.271650426               0.000000000              -0.297022601               0.297022601               0.000000000              -0.322394776               0.322394776               0.000000000              -0.347766951               0.347766951               0.000000000              -0.373139126               0.373139126               0.000000000              -0.398511300               0.398511300               0.000000000              -0.423883475               0.423883475               0.000000000              -0.449255650               0.449255650               0.000000000              -0.474627825               0.474627825               0.000000000              -0.500000000               0.500000000               0.000000000              -0.084374307               0.102810390               0.000000000              -0.106444663               0.127634741               0.000000000              -0.128515018               0.152459092               0.000000000              -0.150585374               0.177283442               0.000000000              -0.172655730               0.202107793               0.000000000              -0.194726086               0.226932143               0.000000000              -0.216796442               0.251756494               0.000000000              -0.238866798               0.276580845               0.000000000              -0.260937153               0.301405195               0.000000000              -0.283007509               0.326229546               0.000000000              -0.305077865               0.351053896               0.000000000              -0.327148221               0.375878247               0.000000000              -0.349218577               0.400702598               0.000000000              -0.371288933               0.425526948               0.000000000              -0.393359288               0.450351299               0.000000000              -0.415429644               0.475175649               0.000000000              -0.437500000               0.500000000               0.000000000              -0.073890841               0.110585458               0.000000000              -0.092710163               0.134923867               0.000000000              -0.111529486               0.159262276               0.000000000              -0.130348808               0.183600685               0.000000000              -0.149168131               0.207939094               0.000000000              -0.167987453               0.232277503               0.000000000              -0.186806776               0.256615912               0.000000000              -0.205626098               0.280954320               0.000000000              -0.224445420               0.305292729               0.000000000              -0.243264743               0.329631138               0.000000000              -0.262084065               0.353969547               0.000000000              -0.280903388               0.378307956               0.000000000              -0.299722710               0.402646365               0.000000000              -0.318542033               0.426984773               0.000000000              -0.337361355               0.451323182               0.000000000              -0.356180678               0.475661591               0.000000000              -0.375000000               0.500000000               0.000000000              -0.062695766               0.117295528               0.000000000              -0.078308531               0.141214558               0.000000000              -0.093921295               0.165133587               0.000000000              -0.109534060               0.189052617               0.000000000              -0.125146824               0.212971646               0.000000000              -0.140759589               0.236890676               0.000000000              -0.156372354               0.260809705               0.000000000              -0.171985118               0.284728735               0.000000000              -0.187597883               0.308647764               0.000000000              -0.203210648               0.332566794               0.000000000              -0.218823412               0.356485823               0.000000000              -0.234436177               0.380404853               0.000000000              -0.250048941               0.404323882               0.000000000              -0.265661706               0.428242912               0.000000000              -0.281274471               0.452161941               0.000000000              -0.296887235               0.476080971               0.000000000              -0.312500000               0.500000000               0.000000000              -0.050896897               0.122875978               0.000000000              -0.063340840               0.146446229               0.000000000              -0.075784784               0.170016481               0.000000000              -0.088228728               0.193586732               0.000000000              -0.100672672               0.217156983               0.000000000              -0.113116616               0.240727235               0.000000000              -0.125560560               0.264297486               0.000000000              -0.138004504               0.287867738               0.000000000              -0.150448448               0.311437989               0.000000000              -0.162892392               0.335008240               0.000000000              -0.175336336               0.358578492               0.000000000              -0.187780280               0.382148743               0.000000000              -0.200224224               0.405718994               0.000000000              -0.212668168               0.429289246               0.000000000              -0.225112112               0.452859497               0.000000000              -0.237556056               0.476429749               0.000000000              -0.250000000               0.500000000               0.000000000              -0.038607862               0.127273065               0.000000000              -0.047913621               0.150568498               0.000000000              -0.057219379               0.173863932               0.000000000              -0.066525138               0.197159365               0.000000000              -0.075830897               0.220454798               0.000000000              -0.085136655               0.243750232               0.000000000              -0.094442414               0.267045665               0.000000000              -0.103748172               0.290341099               0.000000000              -0.113053931               0.313636532               0.000000000              -0.122359690               0.336931966               0.000000000              -0.131665448               0.360227399               0.000000000              -0.140971207               0.383522833               0.000000000              -0.150276966               0.406818266               0.000000000              -0.159582724               0.430113700               0.000000000              -0.168888483               0.453409133               0.000000000              -0.178194241               0.476704567               0.000000000              -0.187500000               0.500000000               0.000000000              -0.025947013               0.130444442               0.000000000              -0.032137825               0.153541665               0.000000000              -0.038328636               0.176638887               0.000000000              -0.044519448               0.199736109               0.000000000              -0.050710260               0.222833332               0.000000000              -0.056901071               0.245930554               0.000000000              -0.063091883               0.269027776               0.000000000              -0.069282695               0.292124999               0.000000000              -0.075473506               0.315222221               0.000000000              -0.081664318               0.338319444               0.000000000              -0.087855130               0.361416666               0.000000000              -0.094045942               0.384513888               0.000000000              -0.100236753               0.407611111               0.000000000              -0.106427565               0.430708333               0.000000000              -0.112618377               0.453805555               0.000000000              -0.118809188               0.476902778               0.000000000              -0.125000000               0.500000000               0.000000000              -0.013036280               0.132359569               0.000000000              -0.016127762               0.155337096               0.000000000              -0.019219245               0.178314623               0.000000000              -0.022310727               0.201292150               0.000000000              -0.025402210               0.224269676               0.000000000              -0.028493692               0.247247203               0.000000000              -0.031585175               0.270224730               0.000000000              -0.034676657               0.293202257               0.000000000              -0.037768140               0.316179784               0.000000000              -0.040859622               0.339157311               0.000000000              -0.043951105               0.362134838               0.000000000              -0.047042587               0.385112365               0.000000000              -0.050134070               0.408089892               0.000000000              -0.053225552               0.431067419               0.000000000              -0.056317035               0.454044946               0.000000000              -0.059408517               0.477022473               0.000000000              -0.062500000               0.500000000               0.000000000               0.000000000               0.133000000               0.000000000               0.000000000               0.155937500               0.000000000               0.000000000               0.178875000               0.000000000               0.000000000               0.201812500               0.000000000               0.000000000               0.224750000               0.000000000               0.000000000               0.247687500               0.000000000               0.000000000               0.270625000               0.000000000               0.000000000               0.293562500               0.000000000               0.000000000               0.316500000               0.000000000               0.000000000               0.339437500               0.000000000               0.000000000               0.362375000               0.000000000               0.000000000               0.385312500               0.000000000               0.000000000               0.408250000               0.000000000               0.000000000               0.431187500               0.000000000               0.000000000               0.454125000               0.000000000               0.000000000               0.477062500               0.000000000               0.000000000               0.500000000               0.000000000 </DataArray>
</Points>
<Cells>
<DataArray type="Int32"                                    Name="connectivity"                                                      NumberOfComponents=" 1" format="ascii">
         0          1         18         17          1          2         19         18          2          3         20         19          3          4         21         20          4          5         22         21          5          6         23         22          6          7         24         23          7          8         25         24          8          9         26         25          9         10         27         26         10         11         28         27         11         12         29         28         12         13         30         29         13         14         31         30         14         15         32         31         15         16         33         32         17         18         35         34         18         19         36         35         19         20         37         36         20         21         38         37         21         22         39         38         22         23         40         39         23         24         41         40         24         25         42         41         25         26         43         42         26         27         44         43         27         28         45         44         28         29         46         45         29         30         47         46         30         31         48         47         31         32         49         48         32         33         50         49         34         35         52         51         35         36         53         52         36         37         54         53         37         38         55         54         38         39         56         55         39         40         57         56         40         41         58         57         41         42         59         58         42         43         60         59         43         44         61         60         44         45         62         61         45         46         63         62         46         47         64         63         47         48         65         64         48         49         66         65         49         50         67         66         51         52         69         68         52         53         70         69         53         54         71         70         54         55         72         71         55         56         73         72         56         57         74         73         57         58         75         74         58         59         76         75         59         60         77         76         60         61         78         77         61         62         79         78         62         63         80         79         63         64         81         80         64         65         82         81         65         66         83         82         66         67         84         83         68         69         86         85         69         70         87         86         70         71         88         87         71         72         89         88         72         73         90         89         73         74         91         90         74         75         92         91         75         76         93         92         76         77         94         93         77         78         95         94         78         79         96         95         79         80         97         96         80         81         98         97         81         82         99         98         82         83        100         99         83         84        101        100         85         86        103        102         86         87        104        103         87         88        105        104         88         89        106        105         89         90        107        106         90         91        108        107         91         92        109        108         92         93        110        109         93         94        111        110         94         95        112        111         95         96        113        112         96         97        114        113         97         98        115        114         98         99        116        115         99        100        117        116        100        101        118        117        102        103        120        119        103        104        121        120        104        105        122        121        105        106        123        122        106        107        124        123        107        108        125        124        108        109        126        125        109        110        127        126        110        111        128        127        111        112        129        128        112        113        130        129        113        114        131        130        114        115        132        131        115        116        133        132        116        117        134        133        117        118        135        134        119        120        137        136        120        121        138        137        121        122        139        138        122        123        140        139        123        124        141        140        124        125        142        141        125        126        143        142        126        127        144        143        127        128        145        144        128        129        146        145        129        130        147        146        130        131        148        147        131        132        149        148        132        133        150        149        133        134        151        150        134        135        152        151        136        137        154        153        137        138        155        154        138        139        156        155        139        140        157        156        140        141        158        157        141        142        159        158        142        143        160        159        143        144        161        160        144        145        162        161        145        146        163        162        146        147        164        163        147        148        165        164        148        149        166        165        149        150        167        166        150        151        168        167        151        152        169        168        153        154        171        170        154        155        172        171        155        156        173        172        156        157        174        173        157        158        175        174        158        159        176        175        159        160        177        176        160        161        178        177        161        162        179        178        162        163        180        179        163        164        181        180        164        165        182        181        165        166        183        182        166        167        184        183        167        168        185        184        168        169        186        185        170        171        188        187        171        172        189        188        172        173        190        189        173        174        191        190        174        175        192        191        175        176        193        192        176        177        194        193        177        178        195        194        178        179        196        195        179        180        197        196        180        181        198        197        181        182        199        198        182        183        200        199        183        184        201        200        184        185        202        201        185        186        203        202        187        188        205        204        188        189        206        205        189        190        207        206        190        191        208        207        191        192        209        208        192        193        210        209        193        194        211        210        194        195        212        211        195        196        213        212        196        197        214        213        197        198        215        214        198        199        216        215        199        200        217        216        200        201        218        217        201        202        219        218        202        203        220        219        204        205        222        221        205        206        223        222        206        207        224        223        207        208        225        224        208        209        226        225        209        210        227        226        210        211        228        227        211        212        229        228        212        213        230        229        213        214        231        230        214        215        232        231        215        216        233        232        216        217        234        233        217        218        235        234        218        219        236        235        219        220        237        236        221        222        239        238        222        223        240        239        223        224        241        240        224        225        242        241        225        226        243        242        226        227        244        243        227        228        245        244        228        229        246        245        229        230        247        246        230        231        248        247        231        232        249        248        232        233        250        249        233        234        251        250        234        235        252        251        235        236        253        252        236        237        254        253        238        239        256        255        239        240        257        256        240        241        258        257        241        242        259        258        242        243        260        259        243        244        261        260        244        245        262        261        245        246        263        262        246        247        264        263        247        248        265        264        248        249        266        265        249        250        267        266        250        251        268        267        251        252        269        268        252        253        270        269        253        254        271        270        255        256        273        272        256        257        274        273        257        258        275        274        258        259        276        275        259        260        277        276        260        261        278        277        261        262        279        278        262        263        280        279        263        264        281        280        264        265        282        281        265        266        283        282        266        267        284        283        267        268        285        284        268        269        286        285        269        270        287        286        270        271        288        287        306        307          1          0        307        308          2          1        308        309          3          2        309        310          4          3        310        311          5          4        311        312          6          5        312        313          7          6        313        314          8          7        314        315          9          8        315        316         10          9        316        317         11         10        317        318         12         11        318        319         13         12        319        320         14         13        320        321         15         14        321        322         16         15        323        324        307        306        324        325        308        307        325        326        309        308        326        327        310        309        327        328        311        310        328        329        312        311        329        330        313        312        330        331        314        313        331        332        315        314        332        333        316        315        333        334        317        316        334        335        318        317        335        336        319        318        336        337        320        319        337        338        321        320        338        339        322        321        340        341        324        323        341        342        325        324        342        343        326        325        343        344        327        326        344        345        328        327        345        346        329        328        346        347        330        329        347        348        331        330        348        349        332        331        349        350        333        332        350        351        334        333        351        352        335        334        352        353        336        335        353        354        337        336        354        355        338        337        355        356        339        338        357        358        341        340        358        359        342        341        359        360        343        342        360        361        344        343        361        362        345        344        362        363        346        345        363        364        347        346        364        365        348        347        365        366        349        348        366        367        350        349        367        368        351        350        368        369        352        351        369        370        353        352        370        371        354        353        371        372        355        354        372        373        356        355        374        375        358        357        375        376        359        358        376        377        360        359        377        378        361        360        378        379        362        361        379        380        363        362        380        381        364        363        381        382        365        364        382        383        366        365        383        384        367        366        384        385        368        367        385        386        369        368        386        387        370        369        387        388        371        370        388        389        372        371        389        390        373        372        391        392        375        374        392        393        376        375        393        394        377        376        394        395        378        377        395        396        379        378        396        397        380        379        397        398        381        380        398        399        382        381        399        400        383        382        400        401        384        383        401        402        385        384        402        403        386        385        403        404        387        386        404        405        388        387        405        406        389        388        406        407        390        389        408        409        392        391        409        410        393        392        410        411        394        393        411        412        395        394        412        413        396        395        413        414        397        396        414        415        398        397        415        416        399        398        416        417        400        399        417        418        401        400        418        419        402        401        419        420        403        402        420        421        404        403        421        422        405        404        422        423        406        405        423        424        407        406        425        426        409        408        426        427        410        409        427        428        411        410        428        429        412        411        429        430        413        412        430        431        414        413        431        432        415        414        432        433        416        415        433        434        417        416        434        435        418        417        435        436        419        418        436        437        420        419        437        438        421        420        438        439        422        421        439        440        423        422        440        441        424        423        442        443        426        425        443        444        427        426        444        445        428        427        445        446        429        428        446        447        430        429        447        448        431        430        448        449        432        431        449        450        433        432        450        451        434        433        451        452        435        434        452        453        436        435        453        454        437        436        454        455        438        437        455        456        439        438        456        457        440        439        457        458        441        440        459        460        443        442        460        461        444        443        461        462        445        444        462        463        446        445        463        464        447        446        464        465        448        447        465        466        449        448        466        467        450        449        467        468        451        450        468        469        452        451        469        470        453        452        470        471        454        453        471        472        455        454        472        473        456        455        473        474        457        456        474        475        458        457        476        477        460        459        477        478        461        460        478        479        462        461        479        480        463        462        480        481        464        463        481        482        465        464        482        483        466        465        483        484        467        466        484        485        468        467        485        486        469        468        486        487        470        469        487        488        471        470        488        489        472        471        489        490        473        472        490        491        474        473        491        492        475        474        493        494        477        476        494        495        478        477        495        496        479        478        496        497        480        479        497        498        481        480        498        499        482        481        499        500        483        482        500        501        484        483        501        502        485        484        502        503        486        485        503        504        487        486        504        505        488        487        505        506        489        488        506        507        490        489        507        508        491        490        508        509        492        491        510        511        494        493        511        512        495        494        512        513        496        495        513        514        497        496        514        515        498        497        515        516        499        498        516        517        500        499        517        518        501        500        518        519        502        501        519        520        503        502        520        521        504        503        521        522        505        504        522        523        506        505        523        524        507        506        524        525        508        507        525        526        509        508        527        528        511        510        528        529        512        511        529        530        513        512        530        531        514        513        531        532        515        514        532        533        516        515        533        534        517        516        534        535        518        517        535        536        519        518        536        537        520        519        537        538        521        520        538        539        522        521        539        540        523        522        540        541        524        523        541        542        525        524        542        543        526        525        544        545        528        527        545        546        529        528        546        547        530        529        547        548        531        530        548        549        532        531        549        550        533        532        550        551        534        533        551        552        535        534        552        553        536        535        553        554        537        536        554        555        538        537        555        556        539        538        556        557        540        539        557        558        541        540        558        559        542        541        559        560        543        542        561        562        545        544        562        563        546        545        563        564        547        546        564        565        548        547        565        566        549        548        566        567        550        549        567        568        551        550        568        569        552        551        569        570        553        552        570        571        554        553        571        572        555        554        572        573        556        555        573        574        557        556        574        575        558        557        575        576        559        558        576        577        560        559        578        579        596        595        579        580        597        596        580        581        598        597        581        582        599        598        582        583        600        599        583        584        601        600        584        585        602        601        585        586        603        602        586        587        604        603        587        588        605        604        588        589        606        605        589        590        607        606        590        591        608        607        591        592        609        608        592        593        610        609        593        594        611        610        595        596        613        612        596        597        614        613        597        598        615        614        598        599        616        615        599        600        617        616        600        601        618        617        601        602        619        618        602        603        620        619        603        604        621        620        604        605        622        621        605        606        623        622        606        607        624        623        607        608        625        624        608        609        626        625        609        610        627        626        610        611        628        627        612        613        630        629        613        614        631        630        614        615        632        631        615        616        633        632        616        617        634        633        617        618        635        634        618        619        636        635        619        620        637        636        620        621        638        637        621        622        639        638        622        623        640        639        623        624        641        640        624        625        642        641        625        626        643        642        626        627        644        643        627        628        645        644        629        630        647        646        630        631        648        647        631        632        649        648        632        633        650        649        633        634        651        650        634        635        652        651        635        636        653        652        636        637        654        653        637        638        655        654        638        639        656        655        639        640        657        656        640        641        658        657        641        642        659        658        642        643        660        659        643        644        661        660        644        645        662        661        646        647        664        663        647        648        665        664        648        649        666        665        649        650        667        666        650        651        668        667        651        652        669        668        652        653        670        669        653        654        671        670        654        655        672        671        655        656        673        672        656        657        674        673        657        658        675        674        658        659        676        675        659        660        677        676        660        661        678        677        661        662        679        678        663        664        681        680        664        665        682        681        665        666        683        682        666        667        684        683        667        668        685        684        668        669        686        685        669        670        687        686        670        671        688        687        671        672        689        688        672        673        690        689        673        674        691        690        674        675        692        691        675        676        693        692        676        677        694        693        677        678        695        694        678        679        696        695        680        681        698        697        681        682        699        698        682        683        700        699        683        684        701        700        684        685        702        701        685        686        703        702        686        687        704        703        687        688        705        704        688        689        706        705        689        690        707        706        690        691        708        707        691        692        709        708        692        693        710        709        693        694        711        710        694        695        712        711        695        696        713        712        697        698        715        714        698        699        716        715        699        700        717        716        700        701        718        717        701        702        719        718        702        703        720        719        703        704        721        720        704        705        722        721        705        706        723        722        706        707        724        723        707        708        725        724        708        709        726        725        709        710        727        726        710        711        728        727        711        712        729        728        712        713        730        729        714        715        732        731        715        716        733        732        716        717        734        733        717        718        735        734        718        719        736        735        719        720        737        736        720        721        738        737        721        722        739        738        722        723        740        739        723        724        741        740        724        725        742        741        725        726        743        742        726        727        744        743        727        728        745        744        728        729        746        745        729        730        747        746        731        732        749        748        732        733        750        749        733        734        751        750        734        735        752        751        735        736        753        752        736        737        754        753        737        738        755        754        738        739        756        755        739        740        757        756        740        741        758        757        741        742        759        758        742        743        760        759        743        744        761        760        744        745        762        761        745        746        763        762        746        747        764        763        748        749        766        765        749        750        767        766        750        751        768        767        751        752        769        768        752        753        770        769        753        754        771        770        754        755        772        771        755        756        773        772        756        757        774        773        757        758        775        774        758        759        776        775        759        760        777        776        760        761        778        777        761        762        779        778        762        763        780        779        763        764        781        780        765        766        783        782        766        767        784        783        767        768        785        784        768        769        786        785        769        770        787        786        770        771        788        787        771        772        789        788        772        773        790        789        773        774        791        790        774        775        792        791        775        776        793        792        776        777        794        793        777        778        795        794        778        779        796        795        779        780        797        796        780        781        798        797        782        783        800        799        783        784        801        800        784        785        802        801        785        786        803        802        786        787        804        803        787        788        805        804        788        789        806        805        789        790        807        806        790        791        808        807        791        792        809        808        792        793        810        809        793        794        811        810        794        795        812        811        795        796        813        812        796        797        814        813        797        798        815        814        799        800        817        816        800        801        818        817        801        802        819        818        802        803        820        819        803        804        821        820        804        805        822        821        805        806        823        822        806        807        824        823        807        808        825        824        808        809        826        825        809        810        827        826        810        811        828        827        811        812        829        828        812        813        830        829        813        814        831        830        814        815        832        831        816        817        834        833        817        818        835        834        818        819        836        835        819        820        837        836        820        821        838        837        821        822        839        838        822        823        840        839        823        824        841        840        824        825        842        841        825        826        843        842        826        827        844        843        827        828        845        844        828        829        846        845        829        830        847        846        830        831        848        847        831        832        849        848        833        834        562        561        834        835        563        562        835        836        564        563        836        837        565        564        837        838        566        565        838        839        567        566        839        840        568        567        840        841        569        568        841        842        570        569        842        843        571        570        843        844        572        571        844        845        573        572        845        846        574        573        846        847        575        574        847        848        576        575        848        849        577        576        884        885        579        578        885        886        580        579        886        887        581        580        887        888        582        581        888        889        583        582        889        890        584        583        890        891        585        584        891        892        586        585        892        893        587        586        893        894        588        587        894        895        589        588        895        896        590        589        896        897        591        590        897        898        592        591        898        899        593        592        899        900        594        593        901        902        885        884        902        903        886        885        903        904        887        886        904        905        888        887        905        906        889        888        906        907        890        889        907        908        891        890        908        909        892        891        909        910        893        892        910        911        894        893        911        912        895        894        912        913        896        895        913        914        897        896        914        915        898        897        915        916        899        898        916        917        900        899        918        919        902        901        919        920        903        902        920        921        904        903        921        922        905        904        922        923        906        905        923        924        907        906        924        925        908        907        925        926        909        908        926        927        910        909        927        928        911        910        928        929        912        911        929        930        913        912        930        931        914        913        931        932        915        914        932        933        916        915        933        934        917        916        935        936        919        918        936        937        920        919        937        938        921        920        938        939        922        921        939        940        923        922        940        941        924        923        941        942        925        924        942        943        926        925        943        944        927        926        944        945        928        927        945        946        929        928        946        947        930        929        947        948        931        930        948        949        932        931        949        950        933        932        950        951        934        933        952        953        936        935        953        954        937        936        954        955        938        937        955        956        939        938        956        957        940        939        957        958        941        940        958        959        942        941        959        960        943        942        960        961        944        943        961        962        945        944        962        963        946        945        963        964        947        946        964        965        948        947        965        966        949        948        966        967        950        949        967        968        951        950        969        970        953        952        970        971        954        953        971        972        955        954        972        973        956        955        973        974        957        956        974        975        958        957        975        976        959        958        976        977        960        959        977        978        961        960        978        979        962        961        979        980        963        962        980        981        964        963        981        982        965        964        982        983        966        965        983        984        967        966        984        985        968        967        986        987        970        969        987        988        971        970        988        989        972        971        989        990        973        972        990        991        974        973        991        992        975        974        992        993        976        975        993        994        977        976        994        995        978        977        995        996        979        978        996        997        980        979        997        998        981        980        998        999        982        981        999       1000        983        982       1000       1001        984        983       1001       1002        985        984       1003       1004        987        986       1004       1005        988        987       1005       1006        989        988       1006       1007        990        989       1007       1008        991        990       1008       1009        992        991       1009       1010        993        992       1010       1011        994        993       1011       1012        995        994       1012       1013        996        995       1013       1014        997        996       1014       1015        998        997       1015       1016        999        998       1016       1017       1000        999       1017       1018       1001       1000       1018       1019       1002       1001       1020       1021       1004       1003       1021       1022       1005       1004       1022       1023       1006       1005       1023       1024       1007       1006       1024       1025       1008       1007       1025       1026       1009       1008       1026       1027       1010       1009       1027       1028       1011       1010       1028       1029       1012       1011       1029       1030       1013       1012       1030       1031       1014       1013       1031       1032       1015       1014       1032       1033       1016       1015       1033       1034       1017       1016       1034       1035       1018       1017       1035       1036       1019       1018       1037       1038       1021       1020       1038       1039       1022       1021       1039       1040       1023       1022       1040       1041       1024       1023       1041       1042       1025       1024       1042       1043       1026       1025       1043       1044       1027       1026       1044       1045       1028       1027       1045       1046       1029       1028       1046       1047       1030       1029       1047       1048       1031       1030       1048       1049       1032       1031       1049       1050       1033       1032       1050       1051       1034       1033       1051       1052       1035       1034       1052       1053       1036       1035       1054       1055       1038       1037       1055       1056       1039       1038       1056       1057       1040       1039       1057       1058       1041       1040       1058       1059       1042       1041       1059       1060       1043       1042       1060       1061       1044       1043       1061       1062       1045       1044       1062       1063       1046       1045       1063       1064       1047       1046       1064       1065       1048       1047       1065       1066       1049       1048       1066       1067       1050       1049       1067       1068       1051       1050       1068       1069       1052       1051       1069       1070       1053       1052       1071       1072       1055       1054       1072       1073       1056       1055       1073       1074       1057       1056       1074       1075       1058       1057       1075       1076       1059       1058       1076       1077       1060       1059       1077       1078       1061       1060       1078       1079       1062       1061       1079       1080       1063       1062       1080       1081       1064       1063       1081       1082       1065       1064       1082       1083       1066       1065       1083       1084       1067       1066       1084       1085       1068       1067       1085       1086       1069       1068       1086       1087       1070       1069       1088       1089       1072       1071       1089       1090       1073       1072       1090       1091       1074       1073       1091       1092       1075       1074       1092       1093       1076       1075       1093       1094       1077       1076       1094       1095       1078       1077       1095       1096       1079       1078       1096       1097       1080       1079       1097       1098       1081       1080       1098       1099       1082       1081       1099       1100       1083       1082       1100       1101       1084       1083       1101       1102       1085       1084       1102       1103       1086       1085       1103       1104       1087       1086       1105       1106       1089       1088       1106       1107       1090       1089       1107       1108       1091       1090       1108       1109       1092       1091       1109       1110       1093       1092       1110       1111       1094       1093       1111       1112       1095       1094       1112       1113       1096       1095       1113       1114       1097       1096       1114       1115       1098       1097       1115       1116       1099       1098       1116       1117       1100       1099       1117       1118       1101       1100       1118       1119       1102       1101       1119       1120       1103       1102       1120       1121       1104       1103       1122       1123       1106       1105       1123       1124       1107       1106       1124       1125       1108       1107       1125       1126       1109       1108       1126       1127       1110       1109       1127       1128       1111       1110       1128       1129       1112       1111       1129       1130       1113       1112       1130       1131       1114       1113       1131       1132       1115       1114       1132       1133       1116       1115       1133       1134       1117       1116       1134       1135       1118       1117       1135       1136       1119       1118       1136       1137       1120       1119       1137       1138       1121       1120        272        273       1123       1122        273        274       1124       1123        274        275       1125       1124        275        276       1126       1125        276        277       1127       1126        277        278       1128       1127        278        279       1129       1128        279        280       1130       1129        280        281       1131       1130        281        282       1132       1131        282        283       1133       1132        283        284       1134       1133        284        285       1135       1134        285        286       1136       1135        286        287       1137       1136        287        288       1138       1137 </DataArray>
<DataArray type="Int32"                                    Name="offsets"                                                      NumberOfComponents=" 1" format="ascii">
         4          8         12         16         20         24         28         32         36         40         44         48         52         56         60         64         68         72         76         80         84         88         92         96        100        104        108        112        116        120        124        128        132        136        140        144        148        152        156        160        164        168        172        176        180        184        188        192        196        200        204        208        212        216        220        224        228        232        236        240        244        248        252        256        260        264        268        272        276        280        284        288        292        296        300        304        308        312        316        320        324        328        332        336        340        344        348        352        356        360        364        368        372        376        380        384        388        392        396        400        404        408        412        416        420        424        428        432        436        440        444        448        452        456        460        464        468        472        476        480        484        488        492        496        500        504        508        512        516        520        524        528        532        536        540        544        548        552        556        560        564        568        572        576        580        584        588        592        596        600        604        608        612        616        620        624        628        632        636        640        644        648        652        656        660        664        668        672        676        680        684        688        692        696        700        704        708        712        716        720        724        728        732        736        740        744        748        752        756        760        764        768        772        776        780        784        788        792        796        800        804        808        812        816        820        824        828        832        836        840        844        848        852        856        860        864        868        872        876        880        884        888        892        896        900        904        908        912        916        920        924        928        932        936        940        944        948        952        956        960        964        968        972        976        980        984        988        992        996       1000       1004       1008       1012       1016       1020       1024       1028       1032       1036       1040       1044       1048       1052       1056       1060       1064       1068       1072       1076       1080       1084       1088       1092       1096       1100       1104       1108       1112       1116       1120       1124       1128       1132       1136       1140       1144       1148       1152       1156       1160       1164       1168       1172       1176       1180       1184       1188       1192       1196       1200       1204       1208       1212       1216       1220       1224       1228       1232       1236       1240       1244       1248       1252       1256       1260       1264       1268       1272       1276       1280       1284       1288       1292       1296       1300       1304       1308       1312       1316       1320       1324       1328       1332       1336       1340       1344       1348       1352       1356       1360       1364       1368       1372       1376       1380       1384       1388       1392       1396       1400       1404       1408       1412       1416       1420       1424       1428       1432       1436       1440       1444       1448       1452       1456       1460       1464       1468       1472       1476       1480       1484       1488       1492       1496       1500       1504       1508       1512       1516       1520       1524       1528       1532       1536       1540       1544       1548       1552       1556       1560       1564       1568       1572       1576       1580       1584       1588       1592       1596       1600       1604       1608       1612       1616       1620       1624       1628       1632       1636       1640       1644       1648       1652       1656       1660       1664       1668       1672       1676       1680       1684       1688       1692       1696       1700       1704       1708       1712       1716       1720       1724       1728       1732       1736       1740       1744       1748       1752       1756       1760       1764       1768       1772       1776       1780       1784       1788       1792       1796       1800       1804       1808       1812       1816       1820       1824       1828       1832       1836       1840       1844       1848       1852       1856       1860       1864       1868       1872       1876       1880       1884       1888       1892       1896       1900       1904       1908       1912       1916       1920       1924       1928       1932       1936       1940       1944       1948       1952       1956       1960       1964       1968       1972       1976       1980       1984       1988       1992       1996       2000       2004       2008       2012       2016       2020       2024       2028       2032       2036       2040       2044       2048       2052       2056       2060       2064       2068       2072       2076       2080       2084       2088       2092       2096       2100       2104       2108       2112       2116       2120       2124       2128       2132       2136       2140       2144       2148       2152       2156       2160       2164       2168       2172       2176       2180       2184       2188       2192       2196       2200       2204       2208       2212       2216       2220       2224       2228       2232       2236       2240       2244       2248       2252       2256       2260       2264       2268       2272       2276       2280       2284       2288       2292       2296       2300       2304       2308       2312       2316       2320       2324       2328       2332       2336       2340       2344       2348       2352       2356       2360       2364       2368       2372       2376       2380       2384       2388       2392       2396       2400       2404       2408       2412       2416       2420       2424       2428       2432       2436       2440       2444       2448       2452       2456       2460       2464       2468       2472       2476       2480       2484       2488       2492       2496       2500       2504       2508       2512       2516       2520       2524       2528       2532       2536       2540       2544       2548       2552       2556       2560       2564       2568       2572       2576       2580       2584       2588       2592       2596       2600       2604       2608       2612       2616       2620       2624       2628       2632       2636       2640       2644       2648       2652       2656       2660       2664       2668       2672       2676       2680       2684       2688       2692       2696       2700       2704       2708       2712       2716       2720       2724       2728       2732       2736       2740       2744       2748       2752       2756       2760       2764       2768       2772       2776       2780       2784       2788       2792       2796       2800       2804       2808       2812       2816       2820       2824       2828       2832       2836       2840       2844       2848       2852       2856       2860       2864       2868       2872       2876       2880       2884       2888       2892       2896       2900       2904       2908       2912       2916       2920       2924       2928       2932       2936       2940       2944       2948       2952       2956       2960       2964       2968       2972       2976       2980       2984       2988       2992       2996       3000       3004       3008       3012       3016       3020       3024       3028       3032       3036       3040       3044       3048       3052       3056       3060       3064       3068       3072       3076       3080       3084       3088       3092       3096       3100       3104       3108       3112       3116       3120       3124       3128       3132       3136       3140       3144       3148       3152       3156       3160       3164       3168       3172       3176       3180       3184       3188       3192       3196       3200       3204       3208       3212       3216       3220       3224       3228       3232       3236       3240       3244       3248       3252       3256       3260       3264       3268       3272       3276       3280       3284       3288       3292       3296       3300       3304       3308       3312       3316       3320       3324       3328       3332       3336       3340       3344       3348       3352       3356       3360       3364       3368       3372       3376       3380       3384       3388       3392       3396       3400       3404       3408       3412       3416       3420       3424       3428       3432       3436       3440       3444       3448       3452       3456       3460       3464       3468       3472       3476       3480       3484       3488       3492       3496       3500       3504       3508       3512       3516       3520       3524       3528       3532       3536       3540       3544       3548       3552       3556       3560       3564       3568       3572       3576       3580       3584       3588       3592       3596       3600       3604       3608       3612       3616       3620       3624       3628       3632       3636       3640       3644       3648       3652       3656       3660       3664       3668       3672       3676       3680       3684       3688       3692       3696       3700       3704       3708       3712       3716       3720       3724       3728       3732       3736       3740       3744       3748       3752       3756       3760       3764       3768       3772       3776       3780       3784       3788       3792       3796       3800       3804       3808       3812       3816       3820       3824       3828       3832       3836       3840       3844       3848       3852       3856       3860       3864       3868       3872       3876       3880       3884       3888       3892       3896       3900       3904       3908       3912       3916       3920       3924       3928       3932       3936       3940       3944       3948       3952       3956       3960       3964       3968       3972       3976       3980       3984       3988       3992       3996       4000       4004       4008       4012       4016       4020       4024       4028       4032       4036       4040       4044       4048       4052       4056       4060       4064       4068       4072       4076       4080       4084       4088       4092       4096 </DataArray>
<DataArray type="UInt8"                                    Name="types"                                                      NumberOfComponents=" 1" format="ascii">
         9          9          9          9          9          9          9          9          9          9          9          9          9          9          9          9          9          9          9          9          9          9          9          9          9          9          9          9          9          9          9          9          9          9          9          9          9          9          9          9          9          9          9          9          9          9          9          9          9          9          9          9          9          9          9          9          9          9          9          9          9          9          9          9          9          9          9          9          9          9          9          9          9          9          9          9          9          9          9          9          9          9          9          9          9          9          9          9          9          9          9          9          9          9          9          9          9          9          9          9          9          9          9          9          9          9          9          9          9          9          9          9          9          9          9          9          9          9          9          9          9          9          9          9          9          9          9          9          9          9          9          9          9          9          9          9          9          9          9          9          9          9          9          9          9          9          9          9          9          9          9          9          9          9          9          9          9          9          9          9          9          9          9          9          9          9          9          9          9          9          9          9          9          9          9          9          9          9          9          9          9          9          9          9          9          9          9          9          9          9          9          9          9          9          9          9          9          9          9          9          9          9          9          9          9          9          9          9          9          9          9          9          9          9          9          9          9          9          9          9          9          9          9          9          9          9          9          9          9          9          9          9          9          9          9          9          9          9          9          9          9          9          9          9          9          9          9          9          9          9          9          9          9          9          9          9          9          9          9          9          9          9          9          9          9          9          9          9          9          9          9          9          9          9          9          9          9          9          9          9          9          9          9          9          9          9          9          9          9          9          9          9          9          9          9          9          9          9          9          9          9          9          9          9          9          9          9          9          9          9          9          9          9          9          9          9          9          9          9          9          9          9          9          9          9          9          9          9          9          9          9          9          9          9          9          9          9          9          9          9          9          9          9          9          9          9          9          9          9          9          9          9          9          9          9          9          9          9          9          9          9          9          9          9          9          9          9          9          9          9          9          9          9          9          9          9          9          9          9          9          9          9          9          9          9          9          9          9          9          9          9          9          9          9          9          9          9          9          9          9          9          9          9          9          9          9          9          9          9          9          9          9          9          9          9          9          9          9          9          9          9          9          9          9          9          9          9          9          9          9          9          9          9          9          9          9          9          9          9          9          9          9          9          9          9          9          9          9          9          9          9          9          9          9          9          9          9          9          9          9          9          9          9          9          9          9          9          9          9          9          9          9          9          9          9          9          9          9          9          9          9          9          9          9          9          9          9          9          9          9          9          9          9          9          9          9          9          9          9          9          9          9          9          9          9          9          9          9          9          9          9          9          9          9          9          9          9          9          9          9          9          9          9          9          9          9          9          9          9          9          9          9          9          9          9          9          9          9          9          9          9          9          9          9          9          9          9          9          9          9          9          9          9          9          9          9          9          9          9          9          9          9          9          9          9          9          9          9          9          9          9          9          9          9          9          9          9          9          9          9          9          9          9          9          9          9          9          9          9          9          9          9          9          9          9          9          9          9          9          9          9          9          9          9          9          9          9          9          9          9          9          9          9          9          9          9          9          9          9          9          9          9          9          9          9          9          9          9          9          9          9          9          9          9          9          9          9          9          9          9          9          9          9          9          9          9          9          9          9          9          9          9          9          9          9          9          9          9          9          9          9          9          9          9          9          9          9          9          9          9          9          9          9          9          9          9          9          9          9          9          9          9          9          9          9          9          9          9          9          9          9          9          9          9          9          9          9          9          9          9          9          9          9          9          9          9          9          9          9          9          9          9          9          9          9          9          9          9          9          9          9          9          9          9          9          9          9          9          9          9          9          9          9          9          9          9          9          9          9          9          9          9          9          9          9          9          9          9          9          9          9          9          9          9          9          9          9          9          9          9          9          9          9          9          9          9          9          9          9          9          9          9          9          9          9          9          9          9          9          9          9          9          9          9          9          9          9          9          9          9          9          9          9          9          9          9          9          9          9          9          9          9          9          9          9          9          9          9          9          9          9          9          9          9          9          9          9          9          9          9          9          9          9          9          9          9          9          9          9          9          9          9          9          9          9          9          9          9          9          9          9          9          9          9          9          9          9          9          9          9          9          9          9          9          9          9          9          9          9          9          9          9          9          9          9          9          9          9          9          9          9          9          9          9          9          9          9          9          9          9          9          9          9          9          9          9          9          9          9          9          9          9          9          9          9          9          9          9          9          9          9          9          9          9          9          9          9          9          9          9          9          9          9          9          9          9          9          9          9          9          9          9          9          9          9          9          9          9          9          9          9          9          9          9          9          9          9          9          9          9          9          9          9          9          9          9          9          9          9          9          9          9          9          9          9          9          9          9          9          9          9          9          9          9          9          9          9          9          9          9          9          9          9          9          9          9          9          9          9          9          9          9          9          9          9          9          9          9          9          9          9          9          9          9          9          9          9          9          9          9          9          9          9          9          9          9          9          9          9          9          9          9          9          9          9          9          9          9          9          9          9          9          9          9 </DataArray>
</Cells>
<CellData>
<DataArray type="Int32"                                    Name="material"                                                      NumberOfComponents=" 1" format="ascii">
         1          1          1          1          1          1          1          1          1          1          1          1          1          1          1          1          1          1          1          1          1          1          1          1          1          1          1          1          1          1          1          1          1          1          1          1          1          1          1          1          1          1          1          1          1          1          1          1          1          1          1          1          1          1          1          1          1          1          1          1          1          1          1          1          1          1          1          1          1          1          1          1          1          1          1          1          1          1          1          1          1          1          1          1          1          1          1          1          1          1          1          1          1          1          1          1          1          1          1          1          1          1          1          1          1          1          1          1          1          1          1          1          1          1          1          1          1          1          1          1          1          1          1          1          1          1          1          1          1          1          1          1          1          1          1          1          1          1          1          1          1          1          1          1          1          1          1          1          1          1          1          1          1          1          1          1          1          1          1          1          1          1          1          1          1          1          1          1          1          1          1          1          1          1          1          1          1          1          1          1          1          1          1          1          1          1          1          1          1          1          1          1          1          1          1          1          1          1          1          1          1          1          1          1          1          1          1          1          1          1          1          1          1          1          1          1          1          1          1          1          1          1          1          1          1          1          1          1          1          1          1          1          1          1          1          1          1          1          1          1          1          1          1          1          1          1          1          1          1          1          1          1          1          1          1          1          1          1          1          1          1          1          1          1          1          1          1          1          1          1          1          1          1          1          1          1          1          1          1          1          1          1          1          1          1          1          1          1          1          1          1          1          1          1          1          1          1          1          1          1          1          1          1          1          1          1          1          1          1          1          1          1          1          1          1          1          1          1          1          1          1          1          1          1          1          1          1          1          1          1          1          1          1          1          1          1          1          1          1          1          1          1          1          1          1          1          1          1          1          1          1          1          1          1          1          1          1          1          1          1          1          1          1          1          1          1          1          1          1          1          1          1          1          1          1          1          1          1          1          1          1          1          1          1          1          1          1          1          1          1          1          1          1          1          1          1          1          1          1          1          1          1          1          1          1          1          1          1          1          1          1          1          1          1          1          1          1          1          1          1          1          1          1          1          1          1          1          1          1          1          1          1          1          1          1          1          1          1          1          1          1          1          1          1          1          1          1          1          1          1          1          1          1          1          1          1          1          1          1          1          1          1          1          1          1          1          1          1          1          1          1          1          1          1          1          1          1          1          1          1          1          1          1          1          1          1          1          1          1          1          1          1          1          1          1          1          1          1          1          1          1          1          1          1          1          1          1          1          1          1          1          1          1          1          1          1          1          1          1          1          1          1          1          1          1          1          1          1          1          1          1          1          1          1          1          1          1          1          1          1          1          1          1          1          1          1          1          1          1          1          1          1          1          1          1          1          1          1          1          1          1          1          1          1          1          1          1          1          1          1          1          1          1          1          1          1          1          1          1          1          1          1          1          1          1          1          1          1          1          1          1          1          1          1          1          1          1          1          1          1          1          1          1          1          1          1          1          1          1          1          1          1          1          1          1          1          1          1          1          1          1          1          1          1          1          1          1          1          1          1          1          1          1          1          1          1          1          1          1          1          1          1          1          1          1          1          1          1          1          1          1          1          1          1          1          1          1          1          1          1          1          1          1          1          1          1          1          1          1          1          1          1          1          1          1          1          1          1          1          1          1          1          1          1          1          1          1          1          1          1          1          1          1          1          1          1          1          1          1          1          1          1          1          1          1          1          1          1          1          1          1          1          1          1          1          1          1          1          1          1          1          1          1          1          1          1          1          1          1          1          1          1          1          1          1          1          1          1          1          1          1          1          1          1          1          1          1          1          1          1          1          1          1          1          1          1          1          1          1          1          1          1          1          1          1          1          1          1          1          1          1          1          1          1          1          1          1          1          1          1          1          1          1          1          1          1          1          1          1          1          1          1          1          1          1          1          1          1          1          1          1          1          1          1          1          1          1          1          1          1          1          1          1          1          1          1          1          1          1          1          1          1          1          1          1          1          1          1          1          1          1          1          1          1          1          1          1          1          1          1          1          1          1          1          1          1          1          1          1          1          1          1          1          1          1          1          1          1          1          1          1          1          1          1          1          1          1          1          1          1          1          1          1          1          1          1          1          1          1          1          1          1          1          1          1          1          1          1          1          1          1          1          1          1          1          1          1          1          1          1          1          1          1          1          1          1          1          1          1          1          1          1          1          1          1          1          1          1          1          1          1          1          1          1          1          1          1          1          1          1          1          1          1          1          1          1          1          1          1          1          1          1          1          1          1          1          1          1          1          1          1          1          1          1          1          1          1          1          1          1          1          1          1          1          1          1          1          1          1          1          1          1          1          1          1          1          1          1          1          1          1          1          1          1          1          1          1          1          1          1          1          1          1          1          1          1          1          1          1          1          1          1          1          1          1          1          1          1          1          1          1          1          1          1          1          1          1          1          1          1          1          1          1          1 </DataArray>
</CellData>
<PointData>
<DataArray type="Float64"                                    Name="u"                                                      NumberOfComponents=" 3" format="ascii">
              0.000006744               0.000000000               0.999999999               0.000002896               0.000000000               0.999999999               0.000001022              -0.000000000               0.999999999               0.000000022              -0.000000000               0.999999999              -0.000000441               0.000000000               0.999999999              -0.000000643              -0.000000000               0.999999999              -0.000000666               0.000000000               0.999999999              -0.000000596               0.000000000               0.999999999              -0.000000639              -0.000000000               0.999999999              -0.000000872              -0.000000000               0.999999999              -0.000001305               0.000000000               0.999999999              -0.000001954               0.000000000               0.999999999              -0.000002970              -0.000000000               0.999999999              -0.000004487              -0.000000000               0.999999999              -0.000006500              -0.000000000               0.999999999              -0.000009021              -0.000000000               0.999999999              -0.000012106              -0.000000000               0.999999999               0.000006697               0.000009504               0.999999999               0.000002932               0.000008684               0.999999999               0.000001112               0.000008610               0.999999999               0.000000179               0.000008858               0.999999999              -0.000000336               0.000009271               0.999999999              -0.000000573               0.000009845               0.999999999              -0.000000665               0.000010511               0.999999999              -0.000000792               0.000011440               0.999999999              -0.000001027               0.000012586               0.999999999              -0.000001441               0.000013861               0.999999999              -0.000002093               0.000015160               0.999999999              -0.000003045               0.000016680               0.999999999              -0.000004333               0.000018464               0.999999999              -0.000006018               0.000020390               0.999999999              -0.000008211               0.000022546               0.999999999              -0.000010911               0.000024959               0.999999999              -0.000014140               0.000027657               0.999999999               0.000006445               0.000018862               0.999999999               0.000003042               0.000017268               0.999999999               0.000001413               0.000017101               0.999999999               0.000000526               0.000017688               0.999999999              -0.000000033               0.000018601               0.999999999              -0.000000408               0.000019774               0.999999999              -0.000000799               0.000021267               0.999999999              -0.000001336               0.000023223               0.999999999              -0.000002098               0.000025528               0.999999999              -0.000003137               0.000028064               0.999999999              -0.000004377               0.000030639               0.999999999              -0.000005909               0.000033676               0.999999999              -0.000007831               0.000037116               0.999999999              -0.000010173               0.000040825               0.999999999              -0.000012979               0.000044951               0.999999999              -0.000016214               0.000049468               0.999999999              -0.000019881               0.000054369               0.999999999               0.000006075               0.000028024               0.999999999               0.000003244               0.000025623               0.999999999               0.000001846               0.000025476               0.999999999               0.000000994               0.000026415               0.999999999               0.000000388               0.000027969               0.999999999              -0.000000261               0.000029910               0.999999999              -0.000001083               0.000032390               0.999999999              -0.000002200               0.000035525               0.999999999              -0.000003672               0.000039085               0.999999999              -0.000005417               0.000042874               0.999999999              -0.000007445               0.000046744               0.999999999              -0.000009818               0.000051219               0.999999999              -0.000012520               0.000056220               0.999999999              -0.000015558               0.000061647               0.999999999              -0.000019017               0.000067619               0.999999999              -0.000022904               0.000074021               0.999999999              -0.000027211               0.000080847               0.999999999               0.000005652               0.000036950               0.999999999               0.000003484               0.000033675               0.999999999               0.000002355               0.000033633               0.999999999               0.000001538               0.000035043               0.999999999               0.000000707               0.000037329               0.999999999              -0.000000259               0.000040212               0.999999999              -0.000001594               0.000043907               0.999999999              -0.000003401               0.000048325               0.999999999              -0.000005570               0.000053296               0.999999999              -0.000008093               0.000058301               0.999999999              -0.000010909               0.000063635               0.999999999              -0.000014091               0.000069679               0.999999999              -0.000017622               0.000076293               0.999999999              -0.000021542               0.000083437               0.999999999              -0.000025977               0.000091193               0.999999999              -0.000030839               0.000099536               0.999999999              -0.000036109               0.000108473               0.999999999               0.000005092               0.000045478               0.999999999               0.000003812               0.000041410               0.999999999               0.000002898               0.000041543               0.999999999               0.000001968               0.000043545               0.999999999               0.000000891               0.000046651               0.999999999              -0.000000509               0.000050608               0.999999999              -0.000002444               0.000055688               0.999999999              -0.000004901               0.000061565               0.999999999              -0.000007802               0.000067901               0.999999999              -0.000011002               0.000074458               0.999999999              -0.000014541               0.000081482               0.999999999              -0.000018565               0.000089351               0.999999999              -0.000023017               0.000097888               0.999999999              -0.000027936               0.000107100               0.999999999              -0.000033373               0.000117030               0.999999999              -0.000039299               0.000127709               0.999999999              -0.000045671               0.000139120               0.999999999               0.000004462               0.000053502               0.999999999               0.000004171               0.000048791               0.999999999               0.000003355               0.000049208               0.999999999               0.000002263               0.000051864               0.999999999               0.000000856               0.000055882               0.999999999              -0.000001077               0.000061105               0.999999999              -0.000003677               0.000067603               0.999999999              -0.000006849               0.000074967               0.999999999              -0.000010370               0.000082951               0.999999999              -0.000014221               0.000091259               0.999999999              -0.000018464               0.000100432               0.999999999              -0.000023161               0.000110688               0.999999999              -0.000028373               0.000121734               0.999999999              -0.000034174               0.000133593               0.999999999              -0.000040566               0.000146402               0.999999999              -0.000047478               0.000159988               0.999999999              -0.000054831               0.000174318               0.999999999               0.000003840               0.000060993               0.999999999               0.000004478               0.000055795               0.999999999               0.000003738               0.000056587               0.999999999               0.000002416               0.000059984               0.999999999               0.000000600               0.000065025               0.999999999              -0.000001926               0.000071644               0.999999999              -0.000005236               0.000079674               0.999999999              -0.000009031               0.000088720               0.999999999              -0.000013111               0.000098530               0.999999999              -0.000017434               0.000109220               0.999999999              -0.000022145               0.000121091               0.999999999              -0.000027477               0.000134277               0.999999999              -0.000033508               0.000148393               0.999999999              -0.000040154               0.000163458               0.999999999              -0.000047383               0.000179540               0.999999999              -0.000055129               0.000196446               0.999999999              -0.000063376               0.000214070               0.999999999               0.000003162               0.000067778               0.999999999               0.000004802               0.000062458               0.999999999               0.000004002               0.000063646               0.999999999               0.000002423               0.000067879               0.999999999               0.000000216               0.000074128               0.999999999              -0.000002970               0.000082282               0.999999999              -0.000006885               0.000092034               0.999999999              -0.000011123               0.000103079               0.999999999              -0.000015482               0.000115375               0.999999999              -0.000020145               0.000128949               0.999999999              -0.000025520               0.000143939               0.999999999              -0.000031605               0.000160347               0.999999999              -0.000038364               0.000177846               0.999999999              -0.000045753               0.000196496               0.999999999              -0.000053705               0.000216223               0.999999999              -0.000062119               0.000236869               0.999999999              -0.000070853               0.000258219               0.999999999               0.000002379               0.000074076               0.999999999               0.000004923               0.000069170               0.999999999               0.000004510               0.000069752               0.999999999               0.000003203               0.000073331               0.999999999               0.000001348               0.000078910               0.999999999              -0.000001347               0.000086236               0.999999999              -0.000004663               0.000095192               0.999999999              -0.000008338               0.000105577               0.999999999              -0.000012210               0.000117207               0.999999999              -0.000016130               0.000129973               0.999999999              -0.000020329               0.000143975               0.999999999              -0.000025107               0.000159266               0.999999999              -0.000030435               0.000175721               0.999999999              -0.000036258               0.000193132               0.999999999              -0.000042580               0.000211560               0.999999999              -0.000049275               0.000231081               0.999999999              -0.000056489               0.000251519               0.999999999               0.000001730               0.000079811               0.999999999               0.000004784               0.000075534               0.999999999               0.000004815               0.000075842               0.999999999               0.000003836               0.000078881               0.999999999               0.000002326               0.000083892               0.999999999               0.000000155               0.000090539               0.999999999              -0.000002576               0.000098726               0.999999999              -0.000005771               0.000108398               0.999999999              -0.000009190               0.000119388               0.999999999              -0.000012482               0.000131535               0.999999999              -0.000015812               0.000144734               0.999999999              -0.000019483               0.000159059               0.999999999              -0.000023528               0.000174493               0.999999999              -0.000027841               0.000190819               0.999999999              -0.000032520               0.000208033               0.999999999              -0.000037692               0.000226155               0.999999999              -0.000043345               0.000245320               0.999999999               0.000001161               0.000084817               0.999999999               0.000004415               0.000081444               0.999999999               0.000004840               0.000081672               0.999999999               0.000004193               0.000084377               0.999999999               0.000003048               0.000088936               0.999999999               0.000001315               0.000095019               0.999999999              -0.000000873               0.000102565               0.999999999              -0.000003550               0.000111587               0.999999999              -0.000006399               0.000121980               0.999999999              -0.000009200               0.000133555               0.999999999              -0.000011872               0.000146173               0.999999999              -0.000014598               0.000159706               0.999999999              -0.000017515               0.000174168               0.999999999              -0.000020572               0.000189571               0.999999999              -0.000023896               0.000205779               0.999999999              -0.000027551               0.000222774               0.999999999              -0.000031484               0.000240692               0.999999999               0.000000677               0.000088964               0.999999999               0.000003825               0.000086643               0.999999999               0.000004513               0.000087038               0.999999999               0.000004175               0.000089567               0.999999999               0.000003334               0.000093782               0.999999999               0.000002023               0.000099454               0.999999999               0.000000303               0.000106579               0.999999999              -0.000001674               0.000115121               0.999999999              -0.000003945               0.000125006               0.999999999              -0.000006245               0.000136099               0.999999999              -0.000008386               0.000148081               0.999999999              -0.000010430               0.000160897               0.999999999              -0.000012458               0.000174604               0.999999999              -0.000014568               0.000189264               0.999999999              -0.000016787               0.000204746               0.999999999              -0.000019085               0.000221062               0.999999999              -0.000021473               0.000238069               0.999999999               0.000000361               0.000092278               0.999999999               0.000003045               0.000090946               0.999999999               0.000003788               0.000091626               0.999999999               0.000003719               0.000094127               0.999999999               0.000003140               0.000098170               0.999999999               0.000002197               0.000103602               0.999999999               0.000001031               0.000110490               0.999999999              -0.000000412               0.000118662               0.999999999              -0.000002089               0.000128059               0.999999999              -0.000003828               0.000138641               0.999999999              -0.000005449               0.000150102               0.999999999              -0.000006907               0.000162412               0.999999999              -0.000008273               0.000175656               0.999999999              -0.000009709               0.000189797               0.999999999              -0.000011118               0.000204777               0.999999999              -0.000012387               0.000220511               0.999999999              -0.000013664               0.000236840               0.999999999               0.000000177               0.000094659               0.999999999               0.000002100               0.000094186               0.999999999               0.000002740               0.000095188               0.999999999               0.000002812               0.000097723               0.999999999               0.000002459               0.000101728               0.999999999               0.000001877               0.000107115               0.999999999               0.000001135               0.000113776               0.999999999               0.000000152               0.000121637               0.999999999              -0.000000891               0.000130733               0.999999999              -0.000001988               0.000140860               0.999999999              -0.000003081               0.000151906               0.999999999              -0.000004089               0.000163928               0.999999999              -0.000004987               0.000176903               0.999999999              -0.000005877               0.000190704               0.999999999              -0.000006665               0.000205283               0.999999999              -0.000007287               0.000220540               0.999999999              -0.000007854               0.000236422               0.999999999               0.000000067               0.000096077               0.999999999               0.000001067               0.000096195               0.999999999               0.000001442               0.000097449               0.999999999               0.000001504               0.000100047               0.999999999               0.000001357               0.000104063               0.999999999               0.000001096               0.000109429               0.999999999               0.000000661               0.000115997               0.999999999               0.000000257               0.000123692               0.999999999              -0.000000241               0.000132543               0.999999999              -0.000000791               0.000142403               0.999999999              -0.000001368               0.000153259               0.999999999              -0.000001895               0.000165108               0.999999999              -0.000002326               0.000177829               0.999999999              -0.000002725               0.000191390               0.999999999              -0.000003070               0.000205763               0.999999999              -0.000003340               0.000220777               0.999999999              -0.000003549               0.000236428               0.999999999               0.000000000               0.000096568               0.999999999              -0.000000000               0.000096879               0.999999999              -0.000000000               0.000098201               0.999999999              -0.000000000               0.000100860               0.999999999              -0.000000000               0.000104894               0.999999999              -0.000000000               0.000110222               0.999999999              -0.000000000               0.000116815               0.999999999              -0.000000000               0.000124439               0.999999999              -0.000000000               0.000133135               0.999999999              -0.000000000               0.000142974               0.999999999               0.000000000               0.000153787               0.999999999               0.000000000               0.000165503               0.999999999               0.000000000               0.000178162               0.999999999               0.000000000               0.000191699               0.999999999               0.000000000               0.000205969               0.999999999               0.000000000               0.000220872               0.999999999              -0.000000000               0.000236454               0.999999999               0.000006744               0.000000000               0.999999999               0.000002896               0.000000000               0.999999999               0.000001022              -0.000000000               0.999999999               0.000000022              -0.000000000               0.999999999              -0.000000441               0.000000000               0.999999999              -0.000000643              -0.000000000               0.999999999              -0.000000666               0.000000000               0.999999999              -0.000000596               0.000000000               0.999999999              -0.000000639              -0.000000000               0.999999999              -0.000000872              -0.000000000               0.999999999              -0.000001305               0.000000000               0.999999999              -0.000001954               0.000000000               0.999999999              -0.000002970              -0.000000000               0.999999999              -0.000004487              -0.000000000               0.999999999              -0.000006500              -0.000000000               0.999999999              -0.000009021              -0.000000000               0.999999999              -0.000012106              -0.000000000               0.999999999               0.000006697              -0.000009504               0.999999999               0.000002932              -0.000008684               0.999999999               0.000001112              -0.000008610               0.999999999               0.000000179              -0.000008858               0.999999999              -0.000000336              -0.000009271               0.999999999              -0.000000573              -0.000009845               0.999999999              -0.000000665              -0.000010511               0.999999999              -0.000000792              -0.000011440               0.999999999              -0.000001027              -0.000012586               0.999999999              -0.000001441              -0.000013861               0.999999999              -0.000002093              -0.000015160               0.999999999              -0.000003045              -0.000016680               0.999999999              -0.000004333              -0.000018464               0.999999999              -0.000006018              -0.000020390               0.999999999              -0.000008211              -0.000022546               0.999999999              -0.000010911              -0.000024959               0.999999999              -0.000014140              -0.000027657               0.999999999               0.000006445              -0.000018862               0.999999999               0.000003042              -0.000017268               0.999999999               0.000001413              -0.000017101               0.999999999               0.000000526              -0.000017688               0.999999999              -0.000000033              -0.000018601               0.999999999              -0.000000408              -0.000019774               0.999999999              -0.000000799              -0.000021267               0.999999999              -0.000001336              -0.000023223               0.999999999              -0.000002098              -0.000025528               0.999999999              -0.000003137              -0.000028064               0.999999999              -0.000004377              -0.000030639               0.999999999              -0.000005909              -0.000033676               0.999999999              -0.000007831              -0.000037116               0.999999999              -0.000010173              -0.000040825               0.999999999              -0.000012979              -0.000044951               0.999999999              -0.000016214              -0.000049468               0.999999999              -0.000019881              -0.000054369               0.999999999               0.000006075              -0.000028024               0.999999999               0.000003244              -0.000025623               0.999999999               0.000001846              -0.000025476               0.999999999               0.000000994              -0.000026415               0.999999999               0.000000388              -0.000027969               0.999999999              -0.000000261              -0.000029910               0.999999999              -0.000001083              -0.000032390               0.999999999              -0.000002200              -0.000035525               0.999999999              -0.000003672              -0.000039085               0.999999999              -0.000005417              -0.000042874               0.999999999              -0.000007445              -0.000046744               0.999999999              -0.000009818              -0.000051219               0.999999999              -0.000012520              -0.000056220               0.999999999              -0.000015558              -0.000061647               0.999999999              -0.000019017              -0.000067619               0.999999999              -0.000022904              -0.000074021               0.999999999              -0.000027211              -0.000080847               0.999999999               0.000005652              -0.000036950               0.999999999               0.000003484              -0.000033675               0.999999999               0.000002355              -0.000033633               0.999999999               0.000001538              -0.000035043               0.999999999               0.000000707              -0.000037329               0.999999999              -0.000000259              -0.000040212               0.999999999              -0.000001594              -0.000043907               0.999999999              -0.000003401              -0.000048325               0.999999999              -0.000005570              -0.000053296               0.999999999              -0.000008093              -0.000058301               0.999999999              -0.000010909              -0.000063635               0.999999999              -0.000014091              -0.000069679               0.999999999              -0.000017622              -0.000076293               0.999999999              -0.000021542              -0.000083437               0.999999999              -0.000025977              -0.000091193               0.999999999              -0.000030839              -0.000099536               0.999999999              -0.000036109              -0.000108473               0.999999999               0.000005092              -0.000045478               0.999999999               0.000003812              -0.000041410               0.999999999               0.000002898              -0.000041543               0.999999999               0.000001968              -0.000043545               0.999999999               0.000000891              -0.000046651               0.999999999              -0.000000509              -0.000050608               0.999999999              -0.000002444              -0.000055688               0.999999999              -0.000004901              -0.000061565               0.999999999              -0.000007802              -0.000067901               0.999999999              -0.000011002              -0.000074458               0.999999999              -0.000014541              -0.000081482               0.999999999              -0.000018565              -0.000089351               0.999999999              -0.000023017              -0.000097888               0.999999999              -0.000027936              -0.000107100               0.999999999              -0.000033373              -0.000117030               0.999999999              -0.000039299              -0.000127709               0.999999999              -0.000045671              -0.000139120               0.999999999               0.000004462              -0.000053502               0.999999999               0.000004171              -0.000048791               0.999999999               0.000003355              -0.000049208               0.999999999               0.000002263              -0.000051864               0.999999999               0.000000856              -0.000055882               0.999999999              -0.000001077              -0.000061105               0.999999999              -0.000003677              -0.000067603               0.999999999              -0.000006849              -0.000074967               0.999999999              -0.000010370              -0.000082951               0.999999999              -0.000014221              -0.000091259               0.999999999              -0.000018464              -0.000100432               0.999999999              -0.000023161              -0.000110688               0.999999999              -0.000028373              -0.000121734               0.999999999              -0.000034174              -0.000133593               0.999999999              -0.000040566              -0.000146402               0.999999999              -0.000047478              -0.000159988               0.999999999              -0.000054831              -0.000174318               0.999999999               0.000003840              -0.000060993               0.999999999               0.000004478              -0.000055795               0.999999999               0.000003738              -0.000056587               0.999999999               0.000002416              -0.000059984               0.999999999               0.000000600              -0.000065025               0.999999999              -0.000001926              -0.000071644               0.999999999              -0.000005236              -0.000079674               0.999999999              -0.000009031              -0.000088720               0.999999999              -0.000013111              -0.000098530               0.999999999              -0.000017434              -0.000109220               0.999999999              -0.000022145              -0.000121091               0.999999999              -0.000027477              -0.000134277               0.999999999              -0.000033508              -0.000148393               0.999999999              -0.000040154              -0.000163458               0.999999999              -0.000047383              -0.000179540               0.999999999              -0.000055129              -0.000196446               0.999999999              -0.000063376              -0.000214070               0.999999999               0.000003162              -0.000067778               0.999999999               0.000004802              -0.000062458               0.999999999               0.000004002              -0.000063646               0.999999999               0.000002423              -0.000067879               0.999999999               0.000000216              -0.000074128               0.999999999              -0.000002970              -0.000082282               0.999999999              -0.000006885              -0.000092034               0.999999999              -0.000011123              -0.000103079               0.999999999              -0.000015482              -0.000115375               0.999999999              -0.000020145              -0.000128949               0.999999999              -0.000025520              -0.000143939               0.999999999              -0.000031605              -0.000160347               0.999999999              -0.000038364              -0.000177846               0.999999999              -0.000045753              -0.000196496               0.999999999              -0.000053705              -0.000216223               0.999999999              -0.000062119              -0.000236869               0.999999999              -0.000070853              -0.000258219               0.999999999               0.000002379              -0.000074076               0.999999999               0.000004923              -0.000069170               0.999999999               0.000004510              -0.000069752               0.999999999               0.000003203              -0.000073331               0.999999999               0.000001348              -0.000078910               0.999999999              -0.000001347              -0.000086236               0.999999999              -0.000004663              -0.000095192               0.999999999              -0.000008338              -0.000105577               0.999999999              -0.000012210              -0.000117207               0.999999999              -0.000016130              -0.000129973               0.999999999              -0.000020329              -0.000143975               0.999999999              -0.000025107              -0.000159266               0.999999999              -0.000030435              -0.000175721               0.999999999              -0.000036258              -0.000193132               0.999999999              -0.000042580              -0.000211560               0.999999999              -0.000049275              -0.000231081               0.999999999              -0.000056489              -0.000251519               0.999999999               0.000001730              -0.000079811               0.999999999               0.000004784              -0.000075534               0.999999999               0.000004815              -0.000075842               0.999999999               0.000003836              -0.000078881               0.999999999               0.000002326              -0.000083892               0.999999999               0.000000155              -0.000090539               0.999999999              -0.000002576              -0.000098726               0.999999999              -0.000005771              -0.000108398               0.999999999              -0.000009190              -0.000119388               0.999999999              -0.000012482              -0.000131535               0.999999999              -0.000015812              -0.000144734               0.999999999              -0.000019483              -0.000159059               0.999999999              -0.000023528              -0.000174493               0.999999999              -0.000027841              -0.000190819               0.999999999              -0.000032520              -0.000208033               0.999999999              -0.000037692              -0.000226155               0.999999999              -0.000043345              -0.000245320               0.999999999               0.000001161              -0.000084817               0.999999999               0.000004415              -0.000081444               0.999999999               0.000004840              -0.000081672               0.999999999               0.000004193              -0.000084377               0.999999999               0.000003048              -0.000088936               0.999999999               0.000001315              -0.000095019               0.999999999              -0.000000873              -0.000102565               0.999999999              -0.000003550              -0.000111587               0.999999999              -0.000006399              -0.000121980               0.999999999              -0.000009200              -0.000133555               0.999999999              -0.000011872              -0.000146173               0.999999999              -0.000014598              -0.000159706               0.999999999              -0.000017515              -0.000174168               0.999999999              -0.000020572              -0.000189571               0.999999999              -0.000023896              -0.000205779               0.999999999              -0.000027551              -0.000222774               0.999999999              -0.000031484              -0.000240692               0.999999999               0.000000677              -0.000088964               0.999999999               0.000003825              -0.000086643               0.999999999               0.000004513              -0.000087038               0.999999999               0.000004175              -0.000089567               0.999999999               0.000003334              -0.000093782               0.999999999               0.000002023              -0.000099454               0.999999999               0.000000303              -0.000106579               0.999999999              -0.000001674              -0.000115121               0.999999999              -0.000003945              -0.000125006               0.999999999              -0.000006245              -0.000136099               0.999999999              -0.000008386              -0.000148081               0.999999999              -0.000010430              -0.000160897               0.999999999              -0.000012458              -0.000174604               0.999999999              -0.000014568              -0.000189264               0.999999999              -0.000016787              -0.000204746               0.999999999              -0.000019085              -0.000221062               0.999999999              -0.000021473              -0.000238069               0.999999999               0.000000361              -0.000092278               0.999999999               0.000003045              -0.000090946               0.999999999               0.000003788              -0.000091626               0.999999999               0.000003719              -0.000094127               0.999999999               0.000003140              -0.000098170               0.999999999               0.000002197              -0.000103602               0.999999999               0.000001031              -0.000110490               0.999999999              -0.000000412              -0.000118662               0.999999999              -0.000002089              -0.000128059               0.999999999              -0.000003828              -0.000138641               0.999999999              -0.000005449              -0.000150102               0.999999999              -0.000006907              -0.000162412               0.999999999              -0.000008273              -0.000175656               0.999999999              -0.000009709              -0.000189797               0.999999999              -0.000011118              -0.000204777               0.999999999              -0.000012387              -0.000220511               0.999999999              -0.000013664              -0.000236840               0.999999999               0.000000177              -0.000094659               0.999999999               0.000002100              -0.000094186               0.999999999               0.000002740              -0.000095188               0.999999999               0.000002812              -0.000097723               0.999999999               0.000002459              -0.000101728               0.999999999               0.000001877              -0.000107115               0.999999999               0.000001135              -0.000113776               0.999999999               0.000000152              -0.000121637               0.999999999              -0.000000891              -0.000130733               0.999999999              -0.000001988              -0.000140860               0.999999999              -0.000003081              -0.000151906               0.999999999              -0.000004089              -0.000163928               0.999999999              -0.000004987              -0.000176903               0.999999999              -0.000005877              -0.000190704               0.999999999              -0.000006665              -0.000205283               0.999999999              -0.000007287              -0.000220540               0.999999999              -0.000007854              -0.000236422               0.999999999               0.000000067              -0.000096077               0.999999999               0.000001067              -0.000096195               0.999999999               0.000001442              -0.000097449               0.999999999               0.000001504              -0.000100047               0.999999999               0.000001357              -0.000104063               0.999999999               0.000001096              -0.000109429               0.999999999               0.000000661              -0.000115997               0.999999999               0.000000257              -0.000123692               0.999999999              -0.000000241              -0.000132543               0.999999999              -0.000000791              -0.000142403               0.999999999              -0.000001368              -0.000153259               0.999999999              -0.000001895              -0.000165108               0.999999999              -0.000002326              -0.000177829               0.999999999              -0.000002725              -0.000191390               0.999999999              -0.000003070              -0.000205763               0.999999999              -0.000003340              -0.000220777               0.999999999              -0.000003549              -0.000236428               0.999999999               0.000000000              -0.000096568               0.999999999              -0.000000000              -0.000096879               0.999999999               0.000000000              -0.000098201               0.999999999              -0.000000000              -0.000100860               0.999999999              -0.000000000              -0.000104894               0.999999999               0.000000000              -0.000110222               0.999999999               0.000000000              -0.000116815               0.999999999              -0.000000000              -0.000124439               0.999999999              -0.000000000              -0.000133135               0.999999999               0.000000000              -0.000142974               0.999999999               0.000000000              -0.000153787               0.999999999              -0.000000000              -0.000165503               0.999999999              -0.000000000              -0.000178162               0.999999999              -0.000000000              -0.000191699               0.999999999              -0.000000000              -0.000205969               0.999999999              -0.000000000              -0.000220872               0.999999999               0.000000000              -0.000236454               0.999999999              -0.000006744              -0.000000000               0.999999999              -0.000002896              -0.000000000               0.999999999              -0.000001022              -0.000000000               0.999999999              -0.000000022              -0.000000000               0.999999999               0.000000441              -0.000000000               0.999999999               0.000000643              -0.000000000               0.999999999               0.000000666               0.000000000               0.999999999               0.000000596              -0.000000000               0.999999999               0.000000639              -0.000000000               0.999999999               0.000000872              -0.000000000               0.999999999               0.000001305              -0.000000000               0.999999999               0.000001954              -0.000000000               0.999999999               0.000002970              -0.000000000               0.999999999               0.000004487               0.000000000               0.999999999               0.000006500              -0.000000000               0.999999999               0.000009021              -0.000000000               0.999999999               0.000012106              -0.000000000               0.999999999              -0.000006697              -0.000009504               0.999999999              -0.000002932              -0.000008684               0.999999999              -0.000001112              -0.000008610               0.999999999              -0.000000179              -0.000008858               0.999999999               0.000000336              -0.000009271               0.999999999               0.000000573              -0.000009845               0.999999999               0.000000665              -0.000010511               0.999999999               0.000000792              -0.000011440               0.999999999               0.000001027              -0.000012586               0.999999999               0.000001441              -0.000013861               0.999999999               0.000002093              -0.000015160               0.999999999               0.000003045              -0.000016680               0.999999999               0.000004333              -0.000018464               0.999999999               0.000006018              -0.000020390               0.999999999               0.000008211              -0.000022546               0.999999999               0.000010911              -0.000024959               0.999999999               0.000014140              -0.000027657               0.999999999              -0.000006445              -0.000018862               0.999999999              -0.000003042              -0.000017268               0.999999999              -0.000001413              -0.000017101               0.999999999              -0.000000526              -0.000017688               0.999999999               0.000000033              -0.000018601               0.999999999               0.000000408              -0.000019774               0.999999999               0.000000799              -0.000021267               0.999999999               0.000001336              -0.000023223               0.999999999               0.000002098              -0.000025528               0.999999999               0.000003137              -0.000028064               0.999999999               0.000004377              -0.000030639               0.999999999               0.000005909              -0.000033676               0.999999999               0.000007831              -0.000037116               0.999999999               0.000010173              -0.000040825               0.999999999               0.000012979              -0.000044951               0.999999999               0.000016214              -0.000049468               0.999999999               0.000019881              -0.000054369               0.999999999              -0.000006075              -0.000028024               0.999999999              -0.000003244              -0.000025623               0.999999999              -0.000001846              -0.000025476               0.999999999              -0.000000994              -0.000026415               0.999999999              -0.000000388              -0.000027969               0.999999999               0.000000261              -0.000029910               0.999999999               0.000001083              -0.000032390               0.999999999               0.000002200              -0.000035525               0.999999999               0.000003672              -0.000039085               0.999999999               0.000005417              -0.000042874               0.999999999               0.000007445              -0.000046744               0.999999999               0.000009818              -0.000051219               0.999999999               0.000012520              -0.000056220               0.999999999               0.000015558              -0.000061647               0.999999999               0.000019017              -0.000067619               0.999999999               0.000022904              -0.000074021               0.999999999               0.000027211              -0.000080847               0.999999999              -0.000005652              -0.000036950               0.999999999              -0.000003484              -0.000033675               0.999999999              -0.000002355              -0.000033633               0.999999999              -0.000001538              -0.000035043               0.999999999              -0.000000707              -0.000037329               0.999999999               0.000000259              -0.000040212               0.999999999               0.000001594              -0.000043907               0.999999999               0.000003401              -0.000048325               0.999999999               0.000005570              -0.000053296               0.999999999               0.000008093              -0.000058301               0.999999999               0.000010909              -0.000063635               0.999999999               0.000014091              -0.000069679               0.999999999               0.000017622              -0.000076293               0.999999999               0.000021542              -0.000083437               0.999999999               0.000025977              -0.000091193               0.999999999               0.000030839              -0.000099536               0.999999999               0.000036109              -0.000108473               0.999999999              -0.000005092              -0.000045478               0.999999999              -0.000003812              -0.000041410               0.999999999              -0.000002898              -0.000041543               0.999999999              -0.000001968              -0.000043545               0.999999999              -0.000000891              -0.000046651               0.999999999               0.000000509              -0.000050608               0.999999999               0.000002444              -0.000055688               0.999999999               0.000004901              -0.000061565               0.999999999               0.000007802              -0.000067901               0.999999999               0.000011002              -0.000074458               0.999999999               0.000014541              -0.000081482               0.999999999               0.000018565              -0.000089351               0.999999999               0.000023017              -0.000097888               0.999999999               0.000027936              -0.000107100               0.999999999               0.000033373              -0.000117030               0.999999999               0.000039299              -0.000127709               0.999999999               0.000045671              -0.000139120               0.999999999              -0.000004462              -0.000053502               0.999999999              -0.000004171              -0.000048791               0.999999999              -0.000003355              -0.000049208               0.999999999              -0.000002263              -0.000051864               0.999999999              -0.000000856              -0.000055882               0.999999999               0.000001077              -0.000061105               0.999999999               0.000003677              -0.000067603               0.999999999               0.000006849              -0.000074967               0.999999999               0.000010370              -0.000082951               0.999999999               0.000014221              -0.000091259               0.999999999               0.000018464              -0.000100432               0.999999999               0.000023161              -0.000110688               0.999999999               0.000028373              -0.000121734               0.999999999               0.000034174              -0.000133593               0.999999999               0.000040566              -0.000146402               0.999999999               0.000047478              -0.000159988               0.999999999               0.000054831              -0.000174318               0.999999999              -0.000003840              -0.000060993               0.999999999              -0.000004478              -0.000055795               0.999999999              -0.000003738              -0.000056587               0.999999999              -0.000002416              -0.000059984               0.999999999              -0.000000600              -0.000065025               0.999999999               0.000001926              -0.000071644               0.999999999               0.000005236              -0.000079674               0.999999999               0.000009031              -0.000088720               0.999999999               0.000013111              -0.000098530               0.999999999               0.000017434              -0.000109220               0.999999999               0.000022145              -0.000121091               0.999999999               0.000027477              -0.000134277               0.999999999               0.000033508              -0.000148393               0.999999999               0.000040154              -0.000163458               0.999999999               0.000047383              -0.000179540               0.999999999               0.000055129              -0.000196446               0.999999999               0.000063376              -0.000214070               0.999999999              -0.000003162              -0.000067778               0.999999999              -0.000004802              -0.000062458               0.999999999              -0.000004002              -0.000063646               0.999999999              -0.000002423              -0.000067879               0.999999999              -0.000000216              -0.000074128               0.999999999               0.000002970              -0.000082282               0.999999999               0.000006885              -0.000092034               0.999999999               0.000011123              -0.000103079               0.999999999               0.000015482              -0.000115375               0.999999999               0.000020145              -0.000128949               0.999999999               0.000025520              -0.000143939               0.999999999               0.000031605              -0.000160347               0.999999999               0.000038364              -0.000177846               0.999999999               0.000045753              -0.000196496               0.999999999               0.000053705              -0.000216223               0.999999999               0.000062119              -0.000236869               0.999999999               0.000070853              -0.000258219               0.999999999              -0.000002379              -0.000074076               0.999999999              -0.000004923              -0.000069170               0.999999999              -0.000004510              -0.000069752               0.999999999              -0.000003203              -0.000073331               0.999999999              -0.000001348              -0.000078910               0.999999999               0.000001347              -0.000086236               0.999999999               0.000004663              -0.000095192               0.999999999               0.000008338              -0.000105577               0.999999999               0.000012210              -0.000117207               0.999999999               0.000016130              -0.000129973               0.999999999               0.000020329              -0.000143975               0.999999999               0.000025107              -0.000159266               0.999999999               0.000030435              -0.000175721               0.999999999               0.000036258              -0.000193132               0.999999999               0.000042580              -0.000211560               0.999999999               0.000049275              -0.000231081               0.999999999               0.000056489              -0.000251519               0.999999999              -0.000001730              -0.000079811               0.999999999              -0.000004784              -0.000075534               0.999999999              -0.000004815              -0.000075842               0.999999999              -0.000003836              -0.000078881               0.999999999              -0.000002326              -0.000083892               0.999999999              -0.000000155              -0.000090539               0.999999999               0.000002576              -0.000098726               0.999999999               0.000005771              -0.000108398               0.999999999               0.000009190              -0.000119388               0.999999999               0.000012482              -0.000131535               0.999999999               0.000015812              -0.000144734               0.999999999               0.000019483              -0.000159059               0.999999999               0.000023528              -0.000174493               0.999999999               0.000027841              -0.000190819               0.999999999               0.000032520              -0.000208033               0.999999999               0.000037692              -0.000226155               0.999999999               0.000043345              -0.000245320               0.999999999              -0.000001161              -0.000084817               0.999999999              -0.000004415              -0.000081444               0.999999999              -0.000004840              -0.000081672               0.999999999              -0.000004193              -0.000084377               0.999999999              -0.000003048              -0.000088936               0.999999999              -0.000001315              -0.000095019               0.999999999               0.000000873              -0.000102565               0.999999999               0.000003550              -0.000111587               0.999999999               0.000006399              -0.000121980               0.999999999               0.000009200              -0.000133555               0.999999999               0.000011872              -0.000146173               0.999999999               0.000014598              -0.000159706               0.999999999               0.000017515              -0.000174168               0.999999999               0.000020572              -0.000189571               0.999999999               0.000023896              -0.000205779               0.999999999               0.000027551              -0.000222774               0.999999999               0.000031484              -0.000240692               0.999999999              -0.000000677              -0.000088964               0.999999999              -0.000003825              -0.000086643               0.999999999              -0.000004513              -0.000087038               0.999999999              -0.000004175              -0.000089567               0.999999999              -0.000003334              -0.000093782               0.999999999              -0.000002023              -0.000099454               0.999999999              -0.000000303              -0.000106579               0.999999999               0.000001674              -0.000115121               0.999999999               0.000003945              -0.000125006               0.999999999               0.000006245              -0.000136099               0.999999999               0.000008386              -0.000148081               0.999999999               0.000010430              -0.000160897               0.999999999               0.000012458              -0.000174604               0.999999999               0.000014568              -0.000189264               0.999999999               0.000016787              -0.000204746               0.999999999               0.000019085              -0.000221062               0.999999999               0.000021473              -0.000238069               0.999999999              -0.000000361              -0.000092278               0.999999999              -0.000003045              -0.000090946               0.999999999              -0.000003788              -0.000091626               0.999999999              -0.000003719              -0.000094127               0.999999999              -0.000003140              -0.000098170               0.999999999              -0.000002197              -0.000103602               0.999999999              -0.000001031              -0.000110490               0.999999999               0.000000412              -0.000118662               0.999999999               0.000002089              -0.000128059               0.999999999               0.000003828              -0.000138641               0.999999999               0.000005449              -0.000150102               0.999999999               0.000006907              -0.000162412               0.999999999               0.000008273              -0.000175656               0.999999999               0.000009709              -0.000189797               0.999999999               0.000011118              -0.000204777               0.999999999               0.000012387              -0.000220511               0.999999999               0.000013664              -0.000236840               0.999999999              -0.000000177              -0.000094659               0.999999999              -0.000002100              -0.000094186               0.999999999              -0.000002740              -0.000095188               0.999999999              -0.000002812              -0.000097723               0.999999999              -0.000002459              -0.000101728               0.999999999              -0.000001877              -0.000107115               0.999999999              -0.000001135              -0.000113776               0.999999999              -0.000000152              -0.000121637               0.999999999               0.000000891              -0.000130733               0.999999999               0.000001988              -0.000140860               0.999999999               0.000003081              -0.000151906               0.999999999               0.000004089              -0.000163928               0.999999999               0.000004987              -0.000176903               0.999999999               0.000005877              -0.000190704               0.999999999               0.000006665              -0.000205283               0.999999999               0.000007287              -0.000220540               0.999999999               0.000007854              -0.000236422               0.999999999              -0.000000067              -0.000096077               0.999999999              -0.000001067              -0.000096195               0.999999999              -0.000001442              -0.000097449               0.999999999              -0.000001504              -0.000100047               0.999999999              -0.000001357              -0.000104063               0.999999999              -0.000001096              -0.000109429               0.999999999              -0.000000661              -0.000115997               0.999999999              -0.000000257              -0.000123692               0.999999999               0.000000241              -0.000132543               0.999999999               0.000000791              -0.000142403               0.999999999               0.000001368              -0.000153259               0.999999999               0.000001895              -0.000165108               0.999999999               0.000002326              -0.000177829               0.999999999               0.000002725              -0.000191390               0.999999999               0.000003070              -0.000205763               0.999999999               0.000003340              -0.000220777               0.999999999               0.000003549              -0.000236428               0.999999999               0.000000000              -0.000096568               0.999999999              -0.000000000              -0.000096879               0.999999999               0.000000000              -0.000098201               0.999999999              -0.000000000              -0.000100860               0.999999999              -0.000000000              -0.000104894               0.999999999               0.000000000              -0.000110222               0.999999999               0.000000000              -0.000116815               0.999999999              -0.000000000              -0.000124439               0.999999999              -0.000000000              -0.000133135               0.999999999               0.000000000              -0.000142974               0.999999999               0.000000000              -0.000153787               0.999999999              -0.000000000              -0.000165503               0.999999999              -0.000000000              -0.000178162               0.999999999              -0.000000000              -0.000191699               0.999999999              -0.000000000              -0.000205969               0.999999999              -0.000000000              -0.000220872               0.999999999               0.000000000              -0.000236454               0.999999999              -0.000006744              -0.000000000               0.999999999              -0.000002896              -0.000000000               0.999999999              -0.000001022              -0.000000000               0.999999999              -0.000000022              -0.000000000               0.999999999               0.000000441              -0.000000000               0.999999999               0.000000643              -0.000000000               0.999999999               0.000000666               0.000000000               0.999999999               0.000000596              -0.000000000               0.999999999               0.000000639              -0.000000000               0.999999999               0.000000872              -0.000000000               0.999999999               0.000001305              -0.000000000               0.999999999               0.000001954              -0.000000000               0.999999999               0.000002970              -0.000000000               0.999999999               0.000004487               0.000000000               0.999999999               0.000006500              -0.000000000               0.999999999               0.000009021              -0.000000000               0.999999999               0.000012106              -0.000000000               0.999999999              -0.000006697               0.000009504               0.999999999              -0.000002932               0.000008684               0.999999999              -0.000001112               0.000008610               0.999999999              -0.000000179               0.000008858               0.999999999               0.000000336               0.000009271               0.999999999               0.000000573               0.000009845               0.999999999               0.000000665               0.000010511               0.999999999               0.000000792               0.000011440               0.999999999               0.000001027               0.000012586               0.999999999               0.000001441               0.000013861               0.999999999               0.000002093               0.000015160               0.999999999               0.000003045               0.000016680               0.999999999               0.000004333               0.000018464               0.999999999               0.000006018               0.000020390               0.999999999               0.000008211               0.000022546               0.999999999               0.000010911               0.000024959               0.999999999               0.000014140               0.000027657               0.999999999              -0.000006445               0.000018862               0.999999999              -0.000003042               0.000017268               0.999999999              -0.000001413               0.000017101               0.999999999              -0.000000526               0.000017688               0.999999999               0.000000033               0.000018601               0.999999999               0.000000408               0.000019774               0.999999999               0.000000799               0.000021267               0.999999999               0.000001336               0.000023223               0.999999999               0.000002098               0.000025528               0.999999999               0.000003137               0.000028064               0.999999999               0.000004377               0.000030639               0.999999999               0.000005909               0.000033676               0.999999999               0.000007831               0.000037116               0.999999999               0.000010173               0.000040825               0.999999999               0.000012979               0.000044951               0.999999999               0.000016214               0.000049468               0.999999999               0.000019881               0.000054369               0.999999999              -0.000006075               0.000028024               0.999999999              -0.000003244               0.000025623               0.999999999              -0.000001846               0.000025476               0.999999999              -0.000000994               0.000026415               0.999999999              -0.000000388               0.000027969               0.999999999               0.000000261               0.000029910               0.999999999               0.000001083               0.000032390               0.999999999               0.000002200               0.000035525               0.999999999               0.000003672               0.000039085               0.999999999               0.000005417               0.000042874               0.999999999               0.000007445               0.000046744               0.999999999               0.000009818               0.000051219               0.999999999               0.000012520               0.000056220               0.999999999               0.000015558               0.000061647               0.999999999               0.000019017               0.000067619               0.999999999               0.000022904               0.000074021               0.999999999               0.000027211               0.000080847               0.999999999              -0.000005652               0.000036950               0.999999999              -0.000003484               0.000033675               0.999999999              -0.000002355               0.000033633               0.999999999              -0.000001538               0.000035043               0.999999999              -0.000000707               0.000037329               0.999999999               0.000000259               0.000040212               0.999999999               0.000001594               0.000043907               0.999999999               0.000003401               0.000048325               0.999999999               0.000005570               0.000053296               0.999999999               0.000008093               0.000058301               0.999999999               0.000010909               0.000063635               0.999999999               0.000014091               0.000069679               0.999999999               0.000017622               0.000076293               0.999999999               0.000021542               0.000083437               0.999999999               0.000025977               0.000091193               0.999999999               0.000030839               0.000099536               0.999999999               0.000036109               0.000108473               0.999999999              -0.000005092               0.000045478               0.999999999              -0.000003812               0.000041410               0.999999999              -0.000002898               0.000041543               0.999999999              -0.000001968               0.000043545               0.999999999              -0.000000891               0.000046651               0.999999999               0.000000509               0.000050608               0.999999999               0.000002444               0.000055688               0.999999999               0.000004901               0.000061565               0.999999999               0.000007802               0.000067901               0.999999999               0.000011002               0.000074458               0.999999999               0.000014541               0.000081482               0.999999999               0.000018565               0.000089351               0.999999999               0.000023017               0.000097888               0.999999999               0.000027936               0.000107100               0.999999999               0.000033373               0.000117030               0.999999999               0.000039299               0.000127709               0.999999999               0.000045671               0.000139120               0.999999999              -0.000004462               0.000053502               0.999999999              -0.000004171               0.000048791               0.999999999              -0.000003355               0.000049208               0.999999999              -0.000002263               0.000051864               0.999999999              -0.000000856               0.000055882               0.999999999               0.000001077               0.000061105               0.999999999               0.000003677               0.000067603               0.999999999               0.000006849               0.000074967               0.999999999               0.000010370               0.000082951               0.999999999               0.000014221               0.000091259               0.999999999               0.000018464               0.000100432               0.999999999               0.000023161               0.000110688               0.999999999               0.000028373               0.000121734               0.999999999               0.000034174               0.000133593               0.999999999               0.000040566               0.000146402               0.999999999               0.000047478               0.000159988               0.999999999               0.000054831               0.000174318               0.999999999              -0.000003840               0.000060993               0.999999999              -0.000004478               0.000055795               0.999999999              -0.000003738               0.000056587               0.999999999              -0.000002416               0.000059984               0.999999999              -0.000000600               0.000065025               0.999999999               0.000001926               0.000071644               0.999999999               0.000005236               0.000079674               0.999999999               0.000009031               0.000088720               0.999999999               0.000013111               0.000098530               0.999999999               0.000017434               0.000109220               0.999999999               0.000022145               0.000121091               0.999999999               0.000027477               0.000134277               0.999999999               0.000033508               0.000148393               0.999999999               0.000040154               0.000163458               0.999999999               0.000047383               0.000179540               0.999999999               0.000055129               0.000196446               0.999999999               0.000063376               0.000214070               0.999999999              -0.000003162               0.000067778               0.999999999              -0.000004802               0.000062458               0.999999999              -0.000004002               0.000063646               0.999999999              -0.000002423               0.000067879               0.999999999              -0.000000216               0.000074128               0.999999999               0.000002970               0.000082282               0.999999999               0.000006885               0.000092034               0.999999999               0.000011123               0.000103079               0.999999999               0.000015482               0.000115375               0.999999999               0.000020145               0.000128949               0.999999999               0.000025520               0.000143939               0.999999999               0.000031605               0.000160347               0.999999999               0.000038364               0.000177846               0.999999999               0.000045753               0.000196496               0.999999999               0.000053705               0.000216223               0.999999999               0.000062119               0.000236869               0.999999999               0.000070853               0.000258219               0.999999999              -0.000002379               0.000074076               0.999999999              -0.000004923               0.000069170               0.999999999              -0.000004510               0.000069752               0.999999999              -0.000003203               0.000073331               0.999999999              -0.000001348               0.000078910               0.999999999               0.000001347               0.000086236               0.999999999               0.000004663               0.000095192               0.999999999               0.000008338               0.000105577               0.999999999               0.000012210               0.000117207               0.999999999               0.000016130               0.000129973               0.999999999               0.000020329               0.000143975               0.999999999               0.000025107               0.000159266               0.999999999               0.000030435               0.000175721               0.999999999               0.000036258               0.000193132               0.999999999               0.000042580               0.000211560               0.999999999               0.000049275               0.000231081               0.999999999               0.000056489               0.000251519               0.999999999              -0.000001730               0.000079811               0.999999999              -0.000004784               0.000075534               0.999999999              -0.000004815               0.000075842               0.999999999              -0.000003836               0.000078881               0.999999999              -0.000002326               0.000083892               0.999999999              -0.000000155               0.000090539               0.999999999               0.000002576               0.000098726               0.999999999               0.000005771               0.000108398               0.999999999               0.000009190               0.000119388               0.999999999               0.000012482               0.000131535               0.999999999               0.000015812               0.000144734               0.999999999               0.000019483               0.000159059               0.999999999               0.000023528               0.000174493               0.999999999               0.000027841               0.000190819               0.999999999               0.000032520               0.000208033               0.999999999               0.000037692               0.000226155               0.999999999               0.000043345               0.000245320               0.999999999              -0.000001161               0.000084817               0.999999999              -0.000004415               0.000081444               0.999999999              -0.000004840               0.000081672               0.999999999              -0.000004193               0.000084377               0.999999999              -0.000003048               0.000088936               0.999999999              -0.000001315               0.000095019               0.999999999               0.000000873               0.000102565               0.999999999               0.000003550               0.000111587               0.999999999               0.000006399               0.000121980               0.999999999               0.000009200               0.000133555               0.999999999               0.000011872               0.000146173               0.999999999               0.000014598               0.000159706               0.999999999               0.000017515               0.000174168               0.999999999               0.000020572               0.000189571               0.999999999               0.000023896               0.000205779               0.999999999               0.000027551               0.000222774               0.999999999               0.000031484               0.000240692               0.999999999              -0.000000677               0.000088964               0.999999999              -0.000003825               0.000086643               0.999999999              -0.000004513               0.000087038               0.999999999              -0.000004175               0.000089567               0.999999999              -0.000003334               0.000093782               0.999999999              -0.000002023               0.000099454               0.999999999              -0.000000303               0.000106579               0.999999999               0.000001674               0.000115121               0.999999999               0.000003945               0.000125006               0.999999999               0.000006245               0.000136099               0.999999999               0.000008386               0.000148081               0.999999999               0.000010430               0.000160897               0.999999999               0.000012458               0.000174604               0.999999999               0.000014568               0.000189264               0.999999999               0.000016787               0.000204746               0.999999999               0.000019085               0.000221062               0.999999999               0.000021473               0.000238069               0.999999999              -0.000000361               0.000092278               0.999999999              -0.000003045               0.000090946               0.999999999              -0.000003788               0.000091626               0.999999999              -0.000003719               0.000094127               0.999999999              -0.000003140               0.000098170               0.999999999              -0.000002197               0.000103602               0.999999999              -0.000001031               0.000110490               0.999999999               0.000000412               0.000118662               0.999999999               0.000002089               0.000128059               0.999999999               0.000003828               0.000138641               0.999999999               0.000005449               0.000150102               0.999999999               0.000006907               0.000162412               0.999999999               0.000008273               0.000175656               0.999999999               0.000009709               0.000189797               0.999999999               0.000011118               0.000204777               0.999999999               0.000012387               0.000220511               0.999999999               0.000013664               0.000236840               0.999999999              -0.000000177               0.000094659               0.999999999              -0.000002100               0.000094186               0.999999999              -0.000002740               0.000095188               0.999999999              -0.000002812               0.000097723               0.999999999              -0.000002459               0.000101728               0.999999999              -0.000001877               0.000107115               0.999999999              -0.000001135               0.000113776               0.999999999              -0.000000152               0.000121637               0.999999999               0.000000891               0.000130733               0.999999999               0.000001988               0.000140860               0.999999999               0.000003081               0.000151906               0.999999999               0.000004089               0.000163928               0.999999999               0.000004987               0.000176903               0.999999999               0.000005877               0.000190704               0.999999999               0.000006665               0.000205283               0.999999999               0.000007287               0.000220540               0.999999999               0.000007854               0.000236422               0.999999999              -0.000000067               0.000096077               0.999999999              -0.000001067               0.000096195               0.999999999              -0.000001442               0.000097449               0.999999999              -0.000001504               0.000100047               0.999999999              -0.000001357               0.000104063               0.999999999              -0.000001096               0.000109429               0.999999999              -0.000000661               0.000115997               0.999999999              -0.000000257               0.000123692               0.999999999               0.000000241               0.000132543               0.999999999               0.000000791               0.000142403               0.999999999               0.000001368               0.000153259               0.999999999               0.000001895               0.000165108               0.999999999               0.000002326               0.000177829               0.999999999               0.000002725               0.000191390               0.999999999               0.000003070               0.000205763               0.999999999               0.000003340               0.000220777               0.999999999               0.000003549               0.000236428               0.999999999               0.000000000               0.000096568               0.999999999              -0.000000000               0.000096879               0.999999999              -0.000000000               0.000098201               0.999999999              -0.000000000               0.000100860               0.999999999              -0.000000000               0.000104894               0.999999999              -0.000000000               0.000110222               0.999999999              -0.000000000               0.000116815               0.999999999              -0.000000000               0.000124439               0.999999999              -0.000000000               0.000133135               0.999999999              -0.000000000               0.000142974               0.999999999               0.000000000               0.000153787               0.999999999               0.000000000               0.000165503               0.999999999               0.000000000               0.000178162               0.999999999               0.000000000               0.000191699               0.999999999               0.000000000               0.000205969               0.999999999               0.000000000               0.000220872               0.999999999              -0.000000000               0.000236454               0.999999999 </DataArray>
<DataArray type="Float64"                                    Name="defo"                                                      NumberOfComponents=" 3" format="ascii">
              0.000006744               0.000000000               0.999999999               0.000002896               0.000000000               0.999999999               0.000001022              -0.000000000               0.999999999               0.000000022              -0.000000000               0.999999999              -0.000000441               0.000000000               0.999999999              -0.000000643              -0.000000000               0.999999999              -0.000000666               0.000000000               0.999999999              -0.000000596               0.000000000               0.999999999              -0.000000639              -0.000000000               0.999999999              -0.000000872              -0.000000000               0.999999999              -0.000001305               0.000000000               0.999999999              -0.000001954               0.000000000               0.999999999              -0.000002970              -0.000000000               0.999999999              -0.000004487              -0.000000000               0.999999999              -0.000006500              -0.000000000               0.999999999              -0.000009021              -0.000000000               0.999999999              -0.000012106              -0.000000000               0.999999999               0.000006697               0.000009504               0.999999999               0.000002932               0.000008684               0.999999999               0.000001112               0.000008610               0.999999999               0.000000179               0.000008858               0.999999999              -0.000000336               0.000009271               0.999999999              -0.000000573               0.000009845               0.999999999              -0.000000665               0.000010511               0.999999999              -0.000000792               0.000011440               0.999999999              -0.000001027               0.000012586               0.999999999              -0.000001441               0.000013861               0.999999999              -0.000002093               0.000015160               0.999999999              -0.000003045               0.000016680               0.999999999              -0.000004333               0.000018464               0.999999999              -0.000006018               0.000020390               0.999999999              -0.000008211               0.000022546               0.999999999              -0.000010911               0.000024959               0.999999999              -0.000014140               0.000027657               0.999999999               0.000006445               0.000018862               0.999999999               0.000003042               0.000017268               0.999999999               0.000001413               0.000017101               0.999999999               0.000000526               0.000017688               0.999999999              -0.000000033               0.000018601               0.999999999              -0.000000408               0.000019774               0.999999999              -0.000000799               0.000021267               0.999999999              -0.000001336               0.000023223               0.999999999              -0.000002098               0.000025528               0.999999999              -0.000003137               0.000028064               0.999999999              -0.000004377               0.000030639               0.999999999              -0.000005909               0.000033676               0.999999999              -0.000007831               0.000037116               0.999999999              -0.000010173               0.000040825               0.999999999              -0.000012979               0.000044951               0.999999999              -0.000016214               0.000049468               0.999999999              -0.000019881               0.000054369               0.999999999               0.000006075               0.000028024               0.999999999               0.000003244               0.000025623               0.999999999               0.000001846               0.000025476               0.999999999               0.000000994               0.000026415               0.999999999               0.000000388               0.000027969               0.999999999              -0.000000261               0.000029910               0.999999999              -0.000001083               0.000032390               0.999999999              -0.000002200               0.000035525               0.999999999              -0.000003672               0.000039085               0.999999999              -0.000005417               0.000042874               0.999999999              -0.000007445               0.000046744               0.999999999              -0.000009818               0.000051219               0.999999999              -0.000012520               0.000056220               0.999999999              -0.000015558               0.000061647               0.999999999              -0.000019017               0.000067619               0.999999999              -0.000022904               0.000074021               0.999999999              -0.000027211               0.000080847               0.999999999               0.000005652               0.000036950               0.999999999               0.000003484               0.000033675               0.999999999               0.000002355               0.000033633               0.999999999               0.000001538               0.000035043               0.999999999               0.000000707               0.000037329               0.999999999              -0.000000259               0.000040212               0.999999999              -0.000001594               0.000043907               0.999999999              -0.000003401               0.000048325               0.999999999              -0.000005570               0.000053296               0.999999999              -0.000008093               0.000058301               0.999999999              -0.000010909               0.000063635               0.999999999              -0.000014091               0.000069679               0.999999999              -0.000017622               0.000076293               0.999999999              -0.000021542               0.000083437               0.999999999              -0.000025977               0.000091193               0.999999999              -0.000030839               0.000099536               0.999999999              -0.000036109               0.000108473               0.999999999               0.000005092               0.000045478               0.999999999               0.000003812               0.000041410               0.999999999               0.000002898               0.000041543               0.999999999               0.000001968               0.000043545               0.999999999               0.000000891               0.000046651               0.999999999              -0.000000509               0.000050608               0.999999999              -0.000002444               0.000055688               0.999999999              -0.000004901               0.000061565               0.999999999              -0.000007802               0.000067901               0.999999999              -0.000011002               0.000074458               0.999999999              -0.000014541               0.000081482               0.999999999              -0.000018565               0.000089351               0.999999999              -0.000023017               0.000097888               0.999999999              -0.000027936               0.000107100               0.999999999              -0.000033373               0.000117030               0.999999999              -0.000039299               0.000127709               0.999999999              -0.000045671               0.000139120               0.999999999               0.000004462               0.000053502               0.999999999               0.000004171               0.000048791               0.999999999               0.000003355               0.000049208               0.999999999               0.000002263               0.000051864               0.999999999               0.000000856               0.000055882               0.999999999              -0.000001077               0.000061105               0.999999999              -0.000003677               0.000067603               0.999999999              -0.000006849               0.000074967               0.999999999              -0.000010370               0.000082951               0.999999999              -0.000014221               0.000091259               0.999999999              -0.000018464               0.000100432               0.999999999              -0.000023161               0.000110688               0.999999999              -0.000028373               0.000121734               0.999999999              -0.000034174               0.000133593               0.999999999              -0.000040566               0.000146402               0.999999999              -0.000047478               0.000159988               0.999999999              -0.000054831               0.000174318               0.999999999               0.000003840               0.000060993               0.999999999               0.000004478               0.000055795               0.999999999               0.000003738               0.000056587               0.999999999               0.000002416               0.000059984               0.999999999               0.000000600               0.000065025               0.999999999              -0.000001926               0.000071644               0.999999999              -0.000005236               0.000079674               0.999999999              -0.000009031               0.000088720               0.999999999              -0.000013111               0.000098530               0.999999999              -0.000017434               0.000109220               0.999999999              -0.000022145               0.000121091               0.999999999              -0.000027477               0.000134277               0.999999999              -0.000033508               0.000148393               0.999999999              -0.000040154               0.000163458               0.999999999              -0.000047383               0.000179540               0.999999999              -0.000055129               0.000196446               0.999999999              -0.000063376               0.000214070               0.999999999               0.000003162               0.000067778               0.999999999               0.000004802               0.000062458               0.999999999               0.000004002               0.000063646               0.999999999               0.000002423               0.000067879               0.999999999               0.000000216               0.000074128               0.999999999              -0.000002970               0.000082282               0.999999999              -0.000006885               0.000092034               0.999999999              -0.000011123               0.000103079               0.999999999              -0.000015482               0.000115375               0.999999999              -0.000020145               0.000128949               0.999999999              -0.000025520               0.000143939               0.999999999              -0.000031605               0.000160347               0.999999999              -0.000038364               0.000177846               0.999999999              -0.000045753               0.000196496               0.999999999              -0.000053705               0.000216223               0.999999999              -0.000062119               0.000236869               0.999999999              -0.000070853               0.000258219               0.999999999               0.000002379               0.000074076               0.999999999               0.000004923               0.000069170               0.999999999               0.000004510               0.000069752               0.999999999               0.000003203               0.000073331               0.999999999               0.000001348               0.000078910               0.999999999              -0.000001347               0.000086236               0.999999999              -0.000004663               0.000095192               0.999999999              -0.000008338               0.000105577               0.999999999              -0.000012210               0.000117207               0.999999999              -0.000016130               0.000129973               0.999999999              -0.000020329               0.000143975               0.999999999              -0.000025107               0.000159266               0.999999999              -0.000030435               0.000175721               0.999999999              -0.000036258               0.000193132               0.999999999              -0.000042580               0.000211560               0.999999999              -0.000049275               0.000231081               0.999999999              -0.000056489               0.000251519               0.999999999               0.000001730               0.000079811               0.999999999               0.000004784               0.000075534               0.999999999               0.000004815               0.000075842               0.999999999               0.000003836               0.000078881               0.999999999               0.000002326               0.000083892               0.999999999               0.000000155               0.000090539               0.999999999              -0.000002576               0.000098726               0.999999999              -0.000005771               0.000108398               0.999999999              -0.000009190               0.000119388               0.999999999              -0.000012482               0.000131535               0.999999999              -0.000015812               0.000144734               0.999999999              -0.000019483               0.000159059               0.999999999              -0.000023528               0.000174493               0.999999999              -0.000027841               0.000190819               0.999999999              -0.000032520               0.000208033               0.999999999              -0.000037692               0.000226155               0.999999999              -0.000043345               0.000245320               0.999999999               0.000001161               0.000084817               0.999999999               0.000004415               0.000081444               0.999999999               0.000004840               0.000081672               0.999999999               0.000004193               0.000084377               0.999999999               0.000003048               0.000088936               0.999999999               0.000001315               0.000095019               0.999999999              -0.000000873               0.000102565               0.999999999              -0.000003550               0.000111587               0.999999999              -0.000006399               0.000121980               0.999999999              -0.000009200               0.000133555               0.999999999              -0.000011872               0.000146173               0.999999999              -0.000014598               0.000159706               0.999999999              -0.000017515               0.000174168               0.999999999              -0.000020572               0.000189571               0.999999999              -0.000023896               0.000205779               0.999999999              -0.000027551               0.000222774               0.999999999              -0.000031484               0.000240692               0.999999999               0.000000677               0.000088964               0.999999999               0.000003825               0.000086643               0.999999999               0.000004513               0.000087038               0.999999999               0.000004175               0.000089567               0.999999999               0.000003334               0.000093782               0.999999999               0.000002023               0.000099454               0.999999999               0.000000303               0.000106579               0.999999999              -0.000001674               0.000115121               0.999999999              -0.000003945               0.000125006               0.999999999              -0.000006245               0.000136099               0.999999999              -0.000008386               0.000148081               0.999999999              -0.000010430               0.000160897               0.999999999              -0.000012458               0.000174604               0.999999999              -0.000014568               0.000189264               0.999999999              -0.000016787               0.000204746               0.999999999              -0.000019085               0.000221062               0.999999999              -0.000021473               0.000238069               0.999999999               0.000000361               0.000092278               0.999999999               0.000003045               0.000090946               0.999999999               0.000003788               0.000091626               0.999999999               0.000003719               0.000094127               0.999999999               0.000003140               0.000098170               0.999999999               0.000002197               0.000103602               0.999999999               0.000001031               0.000110490               0.999999999              -0.000000412               0.000118662               0.999999999              -0.000002089               0.000128059               0.999999999              -0.000003828               0.000138641               0.999999999              -0.000005449               0.000150102               0.999999999              -0.000006907               0.000162412               0.999999999              -0.000008273               0.000175656               0.999999999              -0.000009709               0.000189797               0.999999999              -0.000011118               0.000204777               0.999999999              -0.000012387               0.000220511               0.999999999              -0.000013664               0.000236840               0.999999999               0.000000177               0.000094659               0.999999999               0.000002100               0.000094186               0.999999999               0.000002740               0.000095188               0.999999999               0.000002812               0.000097723               0.999999999               0.000002459               0.000101728               0.999999999               0.000001877               0.000107115               0.999999999               0.000001135               0.000113776               0.999999999               0.000000152               0.000121637               0.999999999              -0.000000891               0.000130733               0.999999999              -0.000001988               0.000140860               0.999999999              -0.000003081               0.000151906               0.999999999              -0.000004089               0.000163928               0.999999999              -0.000004987               0.000176903               0.999999999              -0.000005877               0.000190704               0.999999999              -0.000006665               0.000205283               0.999999999              -0.000007287               0.000220540               0.999999999              -0.000007854               0.000236422               0.999999999               0.000000067               0.000096077               0.999999999               0.000001067               0.000096195               0.999999999               0.000001442               0.000097449               0.999999999               0.000001504               0.000100047               0.999999999               0.000001357               0.000104063               0.999999999               0.000001096               0.000109429               0.999999999               0.000000661               0.000115997               0.999999999               0.000000257               0.000123692               0.999999999              -0.000000241               0.000132543               0.999999999              -0.000000791               0.000142403               0.999999999              -0.000001368               0.000153259               0.999999999              -0.000001895               0.000165108               0.999999999              -0.000002326               0.000177829               0.999999999              -0.000002725               0.000191390               0.999999999              -0.000003070               0.000205763               0.999999999              -0.000003340               0.000220777               0.999999999              -0.000003549               0.000236428               0.999999999               0.000000000               0.000096568               0.999999999              -0.000000000               0.000096879               0.999999999              -0.000000000               0.000098201               0.999999999              -0.000000000               0.000100860               0.999999999              -0.000000000               0.000104894               0.999999999              -0.000000000               0.000110222               0.999999999              -0.000000000               0.000116815               0.999999999              -0.000000000               0.000124439               0.999999999              -0.000000000               0.000133135               0.999999999              -0.000000000               0.000142974               0.999999999               0.000000000               0.000153787               0.999999999               0.000000000               0.000165503               0.999999999               0.000000000               0.000178162               0.999999999               0.000000000               0.000191699               0.999999999               0.000000000               0.000205969               0.999999999               0.000000000               0.000220872               0.999999999              -0.000000000               0.000236454               0.999999999               0.000006744               0.000000000               0.999999999               0.000002896               0.000000000               0.999999999               0.000001022              -0.000000000               0.999999999               0.000000022              -0.000000000               0.999999999              -0.000000441               0.000000000               0.999999999              -0.000000643              -0.000000000               0.999999999              -0.000000666               0.000000000               0.999999999              -0.000000596               0.000000000               0.999999999              -0.000000639              -0.000000000               0.999999999              -0.000000872              -0.000000000               0.999999999              -0.000001305               0.000000000               0.999999999              -0.000001954               0.000000000               0.999999999              -0.000002970              -0.000000000               0.999999999              -0.000004487              -0.000000000               0.999999999              -0.000006500              -0.000000000               0.999999999              -0.000009021              -0.000000000               0.999999999              -0.000012106              -0.000000000               0.999999999               0.000006697              -0.000009504               0.999999999               0.000002932              -0.000008684               0.999999999               0.000001112              -0.000008610               0.999999999               0.000000179              -0.000008858               0.999999999              -0.000000336              -0.000009271               0.999999999              -0.000000573              -0.000009845               0.999999999              -0.000000665              -0.000010511               0.999999999              -0.000000792              -0.000011440               0.999999999              -0.000001027              -0.000012586               0.999999999              -0.000001441              -0.000013861               0.999999999              -0.000002093              -0.000015160               0.999999999              -0.000003045              -0.000016680               0.999999999              -0.000004333              -0.000018464               0.999999999              -0.000006018              -0.000020390               0.999999999              -0.000008211              -0.000022546               0.999999999              -0.000010911              -0.000024959               0.999999999              -0.000014140              -0.000027657               0.999999999               0.000006445              -0.000018862               0.999999999               0.000003042              -0.000017268               0.999999999               0.000001413              -0.000017101               0.999999999               0.000000526              -0.000017688               0.999999999              -0.000000033              -0.000018601               0.999999999              -0.000000408              -0.000019774               0.999999999              -0.000000799              -0.000021267               0.999999999              -0.000001336              -0.000023223               0.999999999              -0.000002098              -0.000025528               0.999999999              -0.000003137              -0.000028064               0.999999999              -0.000004377              -0.000030639               0.999999999              -0.000005909              -0.000033676               0.999999999              -0.000007831              -0.000037116               0.999999999              -0.000010173              -0.000040825               0.999999999              -0.000012979              -0.000044951               0.999999999              -0.000016214              -0.000049468               0.999999999              -0.000019881              -0.000054369               0.999999999               0.000006075              -0.000028024               0.999999999               0.000003244              -0.000025623               0.999999999               0.000001846              -0.000025476               0.999999999               0.000000994              -0.000026415               0.999999999               0.000000388              -0.000027969               0.999999999              -0.000000261              -0.000029910               0.999999999              -0.000001083              -0.000032390               0.999999999              -0.000002200              -0.000035525               0.999999999              -0.000003672              -0.000039085               0.999999999              -0.000005417              -0.000042874               0.999999999              -0.000007445              -0.000046744               0.999999999              -0.000009818              -0.000051219               0.999999999              -0.000012520              -0.000056220               0.999999999              -0.000015558              -0.000061647               0.999999999              -0.000019017              -0.000067619               0.999999999              -0.000022904              -0.000074021               0.999999999              -0.000027211              -0.000080847               0.999999999               0.000005652              -0.000036950               0.999999999               0.000003484              -0.000033675               0.999999999               0.000002355              -0.000033633               0.999999999               0.000001538              -0.000035043               0.999999999               0.000000707              -0.000037329               0.999999999              -0.000000259              -0.000040212               0.999999999              -0.000001594              -0.000043907               0.999999999              -0.000003401              -0.000048325               0.999999999              -0.000005570              -0.000053296               0.999999999              -0.000008093              -0.000058301               0.999999999              -0.000010909              -0.000063635               0.999999999              -0.000014091              -0.000069679               0.999999999              -0.000017622              -0.000076293               0.999999999              -0.000021542              -0.000083437               0.999999999              -0.000025977              -0.000091193               0.999999999              -0.000030839              -0.000099536               0.999999999              -0.000036109              -0.000108473               0.999999999               0.000005092              -0.000045478               0.999999999               0.000003812              -0.000041410               0.999999999               0.000002898              -0.000041543               0.999999999               0.000001968              -0.000043545               0.999999999               0.000000891              -0.000046651               0.999999999              -0.000000509              -0.000050608               0.999999999              -0.000002444              -0.000055688               0.999999999              -0.000004901              -0.000061565               0.999999999              -0.000007802              -0.000067901               0.999999999              -0.000011002              -0.000074458               0.999999999              -0.000014541              -0.000081482               0.999999999              -0.000018565              -0.000089351               0.999999999              -0.000023017              -0.000097888               0.999999999              -0.000027936              -0.000107100               0.999999999              -0.000033373              -0.000117030               0.999999999              -0.000039299              -0.000127709               0.999999999              -0.000045671              -0.000139120               0.999999999               0.000004462              -0.000053502               0.999999999               0.000004171              -0.000048791               0.999999999               0.000003355              -0.000049208               0.999999999               0.000002263              -0.000051864               0.999999999               0.000000856              -0.000055882               0.999999999              -0.000001077              -0.000061105               0.999999999              -0.000003677              -0.000067603               0.999999999              -0.000006849              -0.000074967               0.999999999              -0.000010370              -0.000082951               0.999999999              -0.000014221              -0.000091259               0.999999999              -0.000018464              -0.000100432               0.999999999              -0.000023161              -0.000110688               0.999999999              -0.000028373              -0.000121734               0.999999999              -0.000034174              -0.000133593               0.999999999              -0.000040566              -0.000146402               0.999999999              -0.000047478              -0.000159988               0.999999999              -0.000054831              -0.000174318               0.999999999               0.000003840              -0.000060993               0.999999999               0.000004478              -0.000055795               0.999999999               0.000003738              -0.000056587               0.999999999               0.000002416              -0.000059984               0.999999999               0.000000600              -0.000065025               0.999999999              -0.000001926              -0.000071644               0.999999999              -0.000005236              -0.000079674               0.999999999              -0.000009031              -0.000088720               0.999999999              -0.000013111              -0.000098530               0.999999999              -0.000017434              -0.000109220               0.999999999              -0.000022145              -0.000121091               0.999999999              -0.000027477              -0.000134277               0.999999999              -0.000033508              -0.000148393               0.999999999              -0.000040154              -0.000163458               0.999999999              -0.000047383              -0.000179540               0.999999999              -0.000055129              -0.000196446               0.999999999              -0.000063376              -0.000214070               0.999999999               0.000003162              -0.000067778               0.999999999               0.000004802              -0.000062458               0.999999999               0.000004002              -0.000063646               0.999999999               0.000002423              -0.000067879               0.999999999               0.000000216              -0.000074128               0.999999999              -0.000002970              -0.000082282               0.999999999              -0.000006885              -0.000092034               0.999999999              -0.000011123              -0.000103079               0.999999999              -0.000015482              -0.000115375               0.999999999              -0.000020145              -0.000128949               0.999999999              -0.000025520              -0.000143939               0.999999999              -0.000031605              -0.000160347               0.999999999              -0.000038364              -0.000177846               0.999999999              -0.000045753              -0.000196496               0.999999999              -0.000053705              -0.000216223               0.999999999              -0.000062119              -0.000236869               0.999999999              -0.000070853              -0.000258219               0.999999999               0.000002379              -0.000074076               0.999999999               0.000004923              -0.000069170               0.999999999               0.000004510              -0.000069752               0.999999999               0.000003203              -0.000073331               0.999999999               0.000001348              -0.000078910               0.999999999              -0.000001347              -0.000086236               0.999999999              -0.000004663              -0.000095192               0.999999999              -0.000008338              -0.000105577               0.999999999              -0.000012210              -0.000117207               0.999999999              -0.000016130              -0.000129973               0.999999999              -0.000020329              -0.000143975               0.999999999              -0.000025107              -0.000159266               0.999999999              -0.000030435              -0.000175721               0.999999999              -0.000036258              -0.000193132               0.999999999              -0.000042580              -0.000211560               0.999999999              -0.000049275              -0.000231081               0.999999999              -0.000056489              -0.000251519               0.999999999               0.000001730              -0.000079811               0.999999999               0.000004784              -0.000075534               0.999999999               0.000004815              -0.000075842               0.999999999               0.000003836              -0.000078881               0.999999999               0.000002326              -0.000083892               0.999999999               0.000000155              -0.000090539               0.999999999              -0.000002576              -0.000098726               0.999999999              -0.000005771              -0.000108398               0.999999999              -0.000009190              -0.000119388               0.999999999              -0.000012482              -0.000131535               0.999999999              -0.000015812              -0.000144734               0.999999999              -0.000019483              -0.000159059               0.999999999              -0.000023528              -0.000174493               0.999999999              -0.000027841              -0.000190819               0.999999999              -0.000032520              -0.000208033               0.999999999              -0.000037692              -0.000226155               0.999999999              -0.000043345              -0.000245320               0.999999999               0.000001161              -0.000084817               0.999999999               0.000004415              -0.000081444               0.999999999               0.000004840              -0.000081672               0.999999999               0.000004193              -0.000084377               0.999999999               0.000003048              -0.000088936               0.999999999               0.000001315              -0.000095019               0.999999999              -0.000000873              -0.000102565               0.999999999              -0.000003550              -0.000111587               0.999999999              -0.000006399              -0.000121980               0.999999999              -0.000009200              -0.000133555               0.999999999              -0.000011872              -0.000146173               0.999999999              -0.000014598              -0.000159706               0.999999999              -0.000017515              -0.000174168               0.999999999              -0.000020572              -0.000189571               0.999999999              -0.000023896              -0.000205779               0.999999999              -0.000027551              -0.000222774               0.999999999              -0.000031484              -0.000240692               0.999999999               0.000000677              -0.000088964               0.999999999               0.000003825              -0.000086643               0.999999999               0.000004513              -0.000087038               0.999999999               0.000004175              -0.000089567               0.999999999               0.000003334              -0.000093782               0.999999999               0.000002023              -0.000099454               0.999999999               0.000000303              -0.000106579               0.999999999              -0.000001674              -0.000115121               0.999999999              -0.000003945              -0.000125006               0.999999999              -0.000006245              -0.000136099               0.999999999              -0.000008386              -0.000148081               0.999999999              -0.000010430              -0.000160897               0.999999999              -0.000012458              -0.000174604               0.999999999              -0.000014568              -0.000189264               0.999999999              -0.000016787              -0.000204746               0.999999999              -0.000019085              -0.000221062               0.999999999              -0.000021473              -0.000238069               0.999999999               0.000000361              -0.000092278               0.999999999               0.000003045              -0.000090946               0.999999999               0.000003788              -0.000091626               0.999999999               0.000003719              -0.000094127               0.999999999               0.000003140              -0.000098170               0.999999999               0.000002197              -0.000103602               0.999999999               0.000001031              -0.000110490               0.999999999              -0.000000412              -0.000118662               0.999999999              -0.000002089              -0.000128059               0.999999999              -0.000003828              -0.000138641               0.999999999              -0.000005449              -0.000150102               0.999999999              -0.000006907              -0.000162412               0.999999999              -0.000008273              -0.000175656               0.999999999              -0.000009709              -0.000189797               0.999999999              -0.000011118              -0.000204777               0.999999999              -0.000012387              -0.000220511               0.999999999              -0.000013664              -0.000236840               0.999999999               0.000000177              -0.000094659               0.999999999               0.000002100              -0.000094186               0.999999999               0.000002740              -0.000095188               0.999999999               0.000002812              -0.000097723               0.999999999               0.000002459              -0.000101728               0.999999999               0.000001877              -0.000107115               0.999999999               0.000001135              -0.000113776               0.999999999               0.000000152              -0.000121637               0.999999999              -0.000000891              -0.000130733               0.999999999              -0.000001988              -0.000140860               0.999999999              -0.000003081              -0.000151906               0.999999999              -0.000004089              -0.000163928               0.999999999              -0.000004987              -0.000176903               0.999999999              -0.000005877              -0.000190704               0.999999999              -0.000006665              -0.000205283               0.999999999              -0.000007287              -0.000220540               0.999999999              -0.000007854              -0.000236422               0.999999999               0.000000067              -0.000096077               0.999999999               0.000001067              -0.000096195               0.999999999               0.000001442              -0.000097449               0.999999999               0.000001504              -0.000100047               0.999999999               0.000001357              -0.000104063               0.999999999               0.000001096              -0.000109429               0.999999999               0.000000661              -0.000115997               0.999999999               0.000000257              -0.000123692               0.999999999              -0.000000241              -0.000132543               0.999999999              -0.000000791              -0.000142403               0.999999999              -0.000001368              -0.000153259               0.999999999              -0.000001895              -0.000165108               0.999999999              -0.000002326              -0.000177829               0.999999999              -0.000002725              -0.000191390               0.999999999              -0.000003070              -0.000205763               0.999999999              -0.000003340              -0.000220777               0.999999999              -0.000003549              -0.000236428               0.999999999               0.000000000              -0.000096568               0.999999999              -0.000000000              -0.000096879               0.999999999               0.000000000              -0.000098201               0.999999999              -0.000000000              -0.000100860               0.999999999              -0.000000000              -0.000104894               0.999999999               0.000000000              -0.000110222               0.999999999               0.000000000              -0.000116815               0.999999999              -0.000000000              -0.000124439               0.999999999              -0.000000000              -0.000133135               0.999999999               0.000000000              -0.000142974               0.999999999               0.000000000              -0.000153787               0.999999999              -0.000000000              -0.000165503               0.999999999              -0.000000000              -0.000178162               0.999999999              -0.000000000              -0.000191699               0.999999999              -0.000000000              -0.000205969               0.999999999              -0.000000000              -0.000220872               0.999999999               0.000000000              -0.000236454               0.999999999              -0.000006744              -0.000000000               0.999999999              -0.000002896              -0.000000000               0.999999999              -0.000001022              -0.000000000               0.999999999              -0.000000022              -0.000000000               0.999999999               0.000000441              -0.000000000               0.999999999               0.000000643              -0.000000000               0.999999999               0.000000666               0.000000000               0.999999999               0.000000596              -0.000000000               0.999999999               0.000000639              -0.000000000               0.999999999               0.000000872              -0.000000000               0.999999999               0.000001305              -0.000000000               0.999999999               0.000001954              -0.000000000               0.999999999               0.000002970              -0.000000000               0.999999999               0.000004487               0.000000000               0.999999999               0.000006500              -0.000000000               0.999999999               0.000009021              -0.000000000               0.999999999               0.000012106              -0.000000000               0.999999999              -0.000006697              -0.000009504               0.999999999              -0.000002932              -0.000008684               0.999999999              -0.000001112              -0.000008610               0.999999999              -0.000000179              -0.000008858               0.999999999               0.000000336              -0.000009271               0.999999999               0.000000573              -0.000009845               0.999999999               0.000000665              -0.000010511               0.999999999               0.000000792              -0.000011440               0.999999999               0.000001027              -0.000012586               0.999999999               0.000001441              -0.000013861               0.999999999               0.000002093              -0.000015160               0.999999999               0.000003045              -0.000016680               0.999999999               0.000004333              -0.000018464               0.999999999               0.000006018              -0.000020390               0.999999999               0.000008211              -0.000022546               0.999999999               0.000010911              -0.000024959               0.999999999               0.000014140              -0.000027657               0.999999999              -0.000006445              -0.000018862               0.999999999              -0.000003042              -0.000017268               0.999999999              -0.000001413              -0.000017101               0.999999999              -0.000000526              -0.000017688               0.999999999               0.000000033              -0.000018601               0.999999999               0.000000408              -0.000019774               0.999999999               0.000000799              -0.000021267               0.999999999               0.000001336              -0.000023223               0.999999999               0.000002098              -0.000025528               0.999999999               0.000003137              -0.000028064               0.999999999               0.000004377              -0.000030639               0.999999999               0.000005909              -0.000033676               0.999999999               0.000007831              -0.000037116               0.999999999               0.000010173              -0.000040825               0.999999999               0.000012979              -0.000044951               0.999999999               0.000016214              -0.000049468               0.999999999               0.000019881              -0.000054369               0.999999999              -0.000006075              -0.000028024               0.999999999              -0.000003244              -0.000025623               0.999999999              -0.000001846              -0.000025476               0.999999999              -0.000000994              -0.000026415               0.999999999              -0.000000388              -0.000027969               0.999999999               0.000000261              -0.000029910               0.999999999               0.000001083              -0.000032390               0.999999999               0.000002200              -0.000035525               0.999999999               0.000003672              -0.000039085               0.999999999               0.000005417              -0.000042874               0.999999999               0.000007445              -0.000046744               0.999999999               0.000009818              -0.000051219               0.999999999               0.000012520              -0.000056220               0.999999999               0.000015558              -0.000061647               0.999999999               0.000019017              -0.000067619               0.999999999               0.000022904              -0.000074021               0.999999999               0.000027211              -0.000080847               0.999999999              -0.000005652              -0.000036950               0.999999999              -0.000003484              -0.000033675               0.999999999              -0.000002355              -0.000033633               0.999999999              -0.000001538              -0.000035043               0.999999999              -0.000000707              -0.000037329               0.999999999               0.000000259              -0.000040212               0.999999999               0.000001594              -0.000043907               0.999999999               0.000003401              -0.000048325               0.999999999               0.000005570              -0.000053296               0.999999999               0.000008093              -0.000058301               0.999999999               0.000010909              -0.000063635               0.999999999               0.000014091              -0.000069679               0.999999999               0.000017622              -0.000076293               0.999999999               0.000021542              -0.000083437               0.999999999               0.000025977              -0.000091193               0.999999999               0.000030839              -0.000099536               0.999999999               0.000036109              -0.000108473               0.999999999              -0.000005092              -0.000045478               0.999999999              -0.000003812              -0.000041410               0.999999999              -0.000002898              -0.000041543               0.999999999              -0.000001968              -0.000043545               0.999999999              -0.000000891              -0.000046651               0.999999999               0.000000509              -0.000050608               0.999999999               0.000002444              -0.000055688               0.999999999               0.000004901              -0.000061565               0.999999999               0.000007802              -0.000067901               0.999999999               0.000011002              -0.000074458               0.999999999               0.000014541              -0.000081482               0.999999999               0.000018565              -0.000089351               0.999999999               0.000023017              -0.000097888               0.999999999               0.000027936              -0.000107100               0.999999999               0.000033373              -0.000117030               0.999999999               0.000039299              -0.000127709               0.999999999               0.000045671              -0.000139120               0.999999999              -0.000004462              -0.000053502               0.999999999              -0.000004171              -0.000048791               0.999999999              -0.000003355              -0.000049208               0.999999999              -0.000002263              -0.000051864               0.999999999              -0.000000856              -0.000055882               0.999999999               0.000001077              -0.000061105               0.999999999               0.000003677              -0.000067603               0.999999999               0.000006849              -0.000074967               0.999999999               0.000010370              -0.000082951               0.999999999               0.000014221              -0.000091259               0.999999999               0.000018464              -0.000100432               0.999999999               0.000023161              -0.000110688               0.999999999               0.000028373              -0.000121734               0.999999999               0.000034174              -0.000133593               0.999999999               0.000040566              -0.000146402               0.999999999               0.000047478              -0.000159988               0.999999999               0.000054831              -0.000174318               0.999999999              -0.000003840              -0.000060993               0.999999999              -0.000004478              -0.000055795               0.999999999              -0.000003738              -0.000056587               0.999999999              -0.000002416              -0.000059984               0.999999999              -0.000000600              -0.000065025               0.999999999               0.000001926              -0.000071644               0.999999999               0.000005236              -0.000079674               0.999999999               0.000009031              -0.000088720               0.999999999               0.000013111              -0.000098530               0.999999999               0.000017434              -0.000109220               0.999999999               0.000022145              -0.000121091               0.999999999               0.000027477              -0.000134277               0.999999999               0.000033508              -0.000148393               0.999999999               0.000040154              -0.000163458               0.999999999               0.000047383              -0.000179540               0.999999999               0.000055129              -0.000196446               0.999999999               0.000063376              -0.000214070               0.999999999              -0.000003162              -0.000067778               0.999999999              -0.000004802              -0.000062458               0.999999999              -0.000004002              -0.000063646               0.999999999              -0.000002423              -0.000067879               0.999999999              -0.000000216              -0.000074128               0.999999999               0.000002970              -0.000082282               0.999999999               0.000006885              -0.000092034               0.999999999               0.000011123              -0.000103079               0.999999999               0.000015482              -0.000115375               0.999999999               0.000020145              -0.000128949               0.999999999               0.000025520              -0.000143939               0.999999999               0.000031605              -0.000160347               0.999999999               0.000038364              -0.000177846               0.999999999               0.000045753              -0.000196496               0.999999999               0.000053705              -0.000216223               0.999999999               0.000062119              -0.000236869               0.999999999               0.000070853              -0.000258219               0.999999999              -0.000002379              -0.000074076               0.999999999              -0.000004923              -0.000069170               0.999999999              -0.000004510              -0.000069752               0.999999999              -0.000003203              -0.000073331               0.999999999              -0.000001348              -0.000078910               0.999999999               0.000001347              -0.000086236               0.999999999               0.000004663              -0.000095192               0.999999999               0.000008338              -0.000105577               0.999999999               0.000012210              -0.000117207               0.999999999               0.000016130              -0.000129973               0.999999999               0.000020329              -0.000143975               0.999999999               0.000025107              -0.000159266               0.999999999               0.000030435              -0.000175721               0.999999999               0.000036258              -0.000193132               0.999999999               0.000042580              -0.000211560               0.999999999               0.000049275              -0.000231081               0.999999999               0.000056489              -0.000251519               0.999999999              -0.000001730              -0.000079811               0.999999999              -0.000004784              -0.000075534               0.999999999              -0.000004815              -0.000075842               0.999999999              -0.000003836              -0.000078881               0.999999999              -0.000002326              -0.000083892               0.999999999              -0.000000155              -0.000090539               0.999999999               0.000002576              -0.000098726               0.999999999               0.000005771              -0.000108398               0.999999999               0.000009190              -0.000119388               0.999999999               0.000012482              -0.000131535               0.999999999               0.000015812              -0.000144734               0.999999999               0.000019483              -0.000159059               0.999999999               0.000023528              -0.000174493               0.999999999               0.000027841              -0.000190819               0.999999999               0.000032520              -0.000208033               0.999999999               0.000037692              -0.000226155               0.999999999               0.000043345              -0.000245320               0.999999999              -0.000001161              -0.000084817               0.999999999              -0.000004415              -0.000081444               0.999999999              -0.000004840              -0.000081672               0.999999999              -0.000004193              -0.000084377               0.999999999              -0.000003048              -0.000088936               0.999999999              -0.000001315              -0.000095019               0.999999999               0.000000873              -0.000102565               0.999999999               0.000003550              -0.000111587               0.999999999               0.000006399              -0.000121980               0.999999999               0.000009200              -0.000133555               0.999999999               0.000011872              -0.000146173               0.999999999               0.000014598              -0.000159706               0.999999999               0.000017515              -0.000174168               0.999999999               0.000020572              -0.000189571               0.999999999               0.000023896              -0.000205779               0.999999999               0.000027551              -0.000222774               0.999999999               0.000031484              -0.000240692               0.999999999              -0.000000677              -0.000088964               0.999999999              -0.000003825              -0.000086643               0.999999999              -0.000004513              -0.000087038               0.999999999              -0.000004175              -0.000089567               0.999999999              -0.000003334              -0.000093782               0.999999999              -0.000002023              -0.000099454               0.999999999              -0.000000303              -0.000106579               0.999999999               0.000001674              -0.000115121               0.999999999               0.000003945              -0.000125006               0.999999999               0.000006245              -0.000136099               0.999999999               0.000008386              -0.000148081               0.999999999               0.000010430              -0.000160897               0.999999999               0.000012458              -0.000174604               0.999999999               0.000014568              -0.000189264               0.999999999               0.000016787              -0.000204746               0.999999999               0.000019085              -0.000221062               0.999999999               0.000021473              -0.000238069               0.999999999              -0.000000361              -0.000092278               0.999999999              -0.000003045              -0.000090946               0.999999999              -0.000003788              -0.000091626               0.999999999              -0.000003719              -0.000094127               0.999999999              -0.000003140              -0.000098170               0.999999999              -0.000002197              -0.000103602               0.999999999              -0.000001031              -0.000110490               0.999999999               0.000000412              -0.000118662               0.999999999               0.000002089              -0.000128059               0.999999999               0.000003828              -0.000138641               0.999999999               0.000005449              -0.000150102               0.999999999               0.000006907              -0.000162412               0.999999999               0.000008273              -0.000175656               0.999999999               0.000009709              -0.000189797               0.999999999               0.000011118              -0.000204777               0.999999999               0.000012387              -0.000220511               0.999999999               0.000013664              -0.000236840               0.999999999              -0.000000177              -0.000094659               0.999999999              -0.000002100              -0.000094186               0.999999999              -0.000002740              -0.000095188               0.999999999              -0.000002812              -0.000097723               0.999999999              -0.000002459              -0.000101728               0.999999999              -0.000001877              -0.000107115               0.999999999              -0.000001135              -0.000113776               0.999999999              -0.000000152              -0.000121637               0.999999999               0.000000891              -0.000130733               0.999999999               0.000001988              -0.000140860               0.999999999               0.000003081              -0.000151906               0.999999999               0.000004089              -0.000163928               0.999999999               0.000004987              -0.000176903               0.999999999               0.000005877              -0.000190704               0.999999999               0.000006665              -0.000205283               0.999999999               0.000007287              -0.000220540               0.999999999               0.000007854              -0.000236422               0.999999999              -0.000000067              -0.000096077               0.999999999              -0.000001067              -0.000096195               0.999999999              -0.000001442              -0.000097449               0.999999999              -0.000001504              -0.000100047               0.999999999              -0.000001357              -0.000104063               0.999999999              -0.000001096              -0.000109429               0.999999999              -0.000000661              -0.000115997               0.999999999              -0.000000257              -0.000123692               0.999999999               0.000000241              -0.000132543               0.999999999               0.000000791              -0.000142403               0.999999999               0.000001368              -0.000153259               0.999999999               0.000001895              -0.000165108               0.999999999               0.000002326              -0.000177829               0.999999999               0.000002725              -0.000191390               0.999999999               0.000003070              -0.000205763               0.999999999               0.000003340              -0.000220777               0.999999999               0.000003549              -0.000236428               0.999999999               0.000000000              -0.000096568               0.999999999              -0.000000000              -0.000096879               0.999999999               0.000000000              -0.000098201               0.999999999              -0.000000000              -0.000100860               0.999999999              -0.000000000              -0.000104894               0.999999999               0.000000000              -0.000110222               0.999999999               0.000000000              -0.000116815               0.999999999              -0.000000000              -0.000124439               0.999999999              -0.000000000              -0.000133135               0.999999999               0.000000000              -0.000142974               0.999999999               0.000000000              -0.000153787               0.999999999              -0.000000000              -0.000165503               0.999999999              -0.000000000              -0.000178162               0.999999999              -0.000000000              -0.000191699               0.999999999              -0.000000000              -0.000205969               0.999999999              -0.000000000              -0.000220872               0.999999999               0.000000000              -0.000236454               0.999999999              -0.000006744              -0.000000000               0.999999999              -0.000002896              -0.000000000               0.999999999              -0.000001022              -0.000000000               0.999999999              -0.000000022              -0.000000000               0.999999999               0.000000441              -0.000000000               0.999999999               0.000000643              -0.000000000               0.999999999               0.000000666               0.000000000               0.999999999               0.000000596              -0.000000000               0.999999999               0.000000639              -0.000000000               0.999999999               0.000000872              -0.000000000               0.999999999               0.000001305              -0.000000000               0.999999999               0.000001954              -0.000000000               0.999999999               0.000002970              -0.000000000               0.999999999               0.000004487               0.000000000               0.999999999               0.000006500              -0.000000000               0.999999999               0.000009021              -0.000000000               0.999999999               0.000012106              -0.000000000               0.999999999              -0.000006697               0.000009504               0.999999999              -0.000002932               0.000008684               0.999999999              -0.000001112               0.000008610               0.999999999              -0.000000179               0.000008858               0.999999999               0.000000336               0.000009271               0.999999999               0.000000573               0.000009845               0.999999999               0.000000665               0.000010511               0.999999999               0.000000792               0.000011440               0.999999999               0.000001027               0.000012586               0.999999999               0.000001441               0.000013861               0.999999999               0.000002093               0.000015160               0.999999999               0.000003045               0.000016680               0.999999999               0.000004333               0.000018464               0.999999999               0.000006018               0.000020390               0.999999999               0.000008211               0.000022546               0.999999999               0.000010911               0.000024959               0.999999999               0.000014140               0.000027657               0.999999999              -0.000006445               0.000018862               0.999999999              -0.000003042               0.000017268               0.999999999              -0.000001413               0.000017101               0.999999999              -0.000000526               0.000017688               0.999999999               0.000000033               0.000018601               0.999999999               0.000000408               0.000019774               0.999999999               0.000000799               0.000021267               0.999999999               0.000001336               0.000023223               0.999999999               0.000002098               0.000025528               0.999999999               0.000003137               0.000028064               0.999999999               0.000004377               0.000030639               0.999999999               0.000005909               0.000033676               0.999999999               0.000007831               0.000037116               0.999999999               0.000010173               0.000040825               0.999999999               0.000012979               0.000044951               0.999999999               0.000016214               0.000049468               0.999999999               0.000019881               0.000054369               0.999999999              -0.000006075               0.000028024               0.999999999              -0.000003244               0.000025623               0.999999999              -0.000001846               0.000025476               0.999999999              -0.000000994               0.000026415               0.999999999              -0.000000388               0.000027969               0.999999999               0.000000261               0.000029910               0.999999999               0.000001083               0.000032390               0.999999999               0.000002200               0.000035525               0.999999999               0.000003672               0.000039085               0.999999999               0.000005417               0.000042874               0.999999999               0.000007445               0.000046744               0.999999999               0.000009818               0.000051219               0.999999999               0.000012520               0.000056220               0.999999999               0.000015558               0.000061647               0.999999999               0.000019017               0.000067619               0.999999999               0.000022904               0.000074021               0.999999999               0.000027211               0.000080847               0.999999999              -0.000005652               0.000036950               0.999999999              -0.000003484               0.000033675               0.999999999              -0.000002355               0.000033633               0.999999999              -0.000001538               0.000035043               0.999999999              -0.000000707               0.000037329               0.999999999               0.000000259               0.000040212               0.999999999               0.000001594               0.000043907               0.999999999               0.000003401               0.000048325               0.999999999               0.000005570               0.000053296               0.999999999               0.000008093               0.000058301               0.999999999               0.000010909               0.000063635               0.999999999               0.000014091               0.000069679               0.999999999               0.000017622               0.000076293               0.999999999               0.000021542               0.000083437               0.999999999               0.000025977               0.000091193               0.999999999               0.000030839               0.000099536               0.999999999               0.000036109               0.000108473               0.999999999              -0.000005092               0.000045478               0.999999999              -0.000003812               0.000041410               0.999999999              -0.000002898               0.000041543               0.999999999              -0.000001968               0.000043545               0.999999999              -0.000000891               0.000046651               0.999999999               0.000000509               0.000050608               0.999999999               0.000002444               0.000055688               0.999999999               0.000004901               0.000061565               0.999999999               0.000007802               0.000067901               0.999999999               0.000011002               0.000074458               0.999999999               0.000014541               0.000081482               0.999999999               0.000018565               0.000089351               0.999999999               0.000023017               0.000097888               0.999999999               0.000027936               0.000107100               0.999999999               0.000033373               0.000117030               0.999999999               0.000039299               0.000127709               0.999999999               0.000045671               0.000139120               0.999999999              -0.000004462               0.000053502               0.999999999              -0.000004171               0.000048791               0.999999999              -0.000003355               0.000049208               0.999999999              -0.000002263               0.000051864               0.999999999              -0.000000856               0.000055882               0.999999999               0.000001077               0.000061105               0.999999999               0.000003677               0.000067603               0.999999999               0.000006849               0.000074967               0.999999999               0.000010370               0.000082951               0.999999999               0.000014221               0.000091259               0.999999999               0.000018464               0.000100432               0.999999999               0.000023161               0.000110688               0.999999999               0.000028373               0.000121734               0.999999999               0.000034174               0.000133593               0.999999999               0.000040566               0.000146402               0.999999999               0.000047478               0.000159988               0.999999999               0.000054831               0.000174318               0.999999999              -0.000003840               0.000060993               0.999999999              -0.000004478               0.000055795               0.999999999              -0.000003738               0.000056587               0.999999999              -0.000002416               0.000059984               0.999999999              -0.000000600               0.000065025               0.999999999               0.000001926               0.000071644               0.999999999               0.000005236               0.000079674               0.999999999               0.000009031               0.000088720               0.999999999               0.000013111               0.000098530               0.999999999               0.000017434               0.000109220               0.999999999               0.000022145               0.000121091               0.999999999               0.000027477               0.000134277               0.999999999               0.000033508               0.000148393               0.999999999               0.000040154               0.000163458               0.999999999               0.000047383               0.000179540               0.999999999               0.000055129               0.000196446               0.999999999               0.000063376               0.000214070               0.999999999              -0.000003162               0.000067778               0.999999999              -0.000004802               0.000062458               0.999999999              -0.000004002               0.000063646               0.999999999              -0.000002423               0.000067879               0.999999999              -0.000000216               0.000074128               0.999999999               0.000002970               0.000082282               0.999999999               0.000006885               0.000092034               0.999999999               0.000011123               0.000103079               0.999999999               0.000015482               0.000115375               0.999999999               0.000020145               0.000128949               0.999999999               0.000025520               0.000143939               0.999999999               0.000031605               0.000160347               0.999999999               0.000038364               0.000177846               0.999999999               0.000045753               0.000196496               0.999999999               0.000053705               0.000216223               0.999999999               0.000062119               0.000236869               0.999999999               0.000070853               0.000258219               0.999999999              -0.000002379               0.000074076               0.999999999              -0.000004923               0.000069170               0.999999999              -0.000004510               0.000069752               0.999999999              -0.000003203               0.000073331               0.999999999              -0.000001348               0.000078910               0.999999999               0.000001347               0.000086236               0.999999999               0.000004663               0.000095192               0.999999999               0.000008338               0.000105577               0.999999999               0.000012210               0.000117207               0.999999999               0.000016130               0.000129973               0.999999999               0.000020329               0.000143975               0.999999999               0.000025107               0.000159266               0.999999999               0.000030435               0.000175721               0.999999999               0.000036258               0.000193132               0.999999999               0.000042580               0.000211560               0.999999999               0.000049275               0.000231081               0.999999999               0.000056489               0.000251519               0.999999999              -0.000001730               0.000079811               0.999999999              -0.000004784               0.000075534               0.999999999              -0.000004815               0.000075842               0.999999999              -0.000003836               0.000078881               0.999999999              -0.000002326               0.000083892               0.999999999              -0.000000155               0.000090539               0.999999999               0.000002576               0.000098726               0.999999999               0.000005771               0.000108398               0.999999999               0.000009190               0.000119388               0.999999999               0.000012482               0.000131535               0.999999999               0.000015812               0.000144734               0.999999999               0.000019483               0.000159059               0.999999999               0.000023528               0.000174493               0.999999999               0.000027841               0.000190819               0.999999999               0.000032520               0.000208033               0.999999999               0.000037692               0.000226155               0.999999999               0.000043345               0.000245320               0.999999999              -0.000001161               0.000084817               0.999999999              -0.000004415               0.000081444               0.999999999              -0.000004840               0.000081672               0.999999999              -0.000004193               0.000084377               0.999999999              -0.000003048               0.000088936               0.999999999              -0.000001315               0.000095019               0.999999999               0.000000873               0.000102565               0.999999999               0.000003550               0.000111587               0.999999999               0.000006399               0.000121980               0.999999999               0.000009200               0.000133555               0.999999999               0.000011872               0.000146173               0.999999999               0.000014598               0.000159706               0.999999999               0.000017515               0.000174168               0.999999999               0.000020572               0.000189571               0.999999999               0.000023896               0.000205779               0.999999999               0.000027551               0.000222774               0.999999999               0.000031484               0.000240692               0.999999999              -0.000000677               0.000088964               0.999999999              -0.000003825               0.000086643               0.999999999              -0.000004513               0.000087038               0.999999999              -0.000004175               0.000089567               0.999999999              -0.000003334               0.000093782               0.999999999              -0.000002023               0.000099454               0.999999999              -0.000000303               0.000106579               0.999999999               0.000001674               0.000115121               0.999999999               0.000003945               0.000125006               0.999999999               0.000006245               0.000136099               0.999999999               0.000008386               0.000148081               0.999999999               0.000010430               0.000160897               0.999999999               0.000012458               0.000174604               0.999999999               0.000014568               0.000189264               0.999999999               0.000016787               0.000204746               0.999999999               0.000019085               0.000221062               0.999999999               0.000021473               0.000238069               0.999999999              -0.000000361               0.000092278               0.999999999              -0.000003045               0.000090946               0.999999999              -0.000003788               0.000091626               0.999999999              -0.000003719               0.000094127               0.999999999              -0.000003140               0.000098170               0.999999999              -0.000002197               0.000103602               0.999999999              -0.000001031               0.000110490               0.999999999               0.000000412               0.000118662               0.999999999               0.000002089               0.000128059               0.999999999               0.000003828               0.000138641               0.999999999               0.000005449               0.000150102               0.999999999               0.000006907               0.000162412               0.999999999               0.000008273               0.000175656               0.999999999               0.000009709               0.000189797               0.999999999               0.000011118               0.000204777               0.999999999               0.000012387               0.000220511               0.999999999               0.000013664               0.000236840               0.999999999              -0.000000177               0.000094659               0.999999999              -0.000002100               0.000094186               0.999999999              -0.000002740               0.000095188               0.999999999              -0.000002812               0.000097723               0.999999999              -0.000002459               0.000101728               0.999999999              -0.000001877               0.000107115               0.999999999              -0.000001135               0.000113776               0.999999999              -0.000000152               0.000121637               0.999999999               0.000000891               0.000130733               0.999999999               0.000001988               0.000140860               0.999999999               0.000003081               0.000151906               0.999999999               0.000004089               0.000163928               0.999999999               0.000004987               0.000176903               0.999999999               0.000005877               0.000190704               0.999999999               0.000006665               0.000205283               0.999999999               0.000007287               0.000220540               0.999999999               0.000007854               0.000236422               0.999999999              -0.000000067               0.000096077               0.999999999              -0.000001067               0.000096195               0.999999999              -0.000001442               0.000097449               0.999999999              -0.000001504               0.000100047               0.999999999              -0.000001357               0.000104063               0.999999999              -0.000001096               0.000109429               0.999999999              -0.000000661               0.000115997               0.999999999              -0.000000257               0.000123692               0.999999999               0.000000241               0.000132543               0.999999999               0.000000791               0.000142403               0.999999999               0.000001368               0.000153259               0.999999999               0.000001895               0.000165108               0.999999999               0.000002326               0.000177829               0.999999999               0.000002725               0.000191390               0.999999999               0.000003070               0.000205763               0.999999999               0.000003340               0.000220777               0.999999999               0.000003549               0.000236428               0.999999999               0.000000000               0.000096568               0.999999999              -0.000000000               0.000096879               0.999999999              -0.000000000               0.000098201               0.999999999              -0.000000000               0.000100860               0.999999999              -0.000000000               0.000104894               0.999999999              -0.000000000               0.000110222               0.999999999              -0.000000000               0.000116815               0.999999999              -0.000000000               0.000124439               0.999999999              -0.000000000               0.000133135               0.999999999              -0.000000000               0.000142974               0.999999999               0.000000000               0.000153787               0.999999999               0.000000000               0.000165503               0.999999999               0.000000000               0.000178162               0.999999999               0.000000000               0.000191699               0.999999999               0.000000000               0.000205969               0.999999999               0.000000000               0.000220872               0.999999999              -0.000000000               0.000236454               0.999999999 </DataArray>
<DataArray type="Float64"                                    Name="stress"                                                      NumberOfComponents="10" format="ascii">
              0.000156208               0.001797090               0.000000000              -0.000166058               0.000654376               0.000488319               0.000000000               0.000000000               0.000000000               0.000000000               0.000182564               0.001514214              -0.000000000              -0.000120815               0.000545005               0.000424190               0.000000000               0.000000000               0.000000000               0.000000000               0.000267690               0.001289858              -0.000000000              -0.000060848               0.000450231               0.000389383               0.000000000               0.000000000               0.000000000               0.000000000               0.000303459               0.001162410              -0.000000000              -0.000031504               0.000397968               0.000366463               0.000000000               0.000000000               0.000000000               0.000000000               0.000320660               0.001082482              -0.000000000              -0.000015063               0.000365845               0.000350782               0.000000000               0.000000000               0.000000000               0.000000000               0.000329069               0.001032210              -0.000000000              -0.000005625               0.000345942               0.000340316               0.000000000               0.000000000               0.000000000               0.000000000               0.000331596               0.001001547               0.000000000              -0.000000845               0.000334127               0.000333283               0.000000000               0.000000000               0.000000000               0.000000000               0.000324806               0.000990831              -0.000000000              -0.000002051               0.000330957               0.000328906               0.000000000               0.000000000               0.000000000               0.000000000               0.000308740               0.000993170              -0.000000000              -0.000008369               0.000333843               0.000325474               0.000000000               0.000000000               0.000000000               0.000000000               0.000288677               0.001001199              -0.000000000              -0.000016896               0.000339362               0.000322466               0.000000000               0.000000000               0.000000000               0.000000000               0.000265803               0.001010739              -0.000000000              -0.000026666               0.000345798               0.000319132               0.000000000               0.000000000               0.000000000               0.000000000               0.000236831               0.001027066              -0.000000000              -0.000039572               0.000355542               0.000315971               0.000000000               0.000000000               0.000000000               0.000000000               0.000196692               0.001049039              -0.000000000              -0.000057370               0.000368799               0.000311429               0.000000000               0.000000000               0.000000000               0.000000000               0.000148820               0.001073179              -0.000000000              -0.000078340               0.000383836               0.000305496               0.000000000               0.000000000               0.000000000               0.000000000               0.000100496               0.001103180               0.000000000              -0.000100211               0.000401127               0.000300915               0.000000000               0.000000000               0.000000000               0.000000000               0.000051172               0.001139569               0.000000000              -0.000123256               0.000420938               0.000297682               0.000000000               0.000000000               0.000000000               0.000000000               0.000030159               0.001170878              -0.000000000              -0.000135050               0.000435306               0.000300256               0.000000000               0.000000000               0.000000000               0.000000000               0.000165879               0.001766635              -0.000140843              -0.000158625               0.000641747               0.000483123               0.000000000               0.000000000               0.000000000               0.000000000               0.000187364               0.001493710              -0.000095711              -0.000116452               0.000536716               0.000420264               0.000000000               0.000000000               0.000000000               0.000000000               0.000267388               0.001277519              -0.000049263              -0.000059419               0.000445642               0.000386223               0.000000000               0.000000000               0.000000000               0.000000000               0.000298988               0.001156891              -0.000029137              -0.000032491               0.000396457               0.000363966               0.000000000               0.000000000               0.000000000               0.000000000               0.000313781               0.001081818              -0.000020264              -0.000017560               0.000366456               0.000348896               0.000000000               0.000000000               0.000000000               0.000000000               0.000321484               0.001034545              -0.000015882              -0.000008762               0.000347765               0.000339004               0.000000000               0.000000000               0.000000000               0.000000000               0.000320310               0.001008166              -0.000012766              -0.000005905               0.000338020               0.000332116               0.000000000               0.000000000               0.000000000               0.000000000               0.000311451               0.000999942              -0.000010943              -0.000008198               0.000336044               0.000327845               0.000000000               0.000000000               0.000000000               0.000000000               0.000296991               0.001002708              -0.000012900              -0.000013967               0.000338888               0.000324921               0.000000000               0.000000000               0.000000000               0.000000000               0.000278308               0.001009819              -0.000018684              -0.000021862               0.000343890               0.000322028               0.000000000               0.000000000               0.000000000               0.000000000               0.000254263               0.001017572              -0.000021412              -0.000031848               0.000349803               0.000317956               0.000000000               0.000000000               0.000000000               0.000000000               0.000225165               0.001032460              -0.000019471              -0.000044620               0.000359023               0.000314403               0.000000000               0.000000000               0.000000000               0.000000000               0.000189795               0.001052477              -0.000019017              -0.000060386               0.000370951               0.000310565               0.000000000               0.000000000               0.000000000               0.000000000               0.000145804               0.001073762              -0.000017831              -0.000079544               0.000384432               0.000304888               0.000000000               0.000000000               0.000000000               0.000000000               0.000098395               0.001099101              -0.000013798              -0.000100489               0.000399860               0.000299371               0.000000000               0.000000000               0.000000000               0.000000000               0.000050786               0.001128871              -0.000008136              -0.000122064               0.000416975               0.000294911               0.000000000               0.000000000               0.000000000               0.000000000               0.000030148               0.001154012              -0.000005421              -0.000132946               0.000428982               0.000296036               0.000000000               0.000000000               0.000000000               0.000000000               0.000199754               0.001686300              -0.000266990              -0.000135879               0.000607387               0.000471508               0.000000000               0.000000000               0.000000000               0.000000000               0.000203649               0.001436768              -0.000181753              -0.000103227               0.000513327               0.000410100               0.000000000               0.000000000               0.000000000               0.000000000               0.000264484               0.001245861              -0.000094721              -0.000056551               0.000434133               0.000377582               0.000000000               0.000000000               0.000000000               0.000000000               0.000286836               0.001140370              -0.000057133              -0.000034983               0.000391780               0.000356798               0.000000000               0.000000000               0.000000000               0.000000000               0.000296349               0.001078626              -0.000040627              -0.000023698               0.000367438               0.000343740               0.000000000               0.000000000               0.000000000               0.000000000               0.000298002               0.001041414              -0.000032385              -0.000018426               0.000353277               0.000334851               0.000000000               0.000000000               0.000000000               0.000000000               0.000291436               0.001025709              -0.000025893              -0.000018925               0.000348208               0.000329283               0.000000000               0.000000000               0.000000000               0.000000000               0.000278966               0.001024165              -0.000022667              -0.000023408               0.000349188               0.000325780               0.000000000               0.000000000               0.000000000               0.000000000               0.000262568               0.001027759              -0.000026111              -0.000030007               0.000352585               0.000322579               0.000000000               0.000000000               0.000000000               0.000000000               0.000246408               0.001032944              -0.000035210              -0.000036715               0.000356549               0.000319835               0.000000000               0.000000000               0.000000000               0.000000000               0.000227159               0.001039367              -0.000037878              -0.000044736               0.000361364               0.000316628               0.000000000               0.000000000               0.000000000               0.000000000               0.000199999               0.001050404              -0.000032543              -0.000056301               0.000368898               0.000312597               0.000000000               0.000000000               0.000000000               0.000000000               0.000166868               0.001064132              -0.000029942              -0.000070441               0.000378187               0.000307746               0.000000000               0.000000000               0.000000000               0.000000000               0.000127680               0.001079903              -0.000025798              -0.000087108               0.000389000               0.000301892               0.000000000               0.000000000               0.000000000               0.000000000               0.000085927               0.001098260              -0.000018195              -0.000105060               0.000401103               0.000296043               0.000000000               0.000000000               0.000000000               0.000000000               0.000044438               0.001117408              -0.000009882              -0.000123011               0.000413469               0.000290458               0.000000000               0.000000000               0.000000000               0.000000000               0.000026068               0.001132909              -0.000006429              -0.000131838               0.000421579               0.000289741               0.000000000               0.000000000               0.000000000               0.000000000               0.000246240               0.001568307              -0.000367737              -0.000103698               0.000557330               0.000453631               0.000000000               0.000000000               0.000000000               0.000000000               0.000224555               0.001350487              -0.000251712              -0.000084603               0.000478359               0.000393756               0.000000000               0.000000000               0.000000000               0.000000000               0.000258388               0.001199664              -0.000133919              -0.000053062               0.000417571               0.000364509               0.000000000               0.000000000               0.000000000               0.000000000               0.000270074               0.001116418              -0.000082466              -0.000038274               0.000384894               0.000346619               0.000000000               0.000000000               0.000000000               0.000000000               0.000272785               0.001071702              -0.000060630              -0.000031668               0.000367787               0.000336118               0.000000000               0.000000000               0.000000000               0.000000000               0.000266225               0.001050244              -0.000048897              -0.000031446               0.000360560               0.000329114               0.000000000               0.000000000               0.000000000               0.000000000               0.000254114               0.001048426              -0.000038965              -0.000035760               0.000361392               0.000325632               0.000000000               0.000000000               0.000000000               0.000000000               0.000237697               0.001054441              -0.000034706              -0.000042669               0.000365700               0.000323031               0.000000000               0.000000000               0.000000000               0.000000000               0.000221709               0.001061844              -0.000039231              -0.000049590               0.000370474               0.000320885               0.000000000               0.000000000               0.000000000               0.000000000               0.000206323               0.001064823              -0.000048269              -0.000055732               0.000373515               0.000317783               0.000000000               0.000000000               0.000000000               0.000000000               0.000188035               0.001072326              -0.000048174              -0.000063528               0.000378614               0.000315087               0.000000000               0.000000000               0.000000000               0.000000000               0.000165743               0.001083751              -0.000039437              -0.000073315               0.000385685               0.000312370               0.000000000               0.000000000               0.000000000               0.000000000               0.000140962               0.001096473              -0.000033057              -0.000084198               0.000393554               0.000309355               0.000000000               0.000000000               0.000000000               0.000000000               0.000109115               0.001109833              -0.000025077              -0.000097811               0.000402544               0.000304733               0.000000000               0.000000000               0.000000000               0.000000000               0.000072776               0.001123550              -0.000015940              -0.000113153               0.000412230               0.000299078               0.000000000               0.000000000               0.000000000               0.000000000               0.000037256               0.001138869              -0.000007965              -0.000128387               0.000422415               0.000294028               0.000000000               0.000000000               0.000000000               0.000000000               0.000022904               0.001152764              -0.000005620              -0.000135506               0.000429420               0.000293913               0.000000000               0.000000000               0.000000000               0.000000000               0.000291842               0.001416427              -0.000441338              -0.000067613               0.000494675               0.000427062               0.000000000               0.000000000               0.000000000               0.000000000               0.000243556               0.001244697              -0.000302997              -0.000064254               0.000436313               0.000372059               0.000000000               0.000000000               0.000000000               0.000000000               0.000250280               0.001144423              -0.000164311              -0.000049198               0.000397870               0.000348672               0.000000000               0.000000000               0.000000000               0.000000000               0.000250314               0.001089553              -0.000106156              -0.000042326               0.000377290               0.000334963               0.000000000               0.000000000               0.000000000               0.000000000               0.000247000               0.001062533              -0.000080149              -0.000040192               0.000367571               0.000327380               0.000000000               0.000000000               0.000000000               0.000000000               0.000235971               0.001057961              -0.000063879              -0.000043756               0.000367235               0.000323480               0.000000000               0.000000000               0.000000000               0.000000000               0.000217812               0.001070330              -0.000051946              -0.000052112               0.000374144               0.000322032               0.000000000               0.000000000               0.000000000               0.000000000               0.000199709               0.001084081              -0.000046762              -0.000060619               0.000381563               0.000320944               0.000000000               0.000000000               0.000000000               0.000000000               0.000184510               0.001093870              -0.000052119              -0.000067542               0.000387134               0.000319591               0.000000000               0.000000000               0.000000000               0.000000000               0.000170389               0.001102796              -0.000059337              -0.000073953               0.000392246               0.000318293               0.000000000               0.000000000               0.000000000               0.000000000               0.000154016               0.001119117              -0.000053828              -0.000082133               0.000400413               0.000318280               0.000000000               0.000000000               0.000000000               0.000000000               0.000134994               0.001138570              -0.000043273              -0.000091698               0.000410086               0.000318387               0.000000000               0.000000000               0.000000000               0.000000000               0.000114740               0.001158064              -0.000036070              -0.000101730               0.000419928               0.000318197               0.000000000               0.000000000               0.000000000               0.000000000               0.000085679               0.001176406              -0.000028087              -0.000114921               0.000430438               0.000315517               0.000000000               0.000000000               0.000000000               0.000000000               0.000053643               0.001195057              -0.000018850              -0.000129266               0.000441437               0.000312171               0.000000000               0.000000000               0.000000000               0.000000000               0.000026780               0.001218328              -0.000010019              -0.000142248               0.000453521               0.000311273               0.000000000               0.000000000               0.000000000               0.000000000               0.000018744               0.001238431              -0.000008242              -0.000147774               0.000462064               0.000314290               0.000000000               0.000000000               0.000000000               0.000000000               0.000337286               0.001245202              -0.000481347              -0.000029169               0.000424786               0.000395617               0.000000000               0.000000000               0.000000000               0.000000000               0.000260448               0.001131308              -0.000334424              -0.000043746               0.000391681               0.000347935               0.000000000               0.000000000               0.000000000               0.000000000               0.000239124               0.001088130              -0.000188379              -0.000046345               0.000378155               0.000331810               0.000000000               0.000000000               0.000000000               0.000000000               0.000232147               0.001062168              -0.000127643              -0.000045716               0.000369291               0.000323575               0.000000000               0.000000000               0.000000000               0.000000000               0.000224373               0.001054056              -0.000097864              -0.000047617               0.000367221               0.000319604               0.000000000               0.000000000               0.000000000               0.000000000               0.000210149               0.001066720              -0.000077979              -0.000054534               0.000373748               0.000319214               0.000000000               0.000000000               0.000000000               0.000000000               0.000190800               0.001089051              -0.000063954              -0.000064581               0.000384540               0.000319959               0.000000000               0.000000000               0.000000000               0.000000000               0.000173447               0.001108674              -0.000059405              -0.000073542               0.000394068               0.000320527               0.000000000               0.000000000               0.000000000               0.000000000               0.000161449               0.001126308              -0.000063141              -0.000080245               0.000402181               0.000321936               0.000000000               0.000000000               0.000000000               0.000000000               0.000151632               0.001150191              -0.000065532              -0.000086912               0.000412364               0.000325452               0.000000000               0.000000000               0.000000000               0.000000000               0.000135588               0.001183554              -0.000056490              -0.000097098               0.000426880               0.000329782               0.000000000               0.000000000               0.000000000               0.000000000               0.000115189               0.001220380              -0.000045183              -0.000109351               0.000443240               0.000333888               0.000000000               0.000000000               0.000000000               0.000000000               0.000094128               0.001257003              -0.000037878              -0.000121827               0.000459606               0.000337779               0.000000000               0.000000000               0.000000000               0.000000000               0.000067932               0.001293133              -0.000029746              -0.000136167               0.000476429               0.000340262               0.000000000               0.000000000               0.000000000               0.000000000               0.000040934               0.001330510              -0.000020451              -0.000150963               0.000493820               0.000342857               0.000000000               0.000000000               0.000000000               0.000000000               0.000018103               0.001368274              -0.000010846              -0.000164245               0.000510835               0.000346590               0.000000000               0.000000000               0.000000000               0.000000000               0.000013050               0.001395627              -0.000009089              -0.000169559               0.000521724               0.000352165               0.000000000               0.000000000               0.000000000               0.000000000               0.000370581               0.001072493              -0.000489045               0.000004906               0.000355859               0.000360764               0.000000000               0.000000000               0.000000000               0.000000000               0.000273348               0.001019270              -0.000348856              -0.000024904               0.000348054               0.000323151               0.000000000               0.000000000               0.000000000               0.000000000               0.000227569               0.001034060              -0.000206375              -0.000043919               0.000359323               0.000315404               0.000000000               0.000000000               0.000000000               0.000000000               0.000216136               0.001036478              -0.000145174              -0.000048509               0.000361659               0.000313150               0.000000000               0.000000000               0.000000000               0.000000000               0.000205972               0.001049247              -0.000112722              -0.000053916               0.000367718               0.000313801               0.000000000               0.000000000               0.000000000               0.000000000               0.000189839               0.001078839              -0.000091021              -0.000063665               0.000380831               0.000317166               0.000000000               0.000000000               0.000000000               0.000000000               0.000172023               0.001109716              -0.000076371              -0.000074206               0.000394637               0.000320431               0.000000000               0.000000000               0.000000000               0.000000000               0.000161715               0.001139299              -0.000069568              -0.000081769               0.000407019               0.000325250               0.000000000               0.000000000               0.000000000               0.000000000               0.000156474               0.001173302              -0.000068899              -0.000087985               0.000420425               0.000332440               0.000000000               0.000000000               0.000000000               0.000000000               0.000149262               0.001220658              -0.000065070              -0.000096609               0.000439085               0.000342476               0.000000000               0.000000000               0.000000000               0.000000000               0.000135273               0.001279911              -0.000050906              -0.000109261               0.000463053               0.000353792               0.000000000               0.000000000               0.000000000               0.000000000               0.000114838               0.001340473              -0.000039651              -0.000124495               0.000488318               0.000363823               0.000000000               0.000000000               0.000000000               0.000000000               0.000090962               0.001397665              -0.000034222              -0.000140597               0.000512749               0.000372152               0.000000000               0.000000000               0.000000000               0.000000000               0.000064064               0.001452426              -0.000025811              -0.000157529               0.000536647               0.000379118               0.000000000               0.000000000               0.000000000               0.000000000               0.000038545               0.001505699              -0.000016930              -0.000173758               0.000559814               0.000386056               0.000000000               0.000000000               0.000000000               0.000000000               0.000016896               0.001554952              -0.000009434              -0.000188032               0.000580990               0.000392957               0.000000000               0.000000000               0.000000000               0.000000000               0.000012656               0.001587697              -0.000008944              -0.000193716               0.000593799               0.000400083               0.000000000               0.000000000               0.000000000               0.000000000               0.000385967               0.000905647              -0.000471074               0.000031531               0.000291369               0.000322900               0.000000000               0.000000000               0.000000000               0.000000000               0.000278500               0.000915194              -0.000348378              -0.000009962               0.000308382               0.000298420               0.000000000               0.000000000               0.000000000               0.000000000               0.000217248               0.000984324              -0.000217891              -0.000041572               0.000341962               0.000300390               0.000000000               0.000000000               0.000000000               0.000000000               0.000203539               0.001016108              -0.000158369              -0.000050686               0.000355595               0.000304908               0.000000000               0.000000000               0.000000000               0.000000000               0.000190726               0.001052243              -0.000124204              -0.000060008               0.000370747               0.000310739               0.000000000               0.000000000               0.000000000               0.000000000               0.000174169               0.001098521              -0.000101539              -0.000072002               0.000390170               0.000318169               0.000000000               0.000000000               0.000000000               0.000000000               0.000162130               0.001144341              -0.000085223              -0.000082244               0.000408858               0.000326614               0.000000000               0.000000000               0.000000000               0.000000000               0.000160804               0.001194434              -0.000074110              -0.000089002               0.000427808               0.000338806               0.000000000               0.000000000               0.000000000               0.000000000               0.000163370               0.001256822              -0.000065714              -0.000095839               0.000450883               0.000355044               0.000000000               0.000000000               0.000000000               0.000000000               0.000160308               0.001334489              -0.000055311              -0.000106695               0.000480390               0.000373695               0.000000000               0.000000000               0.000000000               0.000000000               0.000145861               0.001414784              -0.000040622              -0.000122150               0.000512307               0.000390157               0.000000000               0.000000000               0.000000000               0.000000000               0.000121210               0.001488398              -0.000031353              -0.000140596               0.000542993               0.000402397               0.000000000               0.000000000               0.000000000               0.000000000               0.000095005               0.001557434              -0.000027365              -0.000159052               0.000572157               0.000413105               0.000000000               0.000000000               0.000000000               0.000000000               0.000070256               0.001624349              -0.000019908              -0.000176697               0.000600343               0.000423646               0.000000000               0.000000000               0.000000000               0.000000000               0.000046094               0.001685849              -0.000011888              -0.000193445               0.000626426               0.000432980               0.000000000               0.000000000               0.000000000               0.000000000               0.000022896               0.001741689              -0.000006281              -0.000209125               0.000650265               0.000441141               0.000000000               0.000000000               0.000000000               0.000000000               0.000015213               0.001777562              -0.000006915              -0.000216490               0.000664678               0.000448188               0.000000000               0.000000000               0.000000000               0.000000000               0.000394713               0.000756966              -0.000433049               0.000053395               0.000234521               0.000287916               0.000000000               0.000000000               0.000000000               0.000000000               0.000282126               0.000821367              -0.000338859               0.000003126               0.000272744               0.000275870               0.000000000               0.000000000               0.000000000               0.000000000               0.000213000               0.000941076              -0.000230196              -0.000037760               0.000326275               0.000288516               0.000000000               0.000000000               0.000000000               0.000000000               0.000198285               0.001000691              -0.000170432              -0.000050730               0.000350470               0.000299741               0.000000000               0.000000000               0.000000000               0.000000000               0.000183208               0.001058283              -0.000135562              -0.000063582               0.000373952               0.000310369               0.000000000               0.000000000               0.000000000               0.000000000               0.000168004               0.001121041              -0.000111933              -0.000077128               0.000399386               0.000322258               0.000000000               0.000000000               0.000000000               0.000000000               0.000162466               0.001186039              -0.000091278              -0.000087330               0.000424452               0.000337123               0.000000000               0.000000000               0.000000000               0.000000000               0.000170711               0.001261451              -0.000073456              -0.000093665               0.000451701               0.000358036               0.000000000               0.000000000               0.000000000               0.000000000               0.000182098               0.001349098              -0.000058963              -0.000100350               0.000483145               0.000382795               0.000000000               0.000000000               0.000000000               0.000000000               0.000179069               0.001441137              -0.000046945              -0.000112991               0.000518038               0.000405047               0.000000000               0.000000000               0.000000000               0.000000000               0.000162883               0.001532142              -0.000036085              -0.000130436               0.000554188               0.000423751               0.000000000               0.000000000               0.000000000               0.000000000               0.000140494               0.001612591              -0.000028044              -0.000148888               0.000587154               0.000438266               0.000000000               0.000000000               0.000000000               0.000000000               0.000115507               0.001686212              -0.000022041              -0.000167461               0.000617885               0.000450424               0.000000000               0.000000000               0.000000000               0.000000000               0.000091225               0.001757350              -0.000013955              -0.000185459               0.000647597               0.000462138               0.000000000               0.000000000               0.000000000               0.000000000               0.000068922               0.001825074              -0.000005627              -0.000202288               0.000675781               0.000473493               0.000000000               0.000000000               0.000000000               0.000000000               0.000049587               0.001888906               0.000000032              -0.000217518               0.000702135               0.000484617               0.000000000               0.000000000               0.000000000               0.000000000               0.000039821               0.001922906               0.000001154              -0.000225430               0.000716105               0.000490676               0.000000000               0.000000000               0.000000000               0.000000000               0.000390389               0.000612598              -0.000385698               0.000069820               0.000180924               0.000250744               0.000000000               0.000000000               0.000000000               0.000000000               0.000287313               0.000709093              -0.000326118               0.000019105               0.000229993               0.000249099               0.000000000               0.000000000               0.000000000               0.000000000               0.000215597               0.000866760              -0.000247003              -0.000027496               0.000298083               0.000270586               0.000000000               0.000000000               0.000000000               0.000000000               0.000200272               0.000953518              -0.000188953              -0.000044088               0.000332532               0.000288444               0.000000000               0.000000000               0.000000000               0.000000000               0.000189729               0.001028693              -0.000153896              -0.000057438               0.000362040               0.000304602               0.000000000               0.000000000               0.000000000               0.000000000               0.000177171               0.001106253              -0.000128938              -0.000071843               0.000392695               0.000320852               0.000000000               0.000000000               0.000000000               0.000000000               0.000173714               0.001190454              -0.000106090              -0.000083664               0.000424702               0.000341038               0.000000000               0.000000000               0.000000000               0.000000000               0.000185233               0.001282930              -0.000087736              -0.000090904               0.000457940               0.000367036               0.000000000               0.000000000               0.000000000               0.000000000               0.000203514               0.001378052              -0.000071026              -0.000095939               0.000491325               0.000395387               0.000000000               0.000000000               0.000000000               0.000000000               0.000211437               0.001473223              -0.000055413              -0.000104864               0.000526024               0.000421160               0.000000000               0.000000000               0.000000000               0.000000000               0.000203824               0.001568161              -0.000044043              -0.000119586               0.000562577               0.000442991               0.000000000               0.000000000               0.000000000               0.000000000               0.000187521               0.001656080              -0.000035523              -0.000136689               0.000597584               0.000460895               0.000000000               0.000000000               0.000000000               0.000000000               0.000164822               0.001730745              -0.000026896              -0.000154535               0.000628421               0.000473886               0.000000000               0.000000000               0.000000000               0.000000000               0.000137666               0.001797665              -0.000017019              -0.000173083               0.000656910               0.000483827               0.000000000               0.000000000               0.000000000               0.000000000               0.000113786               0.001869844              -0.000006664              -0.000191060               0.000686962               0.000495902               0.000000000               0.000000000               0.000000000               0.000000000               0.000096126               0.001943550              -0.000000128              -0.000206896               0.000716809               0.000509913               0.000000000               0.000000000               0.000000000               0.000000000               0.000082510               0.001975223               0.000003376              -0.000215961               0.000730388               0.000514427               0.000000000               0.000000000               0.000000000               0.000000000               0.000366474               0.000473824              -0.000331410               0.000078199               0.000131873               0.000210072               0.000000000               0.000000000               0.000000000               0.000000000               0.000290854               0.000595058              -0.000305816               0.000034687               0.000186788               0.000221475               0.000000000               0.000000000               0.000000000               0.000000000               0.000226319               0.000777876              -0.000257371              -0.000012365               0.000263411               0.000251046               0.000000000               0.000000000               0.000000000               0.000000000               0.000211933               0.000891019              -0.000207256              -0.000031903               0.000307638               0.000275735               0.000000000               0.000000000               0.000000000               0.000000000               0.000205491               0.000983743              -0.000172563              -0.000045909               0.000343214               0.000297305               0.000000000               0.000000000               0.000000000               0.000000000               0.000197846               0.001073390              -0.000147465              -0.000059981               0.000377787               0.000317806               0.000000000               0.000000000               0.000000000               0.000000000               0.000197619               0.001170978              -0.000125950              -0.000072265               0.000414410               0.000342145               0.000000000               0.000000000               0.000000000               0.000000000               0.000210429               0.001275994              -0.000108000              -0.000080588               0.000452190               0.000371602               0.000000000               0.000000000               0.000000000               0.000000000               0.000229208               0.001379813              -0.000087715              -0.000086523               0.000488774               0.000402251               0.000000000               0.000000000               0.000000000               0.000000000               0.000244986               0.001478460              -0.000068020              -0.000092938               0.000523794               0.000430857               0.000000000               0.000000000               0.000000000               0.000000000               0.000248896               0.001572492              -0.000054671              -0.000103225               0.000558567               0.000455342               0.000000000               0.000000000               0.000000000               0.000000000               0.000240570               0.001661039              -0.000043938              -0.000117416               0.000592813               0.000475397               0.000000000               0.000000000               0.000000000               0.000000000               0.000222594               0.001735776              -0.000031087              -0.000133499               0.000623086               0.000489587               0.000000000               0.000000000               0.000000000               0.000000000               0.000198365               0.001801022              -0.000018836              -0.000150741               0.000650582               0.000499841               0.000000000               0.000000000               0.000000000               0.000000000               0.000174290               0.001867005              -0.000010001              -0.000168017               0.000678334               0.000510318               0.000000000               0.000000000               0.000000000               0.000000000               0.000155318               0.001940095              -0.000003454              -0.000184267               0.000708114               0.000523847               0.000000000               0.000000000               0.000000000               0.000000000               0.000137747               0.001972540               0.000003205              -0.000194912               0.000722477               0.000527565               0.000000000               0.000000000               0.000000000               0.000000000               0.000327770               0.000345787              -0.000266851               0.000079690               0.000088698               0.000168387               0.000000000               0.000000000               0.000000000               0.000000000               0.000286639               0.000482072              -0.000271715               0.000047230               0.000144946               0.000192176               0.000000000               0.000000000               0.000000000               0.000000000               0.000241984               0.000679573              -0.000253494               0.000005797               0.000224590               0.000230387               0.000000000               0.000000000               0.000000000               0.000000000               0.000232114               0.000815277              -0.000215502              -0.000014867               0.000276712               0.000261845               0.000000000               0.000000000               0.000000000               0.000000000               0.000229832               0.000924129              -0.000184446              -0.000029329               0.000317816               0.000288487               0.000000000               0.000000000               0.000000000               0.000000000               0.000228207               0.001028050              -0.000161547              -0.000042929               0.000356990               0.000314061               0.000000000               0.000000000               0.000000000               0.000000000               0.000231790               0.001141594              -0.000142862              -0.000055778               0.000399120               0.000343342               0.000000000               0.000000000               0.000000000               0.000000000               0.000239350               0.001259609              -0.000124762              -0.000067695               0.000442430               0.000374736               0.000000000               0.000000000               0.000000000               0.000000000               0.000254538               0.001373699              -0.000103892              -0.000076260               0.000483315               0.000407055               0.000000000               0.000000000               0.000000000               0.000000000               0.000273401               0.001477451              -0.000082544              -0.000082156               0.000519864               0.000437708               0.000000000               0.000000000               0.000000000               0.000000000               0.000283849               0.001567199              -0.000064209              -0.000089456               0.000552213               0.000462757               0.000000000               0.000000000               0.000000000               0.000000000               0.000282299               0.001648609              -0.000049305              -0.000100214               0.000582935               0.000482722               0.000000000               0.000000000               0.000000000               0.000000000               0.000273972               0.001728083              -0.000034715              -0.000113271               0.000613779               0.000500508               0.000000000               0.000000000               0.000000000               0.000000000               0.000262209               0.001802501              -0.000023170              -0.000126984               0.000643156               0.000516172               0.000000000               0.000000000               0.000000000               0.000000000               0.000246084               0.001871021              -0.000015769              -0.000141596               0.000670866               0.000529270               0.000000000               0.000000000               0.000000000               0.000000000               0.000227060               0.001943922              -0.000008199              -0.000157842               0.000700582               0.000542739               0.000000000               0.000000000               0.000000000               0.000000000               0.000206720               0.001974889               0.000000282              -0.000169341               0.000714737               0.000545396               0.000000000               0.000000000               0.000000000               0.000000000               0.000273226               0.000240011              -0.000198267               0.000072458               0.000055850               0.000128308               0.000000000               0.000000000               0.000000000               0.000000000               0.000275088               0.000378607              -0.000225533               0.000055831               0.000107591               0.000163422               0.000000000               0.000000000               0.000000000               0.000000000               0.000261950               0.000579788              -0.000232823               0.000025757               0.000184675               0.000210432               0.000000000               0.000000000               0.000000000               0.000000000               0.000258214               0.000729499              -0.000208701               0.000005643               0.000241283               0.000246926               0.000000000               0.000000000               0.000000000               0.000000000               0.000260978               0.000854611              -0.000184498              -0.000008960               0.000287854               0.000278894               0.000000000               0.000000000               0.000000000               0.000000000               0.000264313               0.000977386              -0.000165160              -0.000023056               0.000333477               0.000310422               0.000000000               0.000000000               0.000000000               0.000000000               0.000269075               0.001106002              -0.000147981              -0.000037347               0.000381112               0.000343766               0.000000000               0.000000000               0.000000000               0.000000000               0.000274339               0.001232233              -0.000131571              -0.000051152               0.000427791               0.000376639               0.000000000               0.000000000               0.000000000               0.000000000               0.000285888               0.001353090              -0.000113638              -0.000061928               0.000471668               0.000409740               0.000000000               0.000000000               0.000000000               0.000000000               0.000299669               0.001455660              -0.000092018              -0.000069581               0.000508409               0.000438828               0.000000000               0.000000000               0.000000000               0.000000000               0.000309889               0.001539777              -0.000070347              -0.000076264               0.000538675               0.000462412               0.000000000               0.000000000               0.000000000               0.000000000               0.000316706               0.001624369              -0.000052637              -0.000084281               0.000569545               0.000485263               0.000000000               0.000000000               0.000000000               0.000000000               0.000321783               0.001715813              -0.000039411              -0.000093808               0.000603201               0.000509393               0.000000000               0.000000000               0.000000000               0.000000000               0.000324975               0.001803869              -0.000029636              -0.000103618               0.000635823               0.000532205               0.000000000               0.000000000               0.000000000               0.000000000               0.000321921               0.001884769              -0.000020433              -0.000114875               0.000666542               0.000551666               0.000000000               0.000000000               0.000000000               0.000000000               0.000310107               0.001957392              -0.000010478              -0.000128384               0.000695252               0.000566868               0.000000000               0.000000000               0.000000000               0.000000000               0.000293692               0.001984427              -0.000002549              -0.000137919               0.000707442               0.000569524               0.000000000               0.000000000               0.000000000               0.000000000               0.000208736               0.000158300              -0.000135531               0.000058488               0.000033270               0.000091758               0.000000000               0.000000000               0.000000000               0.000000000               0.000257485               0.000291116              -0.000173284               0.000060167               0.000076982               0.000137149               0.000000000               0.000000000               0.000000000               0.000000000               0.000280719               0.000486265              -0.000194360               0.000044486               0.000147258               0.000191744               0.000000000               0.000000000               0.000000000               0.000000000               0.000287712               0.000645390              -0.000182531               0.000027218               0.000206055               0.000233273               0.000000000               0.000000000               0.000000000               0.000000000               0.000294908               0.000786113              -0.000167301               0.000012326               0.000257926               0.000270252               0.000000000               0.000000000               0.000000000               0.000000000               0.000302121               0.000925415              -0.000151832              -0.000002382               0.000309262               0.000306881               0.000000000               0.000000000               0.000000000               0.000000000               0.000307702               0.001060927              -0.000137076              -0.000017228               0.000359381               0.000342154               0.000000000               0.000000000               0.000000000               0.000000000               0.000314565               0.001188710              -0.000123952              -0.000030627               0.000406442               0.000375815               0.000000000               0.000000000               0.000000000               0.000000000               0.000320788               0.001310844              -0.000108343              -0.000043560               0.000451464               0.000407904               0.000000000               0.000000000               0.000000000               0.000000000               0.000326806               0.001414011              -0.000088463              -0.000054199               0.000489399               0.000435200               0.000000000               0.000000000               0.000000000               0.000000000               0.000336225               0.001504890              -0.000068420              -0.000062027               0.000522301               0.000460274               0.000000000               0.000000000               0.000000000               0.000000000               0.000351158               0.001603316              -0.000052335              -0.000068730               0.000557343               0.000488613               0.000000000               0.000000000               0.000000000               0.000000000               0.000367128               0.001705416              -0.000042305              -0.000075504               0.000593634               0.000518130               0.000000000               0.000000000               0.000000000               0.000000000               0.000380133               0.001801013              -0.000033847              -0.000082576               0.000627857               0.000545281               0.000000000               0.000000000               0.000000000               0.000000000               0.000387494               0.001887230              -0.000021772              -0.000090593               0.000659268               0.000568675               0.000000000               0.000000000               0.000000000               0.000000000               0.000387074               0.001958673              -0.000009806              -0.000099681               0.000686111               0.000586430               0.000000000               0.000000000               0.000000000               0.000000000               0.000379649               0.001986448              -0.000003437              -0.000105938               0.000697455               0.000591518               0.000000000               0.000000000               0.000000000               0.000000000               0.000152039               0.000103746              -0.000081803               0.000044046               0.000019899               0.000063945               0.000000000               0.000000000               0.000000000               0.000000000               0.000238679               0.000225727              -0.000116870               0.000061288               0.000054812               0.000116100               0.000000000               0.000000000               0.000000000               0.000000000               0.000294475               0.000408672              -0.000139922               0.000059343               0.000116442               0.000175785               0.000000000               0.000000000               0.000000000               0.000000000               0.000316931               0.000574283              -0.000136600               0.000047063               0.000175738               0.000222801               0.000000000               0.000000000               0.000000000               0.000000000               0.000328829               0.000728719              -0.000128272               0.000032221               0.000232164               0.000264384               0.000000000               0.000000000               0.000000000               0.000000000               0.000336976               0.000874043              -0.000118167               0.000017111               0.000285641               0.000302752               0.000000000               0.000000000               0.000000000               0.000000000               0.000344585               0.001009331              -0.000108183               0.000003053               0.000335423               0.000338476               0.000000000               0.000000000               0.000000000               0.000000000               0.000348664               0.001140272              -0.000097098              -0.000011785               0.000384015               0.000372230               0.000000000               0.000000000               0.000000000               0.000000000               0.000351724               0.001263130              -0.000084379              -0.000025995               0.000429704               0.000403709               0.000000000               0.000000000               0.000000000               0.000000000               0.000355131               0.001369835              -0.000070821              -0.000038055               0.000469292               0.000431237               0.000000000               0.000000000               0.000000000               0.000000000               0.000366496               0.001476007              -0.000057638              -0.000047065               0.000507686               0.000460621               0.000000000               0.000000000               0.000000000               0.000000000               0.000385445               0.001587149              -0.000045700              -0.000053851               0.000546995               0.000493143               0.000000000               0.000000000               0.000000000               0.000000000               0.000404344               0.001691990              -0.000036765              -0.000059870               0.000583948               0.000524078               0.000000000               0.000000000               0.000000000               0.000000000               0.000420220               0.001787932              -0.000028557              -0.000065909               0.000617941               0.000552032               0.000000000               0.000000000               0.000000000               0.000000000               0.000434141               0.001874377              -0.000017585              -0.000071494               0.000648617               0.000577123               0.000000000               0.000000000               0.000000000               0.000000000               0.000446692               0.001950531              -0.000007652              -0.000076307               0.000675606               0.000599299               0.000000000               0.000000000               0.000000000               0.000000000               0.000449844               0.001984912              -0.000003175              -0.000079422               0.000688105               0.000608683               0.000000000               0.000000000               0.000000000               0.000000000               0.000113729               0.000075709              -0.000038129               0.000033184               0.000014175               0.000047359               0.000000000               0.000000000               0.000000000               0.000000000               0.000223201               0.000185424              -0.000058418               0.000060522               0.000041633               0.000102155               0.000000000               0.000000000               0.000000000               0.000000000               0.000302992               0.000357081              -0.000072933               0.000068986               0.000096030               0.000165016               0.000000000               0.000000000               0.000000000               0.000000000               0.000338124               0.000526350              -0.000073482               0.000061002               0.000155114               0.000216116               0.000000000               0.000000000               0.000000000               0.000000000               0.000354740               0.000687925              -0.000069686               0.000047036               0.000213627               0.000260664               0.000000000               0.000000000               0.000000000               0.000000000               0.000363560               0.000836093              -0.000065424               0.000031823               0.000268087               0.000299910               0.000000000               0.000000000               0.000000000               0.000000000               0.000368116               0.000970454              -0.000060228               0.000016737               0.000317903               0.000334639               0.000000000               0.000000000               0.000000000               0.000000000               0.000370926               0.001100452              -0.000052933               0.000001541               0.000366300               0.000367841               0.000000000               0.000000000               0.000000000               0.000000000               0.000375644               0.001225727              -0.000046181              -0.000012349               0.000412688               0.000400339               0.000000000               0.000000000               0.000000000               0.000000000               0.000381532               0.001341988              -0.000040547              -0.000024674               0.000455549               0.000430876               0.000000000               0.000000000               0.000000000               0.000000000               0.000391946               0.001457068              -0.000034559              -0.000035154               0.000497402               0.000462249               0.000000000               0.000000000               0.000000000               0.000000000               0.000407215               0.001569118              -0.000026941              -0.000043434               0.000537512               0.000494078               0.000000000               0.000000000               0.000000000               0.000000000               0.000425338               0.001674660              -0.000020638              -0.000049830               0.000574824               0.000524994               0.000000000               0.000000000               0.000000000               0.000000000               0.000444643               0.001774842              -0.000015794              -0.000055114               0.000609979               0.000554865               0.000000000               0.000000000               0.000000000               0.000000000               0.000463960               0.001863565              -0.000010070              -0.000058960               0.000640835               0.000581875               0.000000000               0.000000000               0.000000000               0.000000000               0.000484713               0.001944268              -0.000004737              -0.000061266               0.000668505               0.000607239               0.000000000               0.000000000               0.000000000               0.000000000               0.000494993               0.001983816              -0.000002310              -0.000062355               0.000682050               0.000619696               0.000000000               0.000000000               0.000000000               0.000000000               0.000099648               0.000066533              -0.000000000               0.000029051               0.000012494               0.000041545               0.000000000               0.000000000               0.000000000               0.000000000               0.000216802               0.000170736              -0.000000000               0.000059958               0.000036925               0.000096884               0.000000000               0.000000000               0.000000000               0.000000000               0.000305901               0.000339285               0.000000000               0.000072302               0.000088993               0.000161295               0.000000000               0.000000000               0.000000000               0.000000000               0.000345454               0.000510117               0.000000000               0.000065780               0.000148111               0.000213891               0.000000000               0.000000000               0.000000000               0.000000000               0.000364283               0.000672215              -0.000000000               0.000052579               0.000206543               0.000259122               0.000000000               0.000000000               0.000000000               0.000000000               0.000373896               0.000822927              -0.000000000               0.000037345               0.000261858               0.000299203               0.000000000               0.000000000               0.000000000               0.000000000               0.000374776               0.000956327              -0.000000000               0.000021000               0.000311772               0.000332772               0.000000000               0.000000000               0.000000000               0.000000000               0.000379339               0.001082956              -0.000000000               0.000006883               0.000358688               0.000365570               0.000000000               0.000000000               0.000000000               0.000000000               0.000386300               0.001212291              -0.000000000              -0.000006674               0.000406317               0.000399644               0.000000000               0.000000000               0.000000000               0.000000000               0.000392853               0.001334710              -0.000000000              -0.000019519               0.000451405               0.000431886               0.000000000               0.000000000               0.000000000               0.000000000               0.000400038               0.001447931              -0.000000000              -0.000030977               0.000492964               0.000461987               0.000000000               0.000000000               0.000000000               0.000000000               0.000413265               0.001559524              -0.000000000              -0.000039966               0.000533158               0.000493192               0.000000000               0.000000000               0.000000000               0.000000000               0.000433020               0.001669501              -0.000000000              -0.000046305               0.000571930               0.000525625               0.000000000               0.000000000               0.000000000               0.000000000               0.000454126               0.001770682               0.000000000              -0.000051038               0.000607234               0.000556196               0.000000000               0.000000000               0.000000000               0.000000000               0.000474597               0.001858161              -0.000000000              -0.000054296               0.000637479               0.000583183               0.000000000               0.000000000               0.000000000               0.000000000               0.000497611               0.001941220               0.000000000              -0.000056048               0.000665749               0.000609701               0.000000000               0.000000000               0.000000000               0.000000000               0.000510168               0.001983318              -0.000000000              -0.000056602               0.000679967               0.000623365               0.000000000               0.000000000               0.000000000               0.000000000               0.000000000               0.000000000               0.000000000               0.000000000               0.000000000               0.000000000               0.000000000               0.000000000               0.000000000               0.000000000               0.000000000               0.000000000               0.000000000               0.000000000               0.000000000               0.000000000               0.000000000               0.000000000               0.000000000               0.000000000               0.000000000               0.000000000               0.000000000               0.000000000               0.000000000               0.000000000               0.000000000               0.000000000               0.000000000               0.000000000               0.000000000               0.000000000               0.000000000               0.000000000               0.000000000               0.000000000               0.000000000               0.000000000               0.000000000               0.000000000               0.000000000               0.000000000               0.000000000               0.000000000               0.000000000               0.000000000               0.000000000               0.000000000               0.000000000               0.000000000               0.000000000               0.000000000               0.000000000               0.000000000               0.000000000               0.000000000               0.000000000               0.000000000               0.000000000               0.000000000               0.000000000               0.000000000               0.000000000               0.000000000               0.000000000               0.000000000               0.000000000               0.000000000               0.000000000               0.000000000               0.000000000               0.000000000               0.000000000               0.000000000               0.000000000               0.000000000               0.000000000               0.000000000               0.000000000               0.000000000               0.000000000               0.000000000               0.000000000               0.000000000               0.000000000               0.000000000               0.000000000               0.000000000               0.000000000               0.000000000               0.000000000               0.000000000               0.000000000               0.000000000               0.000000000               0.000000000               0.000000000               0.000000000               0.000000000               0.000000000               0.000000000               0.000000000               0.000000000               0.000000000               0.000000000               0.000000000               0.000000000               0.000000000               0.000000000               0.000000000               0.000000000               0.000000000               0.000000000               0.000000000               0.000000000               0.000000000               0.000000000               0.000000000               0.000000000               0.000000000               0.000000000               0.000000000               0.000000000               0.000000000               0.000000000               0.000000000               0.000000000               0.000000000               0.000000000               0.000000000               0.000000000               0.000000000               0.000000000               0.000000000               0.000000000               0.000000000               0.000000000               0.000000000               0.000000000               0.000000000               0.000000000               0.000000000               0.000000000               0.000000000               0.000000000               0.000000000               0.000000000               0.000000000               0.000000000               0.000000000               0.000000000               0.000000000               0.000000000               0.000000000               0.000000000               0.000000000               0.000000000               0.000000000               0.000000000               0.000000000               0.000000000               0.000000000               0.000000000               0.000000000               0.000000000               0.000000000               0.000000000               0.000000000               0.000000000               0.000000000               0.000165879               0.001766635               0.000140843              -0.000158625               0.000641747               0.000483123               0.000000000               0.000000000               0.000000000               0.000000000               0.000187364               0.001493710               0.000095711              -0.000116452               0.000536716               0.000420264               0.000000000               0.000000000               0.000000000               0.000000000               0.000267388               0.001277519               0.000049263              -0.000059419               0.000445642               0.000386223               0.000000000               0.000000000               0.000000000               0.000000000               0.000298988               0.001156891               0.000029137              -0.000032491               0.000396457               0.000363966               0.000000000               0.000000000               0.000000000               0.000000000               0.000313781               0.001081818               0.000020264              -0.000017560               0.000366456               0.000348896               0.000000000               0.000000000               0.000000000               0.000000000               0.000321484               0.001034545               0.000015882              -0.000008762               0.000347765               0.000339004               0.000000000               0.000000000               0.000000000               0.000000000               0.000320310               0.001008166               0.000012766              -0.000005905               0.000338020               0.000332116               0.000000000               0.000000000               0.000000000               0.000000000               0.000311451               0.000999942               0.000010943              -0.000008198               0.000336044               0.000327845               0.000000000               0.000000000               0.000000000               0.000000000               0.000296991               0.001002708               0.000012900              -0.000013967               0.000338888               0.000324921               0.000000000               0.000000000               0.000000000               0.000000000               0.000278308               0.001009819               0.000018684              -0.000021862               0.000343890               0.000322028               0.000000000               0.000000000               0.000000000               0.000000000               0.000254263               0.001017572               0.000021412              -0.000031848               0.000349803               0.000317956               0.000000000               0.000000000               0.000000000               0.000000000               0.000225165               0.001032460               0.000019471              -0.000044620               0.000359023               0.000314403               0.000000000               0.000000000               0.000000000               0.000000000               0.000189795               0.001052477               0.000019017              -0.000060386               0.000370951               0.000310565               0.000000000               0.000000000               0.000000000               0.000000000               0.000145804               0.001073762               0.000017831              -0.000079544               0.000384432               0.000304888               0.000000000               0.000000000               0.000000000               0.000000000               0.000098395               0.001099101               0.000013798              -0.000100489               0.000399860               0.000299371               0.000000000               0.000000000               0.000000000               0.000000000               0.000050786               0.001128871               0.000008136              -0.000122064               0.000416975               0.000294911               0.000000000               0.000000000               0.000000000               0.000000000               0.000030148               0.001154012               0.000005421              -0.000132946               0.000428982               0.000296036               0.000000000               0.000000000               0.000000000               0.000000000               0.000199754               0.001686300               0.000266990              -0.000135879               0.000607387               0.000471508               0.000000000               0.000000000               0.000000000               0.000000000               0.000203649               0.001436768               0.000181753              -0.000103227               0.000513327               0.000410100               0.000000000               0.000000000               0.000000000               0.000000000               0.000264484               0.001245861               0.000094721              -0.000056551               0.000434133               0.000377582               0.000000000               0.000000000               0.000000000               0.000000000               0.000286836               0.001140370               0.000057133              -0.000034983               0.000391780               0.000356798               0.000000000               0.000000000               0.000000000               0.000000000               0.000296349               0.001078626               0.000040627              -0.000023698               0.000367438               0.000343740               0.000000000               0.000000000               0.000000000               0.000000000               0.000298002               0.001041414               0.000032385              -0.000018426               0.000353277               0.000334851               0.000000000               0.000000000               0.000000000               0.000000000               0.000291436               0.001025709               0.000025893              -0.000018925               0.000348208               0.000329283               0.000000000               0.000000000               0.000000000               0.000000000               0.000278966               0.001024165               0.000022667              -0.000023408               0.000349188               0.000325780               0.000000000               0.000000000               0.000000000               0.000000000               0.000262568               0.001027759               0.000026111              -0.000030007               0.000352585               0.000322579               0.000000000               0.000000000               0.000000000               0.000000000               0.000246408               0.001032944               0.000035210              -0.000036715               0.000356549               0.000319835               0.000000000               0.000000000               0.000000000               0.000000000               0.000227159               0.001039367               0.000037878              -0.000044736               0.000361364               0.000316628               0.000000000               0.000000000               0.000000000               0.000000000               0.000199999               0.001050404               0.000032543              -0.000056301               0.000368898               0.000312597               0.000000000               0.000000000               0.000000000               0.000000000               0.000166868               0.001064132               0.000029942              -0.000070441               0.000378187               0.000307746               0.000000000               0.000000000               0.000000000               0.000000000               0.000127680               0.001079903               0.000025798              -0.000087108               0.000389000               0.000301892               0.000000000               0.000000000               0.000000000               0.000000000               0.000085927               0.001098260               0.000018195              -0.000105060               0.000401103               0.000296043               0.000000000               0.000000000               0.000000000               0.000000000               0.000044438               0.001117408               0.000009882              -0.000123011               0.000413469               0.000290458               0.000000000               0.000000000               0.000000000               0.000000000               0.000026068               0.001132909               0.000006429              -0.000131838               0.000421579               0.000289741               0.000000000               0.000000000               0.000000000               0.000000000               0.000246240               0.001568307               0.000367737              -0.000103698               0.000557330               0.000453631               0.000000000               0.000000000               0.000000000               0.000000000               0.000224555               0.001350487               0.000251712              -0.000084603               0.000478359               0.000393756               0.000000000               0.000000000               0.000000000               0.000000000               0.000258388               0.001199664               0.000133919              -0.000053062               0.000417571               0.000364509               0.000000000               0.000000000               0.000000000               0.000000000               0.000270074               0.001116418               0.000082466              -0.000038274               0.000384894               0.000346619               0.000000000               0.000000000               0.000000000               0.000000000               0.000272785               0.001071702               0.000060630              -0.000031668               0.000367787               0.000336118               0.000000000               0.000000000               0.000000000               0.000000000               0.000266225               0.001050244               0.000048897              -0.000031446               0.000360560               0.000329114               0.000000000               0.000000000               0.000000000               0.000000000               0.000254114               0.001048426               0.000038965              -0.000035760               0.000361392               0.000325632               0.000000000               0.000000000               0.000000000               0.000000000               0.000237697               0.001054441               0.000034706              -0.000042669               0.000365700               0.000323031               0.000000000               0.000000000               0.000000000               0.000000000               0.000221709               0.001061844               0.000039231              -0.000049590               0.000370474               0.000320885               0.000000000               0.000000000               0.000000000               0.000000000               0.000206323               0.001064823               0.000048269              -0.000055732               0.000373515               0.000317783               0.000000000               0.000000000               0.000000000               0.000000000               0.000188035               0.001072326               0.000048174              -0.000063528               0.000378614               0.000315087               0.000000000               0.000000000               0.000000000               0.000000000               0.000165743               0.001083751               0.000039437              -0.000073315               0.000385685               0.000312370               0.000000000               0.000000000               0.000000000               0.000000000               0.000140962               0.001096473               0.000033057              -0.000084198               0.000393554               0.000309355               0.000000000               0.000000000               0.000000000               0.000000000               0.000109115               0.001109833               0.000025077              -0.000097811               0.000402544               0.000304733               0.000000000               0.000000000               0.000000000               0.000000000               0.000072776               0.001123550               0.000015940              -0.000113153               0.000412230               0.000299078               0.000000000               0.000000000               0.000000000               0.000000000               0.000037256               0.001138869               0.000007965              -0.000128387               0.000422415               0.000294028               0.000000000               0.000000000               0.000000000               0.000000000               0.000022904               0.001152764               0.000005620              -0.000135506               0.000429420               0.000293913               0.000000000               0.000000000               0.000000000               0.000000000               0.000291842               0.001416427               0.000441338              -0.000067613               0.000494675               0.000427062               0.000000000               0.000000000               0.000000000               0.000000000               0.000243556               0.001244697               0.000302997              -0.000064254               0.000436313               0.000372059               0.000000000               0.000000000               0.000000000               0.000000000               0.000250280               0.001144423               0.000164311              -0.000049198               0.000397870               0.000348672               0.000000000               0.000000000               0.000000000               0.000000000               0.000250314               0.001089553               0.000106156              -0.000042326               0.000377290               0.000334963               0.000000000               0.000000000               0.000000000               0.000000000               0.000247000               0.001062533               0.000080149              -0.000040192               0.000367571               0.000327380               0.000000000               0.000000000               0.000000000               0.000000000               0.000235971               0.001057961               0.000063879              -0.000043756               0.000367235               0.000323480               0.000000000               0.000000000               0.000000000               0.000000000               0.000217812               0.001070330               0.000051946              -0.000052112               0.000374144               0.000322032               0.000000000               0.000000000               0.000000000               0.000000000               0.000199709               0.001084081               0.000046762              -0.000060619               0.000381563               0.000320944               0.000000000               0.000000000               0.000000000               0.000000000               0.000184510               0.001093870               0.000052119              -0.000067542               0.000387134               0.000319591               0.000000000               0.000000000               0.000000000               0.000000000               0.000170389               0.001102796               0.000059337              -0.000073953               0.000392246               0.000318293               0.000000000               0.000000000               0.000000000               0.000000000               0.000154016               0.001119117               0.000053828              -0.000082133               0.000400413               0.000318280               0.000000000               0.000000000               0.000000000               0.000000000               0.000134994               0.001138570               0.000043273              -0.000091698               0.000410086               0.000318387               0.000000000               0.000000000               0.000000000               0.000000000               0.000114740               0.001158064               0.000036070              -0.000101730               0.000419928               0.000318197               0.000000000               0.000000000               0.000000000               0.000000000               0.000085679               0.001176406               0.000028087              -0.000114921               0.000430438               0.000315517               0.000000000               0.000000000               0.000000000               0.000000000               0.000053643               0.001195057               0.000018850              -0.000129266               0.000441437               0.000312171               0.000000000               0.000000000               0.000000000               0.000000000               0.000026780               0.001218328               0.000010019              -0.000142248               0.000453521               0.000311273               0.000000000               0.000000000               0.000000000               0.000000000               0.000018744               0.001238431               0.000008242              -0.000147774               0.000462064               0.000314290               0.000000000               0.000000000               0.000000000               0.000000000               0.000337286               0.001245202               0.000481347              -0.000029169               0.000424786               0.000395617               0.000000000               0.000000000               0.000000000               0.000000000               0.000260448               0.001131308               0.000334424              -0.000043746               0.000391681               0.000347935               0.000000000               0.000000000               0.000000000               0.000000000               0.000239124               0.001088130               0.000188379              -0.000046345               0.000378155               0.000331810               0.000000000               0.000000000               0.000000000               0.000000000               0.000232147               0.001062168               0.000127643              -0.000045716               0.000369291               0.000323575               0.000000000               0.000000000               0.000000000               0.000000000               0.000224373               0.001054056               0.000097864              -0.000047617               0.000367221               0.000319604               0.000000000               0.000000000               0.000000000               0.000000000               0.000210149               0.001066720               0.000077979              -0.000054534               0.000373748               0.000319214               0.000000000               0.000000000               0.000000000               0.000000000               0.000190800               0.001089051               0.000063954              -0.000064581               0.000384540               0.000319959               0.000000000               0.000000000               0.000000000               0.000000000               0.000173447               0.001108674               0.000059405              -0.000073542               0.000394068               0.000320527               0.000000000               0.000000000               0.000000000               0.000000000               0.000161449               0.001126308               0.000063141              -0.000080245               0.000402181               0.000321936               0.000000000               0.000000000               0.000000000               0.000000000               0.000151632               0.001150191               0.000065532              -0.000086912               0.000412364               0.000325452               0.000000000               0.000000000               0.000000000               0.000000000               0.000135588               0.001183554               0.000056490              -0.000097098               0.000426880               0.000329782               0.000000000               0.000000000               0.000000000               0.000000000               0.000115189               0.001220380               0.000045183              -0.000109351               0.000443240               0.000333888               0.000000000               0.000000000               0.000000000               0.000000000               0.000094128               0.001257003               0.000037878              -0.000121827               0.000459606               0.000337779               0.000000000               0.000000000               0.000000000               0.000000000               0.000067932               0.001293133               0.000029746              -0.000136167               0.000476429               0.000340262               0.000000000               0.000000000               0.000000000               0.000000000               0.000040934               0.001330510               0.000020451              -0.000150963               0.000493820               0.000342857               0.000000000               0.000000000               0.000000000               0.000000000               0.000018103               0.001368274               0.000010846              -0.000164245               0.000510835               0.000346590               0.000000000               0.000000000               0.000000000               0.000000000               0.000013050               0.001395627               0.000009089              -0.000169559               0.000521724               0.000352165               0.000000000               0.000000000               0.000000000               0.000000000               0.000370581               0.001072493               0.000489045               0.000004906               0.000355859               0.000360764               0.000000000               0.000000000               0.000000000               0.000000000               0.000273348               0.001019270               0.000348856              -0.000024904               0.000348054               0.000323151               0.000000000               0.000000000               0.000000000               0.000000000               0.000227569               0.001034060               0.000206375              -0.000043919               0.000359323               0.000315404               0.000000000               0.000000000               0.000000000               0.000000000               0.000216136               0.001036478               0.000145174              -0.000048509               0.000361659               0.000313150               0.000000000               0.000000000               0.000000000               0.000000000               0.000205972               0.001049247               0.000112722              -0.000053916               0.000367718               0.000313801               0.000000000               0.000000000               0.000000000               0.000000000               0.000189839               0.001078839               0.000091021              -0.000063665               0.000380831               0.000317166               0.000000000               0.000000000               0.000000000               0.000000000               0.000172023               0.001109716               0.000076371              -0.000074206               0.000394637               0.000320431               0.000000000               0.000000000               0.000000000               0.000000000               0.000161715               0.001139299               0.000069568              -0.000081769               0.000407019               0.000325250               0.000000000               0.000000000               0.000000000               0.000000000               0.000156474               0.001173302               0.000068899              -0.000087985               0.000420425               0.000332440               0.000000000               0.000000000               0.000000000               0.000000000               0.000149262               0.001220658               0.000065070              -0.000096609               0.000439085               0.000342476               0.000000000               0.000000000               0.000000000               0.000000000               0.000135273               0.001279911               0.000050906              -0.000109261               0.000463053               0.000353792               0.000000000               0.000000000               0.000000000               0.000000000               0.000114838               0.001340473               0.000039651              -0.000124495               0.000488318               0.000363823               0.000000000               0.000000000               0.000000000               0.000000000               0.000090962               0.001397665               0.000034222              -0.000140597               0.000512749               0.000372152               0.000000000               0.000000000               0.000000000               0.000000000               0.000064064               0.001452426               0.000025811              -0.000157529               0.000536647               0.000379118               0.000000000               0.000000000               0.000000000               0.000000000               0.000038545               0.001505699               0.000016930              -0.000173758               0.000559814               0.000386056               0.000000000               0.000000000               0.000000000               0.000000000               0.000016896               0.001554952               0.000009434              -0.000188032               0.000580990               0.000392957               0.000000000               0.000000000               0.000000000               0.000000000               0.000012656               0.001587697               0.000008944              -0.000193716               0.000593799               0.000400083               0.000000000               0.000000000               0.000000000               0.000000000               0.000385967               0.000905647               0.000471074               0.000031531               0.000291369               0.000322900               0.000000000               0.000000000               0.000000000               0.000000000               0.000278500               0.000915194               0.000348378              -0.000009962               0.000308382               0.000298420               0.000000000               0.000000000               0.000000000               0.000000000               0.000217248               0.000984324               0.000217891              -0.000041572               0.000341962               0.000300390               0.000000000               0.000000000               0.000000000               0.000000000               0.000203539               0.001016108               0.000158369              -0.000050686               0.000355595               0.000304908               0.000000000               0.000000000               0.000000000               0.000000000               0.000190726               0.001052243               0.000124204              -0.000060008               0.000370747               0.000310739               0.000000000               0.000000000               0.000000000               0.000000000               0.000174169               0.001098521               0.000101539              -0.000072002               0.000390170               0.000318169               0.000000000               0.000000000               0.000000000               0.000000000               0.000162130               0.001144341               0.000085223              -0.000082244               0.000408858               0.000326614               0.000000000               0.000000000               0.000000000               0.000000000               0.000160804               0.001194434               0.000074110              -0.000089002               0.000427808               0.000338806               0.000000000               0.000000000               0.000000000               0.000000000               0.000163370               0.001256822               0.000065714              -0.000095839               0.000450883               0.000355044               0.000000000               0.000000000               0.000000000               0.000000000               0.000160308               0.001334489               0.000055311              -0.000106695               0.000480390               0.000373695               0.000000000               0.000000000               0.000000000               0.000000000               0.000145861               0.001414784               0.000040622              -0.000122150               0.000512307               0.000390157               0.000000000               0.000000000               0.000000000               0.000000000               0.000121210               0.001488398               0.000031353              -0.000140596               0.000542993               0.000402397               0.000000000               0.000000000               0.000000000               0.000000000               0.000095005               0.001557434               0.000027365              -0.000159052               0.000572157               0.000413105               0.000000000               0.000000000               0.000000000               0.000000000               0.000070256               0.001624349               0.000019908              -0.000176697               0.000600343               0.000423646               0.000000000               0.000000000               0.000000000               0.000000000               0.000046094               0.001685849               0.000011888              -0.000193445               0.000626426               0.000432980               0.000000000               0.000000000               0.000000000               0.000000000               0.000022896               0.001741689               0.000006281              -0.000209125               0.000650265               0.000441141               0.000000000               0.000000000               0.000000000               0.000000000               0.000015213               0.001777562               0.000006915              -0.000216490               0.000664678               0.000448188               0.000000000               0.000000000               0.000000000               0.000000000               0.000394713               0.000756966               0.000433049               0.000053395               0.000234521               0.000287916               0.000000000               0.000000000               0.000000000               0.000000000               0.000282126               0.000821367               0.000338859               0.000003126               0.000272744               0.000275870               0.000000000               0.000000000               0.000000000               0.000000000               0.000213000               0.000941076               0.000230196              -0.000037760               0.000326275               0.000288516               0.000000000               0.000000000               0.000000000               0.000000000               0.000198285               0.001000691               0.000170432              -0.000050730               0.000350470               0.000299741               0.000000000               0.000000000               0.000000000               0.000000000               0.000183208               0.001058283               0.000135562              -0.000063582               0.000373952               0.000310369               0.000000000               0.000000000               0.000000000               0.000000000               0.000168004               0.001121041               0.000111933              -0.000077128               0.000399386               0.000322258               0.000000000               0.000000000               0.000000000               0.000000000               0.000162466               0.001186039               0.000091278              -0.000087330               0.000424452               0.000337123               0.000000000               0.000000000               0.000000000               0.000000000               0.000170711               0.001261451               0.000073456              -0.000093665               0.000451701               0.000358036               0.000000000               0.000000000               0.000000000               0.000000000               0.000182098               0.001349098               0.000058963              -0.000100350               0.000483145               0.000382795               0.000000000               0.000000000               0.000000000               0.000000000               0.000179069               0.001441137               0.000046945              -0.000112991               0.000518038               0.000405047               0.000000000               0.000000000               0.000000000               0.000000000               0.000162883               0.001532142               0.000036085              -0.000130436               0.000554188               0.000423751               0.000000000               0.000000000               0.000000000               0.000000000               0.000140494               0.001612591               0.000028044              -0.000148888               0.000587154               0.000438266               0.000000000               0.000000000               0.000000000               0.000000000               0.000115507               0.001686212               0.000022041              -0.000167461               0.000617885               0.000450424               0.000000000               0.000000000               0.000000000               0.000000000               0.000091225               0.001757350               0.000013955              -0.000185459               0.000647597               0.000462138               0.000000000               0.000000000               0.000000000               0.000000000               0.000068922               0.001825074               0.000005627              -0.000202288               0.000675781               0.000473493               0.000000000               0.000000000               0.000000000               0.000000000               0.000049587               0.001888906              -0.000000032              -0.000217518               0.000702135               0.000484617               0.000000000               0.000000000               0.000000000               0.000000000               0.000039821               0.001922906              -0.000001154              -0.000225430               0.000716105               0.000490676               0.000000000               0.000000000               0.000000000               0.000000000               0.000390389               0.000612598               0.000385698               0.000069820               0.000180924               0.000250744               0.000000000               0.000000000               0.000000000               0.000000000               0.000287313               0.000709093               0.000326118               0.000019105               0.000229993               0.000249099               0.000000000               0.000000000               0.000000000               0.000000000               0.000215597               0.000866760               0.000247003              -0.000027496               0.000298083               0.000270586               0.000000000               0.000000000               0.000000000               0.000000000               0.000200272               0.000953518               0.000188953              -0.000044088               0.000332532               0.000288444               0.000000000               0.000000000               0.000000000               0.000000000               0.000189729               0.001028693               0.000153896              -0.000057438               0.000362040               0.000304602               0.000000000               0.000000000               0.000000000               0.000000000               0.000177171               0.001106253               0.000128938              -0.000071843               0.000392695               0.000320852               0.000000000               0.000000000               0.000000000               0.000000000               0.000173714               0.001190454               0.000106090              -0.000083664               0.000424702               0.000341038               0.000000000               0.000000000               0.000000000               0.000000000               0.000185233               0.001282930               0.000087736              -0.000090904               0.000457940               0.000367036               0.000000000               0.000000000               0.000000000               0.000000000               0.000203514               0.001378052               0.000071026              -0.000095939               0.000491325               0.000395387               0.000000000               0.000000000               0.000000000               0.000000000               0.000211437               0.001473223               0.000055413              -0.000104864               0.000526024               0.000421160               0.000000000               0.000000000               0.000000000               0.000000000               0.000203824               0.001568161               0.000044043              -0.000119586               0.000562577               0.000442991               0.000000000               0.000000000               0.000000000               0.000000000               0.000187521               0.001656080               0.000035523              -0.000136689               0.000597584               0.000460895               0.000000000               0.000000000               0.000000000               0.000000000               0.000164822               0.001730745               0.000026896              -0.000154535               0.000628421               0.000473886               0.000000000               0.000000000               0.000000000               0.000000000               0.000137666               0.001797665               0.000017019              -0.000173083               0.000656910               0.000483827               0.000000000               0.000000000               0.000000000               0.000000000               0.000113786               0.001869844               0.000006664              -0.000191060               0.000686962               0.000495902               0.000000000               0.000000000               0.000000000               0.000000000               0.000096126               0.001943550               0.000000128              -0.000206896               0.000716809               0.000509913               0.000000000               0.000000000               0.000000000               0.000000000               0.000082510               0.001975223              -0.000003376              -0.000215961               0.000730388               0.000514427               0.000000000               0.000000000               0.000000000               0.000000000               0.000366474               0.000473824               0.000331410               0.000078199               0.000131873               0.000210072               0.000000000               0.000000000               0.000000000               0.000000000               0.000290854               0.000595058               0.000305816               0.000034687               0.000186788               0.000221475               0.000000000               0.000000000               0.000000000               0.000000000               0.000226319               0.000777876               0.000257371              -0.000012365               0.000263411               0.000251046               0.000000000               0.000000000               0.000000000               0.000000000               0.000211933               0.000891019               0.000207256              -0.000031903               0.000307638               0.000275735               0.000000000               0.000000000               0.000000000               0.000000000               0.000205491               0.000983743               0.000172563              -0.000045909               0.000343214               0.000297305               0.000000000               0.000000000               0.000000000               0.000000000               0.000197846               0.001073390               0.000147465              -0.000059981               0.000377787               0.000317806               0.000000000               0.000000000               0.000000000               0.000000000               0.000197619               0.001170978               0.000125950              -0.000072265               0.000414410               0.000342145               0.000000000               0.000000000               0.000000000               0.000000000               0.000210429               0.001275994               0.000108000              -0.000080588               0.000452190               0.000371602               0.000000000               0.000000000               0.000000000               0.000000000               0.000229208               0.001379813               0.000087715              -0.000086523               0.000488774               0.000402251               0.000000000               0.000000000               0.000000000               0.000000000               0.000244986               0.001478460               0.000068020              -0.000092938               0.000523794               0.000430857               0.000000000               0.000000000               0.000000000               0.000000000               0.000248896               0.001572492               0.000054671              -0.000103225               0.000558567               0.000455342               0.000000000               0.000000000               0.000000000               0.000000000               0.000240570               0.001661039               0.000043938              -0.000117416               0.000592813               0.000475397               0.000000000               0.000000000               0.000000000               0.000000000               0.000222594               0.001735776               0.000031087              -0.000133499               0.000623086               0.000489587               0.000000000               0.000000000               0.000000000               0.000000000               0.000198365               0.001801022               0.000018836              -0.000150741               0.000650582               0.000499841               0.000000000               0.000000000               0.000000000               0.000000000               0.000174290               0.001867005               0.000010001              -0.000168017               0.000678334               0.000510318               0.000000000               0.000000000               0.000000000               0.000000000               0.000155318               0.001940095               0.000003454              -0.000184267               0.000708114               0.000523847               0.000000000               0.000000000               0.000000000               0.000000000               0.000137747               0.001972540              -0.000003205              -0.000194912               0.000722477               0.000527565               0.000000000               0.000000000               0.000000000               0.000000000               0.000327770               0.000345787               0.000266851               0.000079690               0.000088698               0.000168387               0.000000000               0.000000000               0.000000000               0.000000000               0.000286639               0.000482072               0.000271715               0.000047230               0.000144946               0.000192176               0.000000000               0.000000000               0.000000000               0.000000000               0.000241984               0.000679573               0.000253494               0.000005797               0.000224590               0.000230387               0.000000000               0.000000000               0.000000000               0.000000000               0.000232114               0.000815277               0.000215502              -0.000014867               0.000276712               0.000261845               0.000000000               0.000000000               0.000000000               0.000000000               0.000229832               0.000924129               0.000184446              -0.000029329               0.000317816               0.000288487               0.000000000               0.000000000               0.000000000               0.000000000               0.000228207               0.001028050               0.000161547              -0.000042929               0.000356990               0.000314061               0.000000000               0.000000000               0.000000000               0.000000000               0.000231790               0.001141594               0.000142862              -0.000055778               0.000399120               0.000343342               0.000000000               0.000000000               0.000000000               0.000000000               0.000239350               0.001259609               0.000124762              -0.000067695               0.000442430               0.000374736               0.000000000               0.000000000               0.000000000               0.000000000               0.000254538               0.001373699               0.000103892              -0.000076260               0.000483315               0.000407055               0.000000000               0.000000000               0.000000000               0.000000000               0.000273401               0.001477451               0.000082544              -0.000082156               0.000519864               0.000437708               0.000000000               0.000000000               0.000000000               0.000000000               0.000283849               0.001567199               0.000064209              -0.000089456               0.000552213               0.000462757               0.000000000               0.000000000               0.000000000               0.000000000               0.000282299               0.001648609               0.000049305              -0.000100214               0.000582935               0.000482722               0.000000000               0.000000000               0.000000000               0.000000000               0.000273972               0.001728083               0.000034715              -0.000113271               0.000613779               0.000500508               0.000000000               0.000000000               0.000000000               0.000000000               0.000262209               0.001802501               0.000023170              -0.000126984               0.000643156               0.000516172               0.000000000               0.000000000               0.000000000               0.000000000               0.000246084               0.001871021               0.000015769              -0.000141596               0.000670866               0.000529270               0.000000000               0.000000000               0.000000000               0.000000000               0.000227060               0.001943922               0.000008199              -0.000157842               0.000700582               0.000542739               0.000000000               0.000000000               0.000000000               0.000000000               0.000206720               0.001974889              -0.000000282              -0.000169341               0.000714737               0.000545396               0.000000000               0.000000000               0.000000000               0.000000000               0.000273226               0.000240011               0.000198267               0.000072458               0.000055850               0.000128308               0.000000000               0.000000000               0.000000000               0.000000000               0.000275088               0.000378607               0.000225533               0.000055831               0.000107591               0.000163422               0.000000000               0.000000000               0.000000000               0.000000000               0.000261950               0.000579788               0.000232823               0.000025757               0.000184675               0.000210432               0.000000000               0.000000000               0.000000000               0.000000000               0.000258214               0.000729499               0.000208701               0.000005643               0.000241283               0.000246926               0.000000000               0.000000000               0.000000000               0.000000000               0.000260978               0.000854611               0.000184498              -0.000008960               0.000287854               0.000278894               0.000000000               0.000000000               0.000000000               0.000000000               0.000264313               0.000977386               0.000165160              -0.000023056               0.000333477               0.000310422               0.000000000               0.000000000               0.000000000               0.000000000               0.000269075               0.001106002               0.000147981              -0.000037347               0.000381112               0.000343766               0.000000000               0.000000000               0.000000000               0.000000000               0.000274339               0.001232233               0.000131571              -0.000051152               0.000427791               0.000376639               0.000000000               0.000000000               0.000000000               0.000000000               0.000285888               0.001353090               0.000113638              -0.000061928               0.000471668               0.000409740               0.000000000               0.000000000               0.000000000               0.000000000               0.000299669               0.001455660               0.000092018              -0.000069581               0.000508409               0.000438828               0.000000000               0.000000000               0.000000000               0.000000000               0.000309889               0.001539777               0.000070347              -0.000076264               0.000538675               0.000462412               0.000000000               0.000000000               0.000000000               0.000000000               0.000316706               0.001624369               0.000052637              -0.000084281               0.000569545               0.000485263               0.000000000               0.000000000               0.000000000               0.000000000               0.000321783               0.001715813               0.000039411              -0.000093808               0.000603201               0.000509393               0.000000000               0.000000000               0.000000000               0.000000000               0.000324975               0.001803869               0.000029636              -0.000103618               0.000635823               0.000532205               0.000000000               0.000000000               0.000000000               0.000000000               0.000321921               0.001884769               0.000020433              -0.000114875               0.000666542               0.000551666               0.000000000               0.000000000               0.000000000               0.000000000               0.000310107               0.001957392               0.000010478              -0.000128384               0.000695252               0.000566868               0.000000000               0.000000000               0.000000000               0.000000000               0.000293692               0.001984427               0.000002549              -0.000137919               0.000707442               0.000569524               0.000000000               0.000000000               0.000000000               0.000000000               0.000208736               0.000158300               0.000135531               0.000058488               0.000033270               0.000091758               0.000000000               0.000000000               0.000000000               0.000000000               0.000257485               0.000291116               0.000173284               0.000060167               0.000076982               0.000137149               0.000000000               0.000000000               0.000000000               0.000000000               0.000280719               0.000486265               0.000194360               0.000044486               0.000147258               0.000191744               0.000000000               0.000000000               0.000000000               0.000000000               0.000287712               0.000645390               0.000182531               0.000027218               0.000206055               0.000233273               0.000000000               0.000000000               0.000000000               0.000000000               0.000294908               0.000786113               0.000167301               0.000012326               0.000257926               0.000270252               0.000000000               0.000000000               0.000000000               0.000000000               0.000302121               0.000925415               0.000151832              -0.000002382               0.000309262               0.000306881               0.000000000               0.000000000               0.000000000               0.000000000               0.000307702               0.001060927               0.000137076              -0.000017228               0.000359381               0.000342154               0.000000000               0.000000000               0.000000000               0.000000000               0.000314565               0.001188710               0.000123952              -0.000030627               0.000406442               0.000375815               0.000000000               0.000000000               0.000000000               0.000000000               0.000320788               0.001310844               0.000108343              -0.000043560               0.000451464               0.000407904               0.000000000               0.000000000               0.000000000               0.000000000               0.000326806               0.001414011               0.000088463              -0.000054199               0.000489399               0.000435200               0.000000000               0.000000000               0.000000000               0.000000000               0.000336225               0.001504890               0.000068420              -0.000062027               0.000522301               0.000460274               0.000000000               0.000000000               0.000000000               0.000000000               0.000351158               0.001603316               0.000052335              -0.000068730               0.000557343               0.000488613               0.000000000               0.000000000               0.000000000               0.000000000               0.000367128               0.001705416               0.000042305              -0.000075504               0.000593634               0.000518130               0.000000000               0.000000000               0.000000000               0.000000000               0.000380133               0.001801013               0.000033847              -0.000082576               0.000627857               0.000545281               0.000000000               0.000000000               0.000000000               0.000000000               0.000387494               0.001887230               0.000021772              -0.000090593               0.000659268               0.000568675               0.000000000               0.000000000               0.000000000               0.000000000               0.000387074               0.001958673               0.000009806              -0.000099681               0.000686111               0.000586430               0.000000000               0.000000000               0.000000000               0.000000000               0.000379649               0.001986448               0.000003437              -0.000105938               0.000697455               0.000591518               0.000000000               0.000000000               0.000000000               0.000000000               0.000152039               0.000103746               0.000081803               0.000044046               0.000019899               0.000063945               0.000000000               0.000000000               0.000000000               0.000000000               0.000238679               0.000225727               0.000116870               0.000061288               0.000054812               0.000116100               0.000000000               0.000000000               0.000000000               0.000000000               0.000294475               0.000408672               0.000139922               0.000059343               0.000116442               0.000175785               0.000000000               0.000000000               0.000000000               0.000000000               0.000316931               0.000574283               0.000136600               0.000047063               0.000175738               0.000222801               0.000000000               0.000000000               0.000000000               0.000000000               0.000328829               0.000728719               0.000128272               0.000032221               0.000232164               0.000264384               0.000000000               0.000000000               0.000000000               0.000000000               0.000336976               0.000874043               0.000118167               0.000017111               0.000285641               0.000302752               0.000000000               0.000000000               0.000000000               0.000000000               0.000344585               0.001009331               0.000108183               0.000003053               0.000335423               0.000338476               0.000000000               0.000000000               0.000000000               0.000000000               0.000348664               0.001140272               0.000097098              -0.000011785               0.000384015               0.000372230               0.000000000               0.000000000               0.000000000               0.000000000               0.000351724               0.001263130               0.000084379              -0.000025995               0.000429704               0.000403709               0.000000000               0.000000000               0.000000000               0.000000000               0.000355131               0.001369835               0.000070821              -0.000038055               0.000469292               0.000431237               0.000000000               0.000000000               0.000000000               0.000000000               0.000366496               0.001476007               0.000057638              -0.000047065               0.000507686               0.000460621               0.000000000               0.000000000               0.000000000               0.000000000               0.000385445               0.001587149               0.000045700              -0.000053851               0.000546995               0.000493143               0.000000000               0.000000000               0.000000000               0.000000000               0.000404344               0.001691990               0.000036765              -0.000059870               0.000583948               0.000524078               0.000000000               0.000000000               0.000000000               0.000000000               0.000420220               0.001787932               0.000028557              -0.000065909               0.000617941               0.000552032               0.000000000               0.000000000               0.000000000               0.000000000               0.000434141               0.001874377               0.000017585              -0.000071494               0.000648617               0.000577123               0.000000000               0.000000000               0.000000000               0.000000000               0.000446692               0.001950531               0.000007652              -0.000076307               0.000675606               0.000599299               0.000000000               0.000000000               0.000000000               0.000000000               0.000449844               0.001984912               0.000003175              -0.000079422               0.000688105               0.000608683               0.000000000               0.000000000               0.000000000               0.000000000               0.000113729               0.000075709               0.000038129               0.000033184               0.000014175               0.000047359               0.000000000               0.000000000               0.000000000               0.000000000               0.000223201               0.000185424               0.000058418               0.000060522               0.000041633               0.000102155               0.000000000               0.000000000               0.000000000               0.000000000               0.000302992               0.000357081               0.000072933               0.000068986               0.000096030               0.000165016               0.000000000               0.000000000               0.000000000               0.000000000               0.000338124               0.000526350               0.000073482               0.000061002               0.000155114               0.000216116               0.000000000               0.000000000               0.000000000               0.000000000               0.000354740               0.000687925               0.000069686               0.000047036               0.000213627               0.000260664               0.000000000               0.000000000               0.000000000               0.000000000               0.000363560               0.000836093               0.000065424               0.000031823               0.000268087               0.000299910               0.000000000               0.000000000               0.000000000               0.000000000               0.000368116               0.000970454               0.000060228               0.000016737               0.000317903               0.000334639               0.000000000               0.000000000               0.000000000               0.000000000               0.000370926               0.001100452               0.000052933               0.000001541               0.000366300               0.000367841               0.000000000               0.000000000               0.000000000               0.000000000               0.000375644               0.001225727               0.000046181              -0.000012349               0.000412688               0.000400339               0.000000000               0.000000000               0.000000000               0.000000000               0.000381532               0.001341988               0.000040547              -0.000024674               0.000455549               0.000430876               0.000000000               0.000000000               0.000000000               0.000000000               0.000391946               0.001457068               0.000034559              -0.000035154               0.000497402               0.000462249               0.000000000               0.000000000               0.000000000               0.000000000               0.000407215               0.001569118               0.000026941              -0.000043434               0.000537512               0.000494078               0.000000000               0.000000000               0.000000000               0.000000000               0.000425338               0.001674660               0.000020638              -0.000049830               0.000574824               0.000524994               0.000000000               0.000000000               0.000000000               0.000000000               0.000444643               0.001774842               0.000015794              -0.000055114               0.000609979               0.000554865               0.000000000               0.000000000               0.000000000               0.000000000               0.000463960               0.001863565               0.000010070              -0.000058960               0.000640835               0.000581875               0.000000000               0.000000000               0.000000000               0.000000000               0.000484713               0.001944268               0.000004737              -0.000061266               0.000668505               0.000607239               0.000000000               0.000000000               0.000000000               0.000000000               0.000494993               0.001983816               0.000002310              -0.000062355               0.000682050               0.000619696               0.000000000               0.000000000               0.000000000               0.000000000               0.000099648               0.000066533              -0.000000000               0.000029051               0.000012494               0.000041545               0.000000000               0.000000000               0.000000000               0.000000000               0.000216802               0.000170736              -0.000000000               0.000059958               0.000036925               0.000096884               0.000000000               0.000000000               0.000000000               0.000000000               0.000305901               0.000339285               0.000000000               0.000072302               0.000088993               0.000161295               0.000000000               0.000000000               0.000000000               0.000000000               0.000345454               0.000510117               0.000000000               0.000065780               0.000148111               0.000213891               0.000000000               0.000000000               0.000000000               0.000000000               0.000364283               0.000672215              -0.000000000               0.000052579               0.000206543               0.000259122               0.000000000               0.000000000               0.000000000               0.000000000               0.000373896               0.000822927              -0.000000000               0.000037345               0.000261858               0.000299203               0.000000000               0.000000000               0.000000000               0.000000000               0.000374776               0.000956327               0.000000000               0.000021000               0.000311772               0.000332772               0.000000000               0.000000000               0.000000000               0.000000000               0.000379339               0.001082956               0.000000000               0.000006883               0.000358688               0.000365570               0.000000000               0.000000000               0.000000000               0.000000000               0.000386300               0.001212291              -0.000000000              -0.000006674               0.000406317               0.000399644               0.000000000               0.000000000               0.000000000               0.000000000               0.000392853               0.001334710               0.000000000              -0.000019519               0.000451405               0.000431886               0.000000000               0.000000000               0.000000000               0.000000000               0.000400038               0.001447931               0.000000000              -0.000030977               0.000492964               0.000461987               0.000000000               0.000000000               0.000000000               0.000000000               0.000413265               0.001559524               0.000000000              -0.000039966               0.000533158               0.000493192               0.000000000               0.000000000               0.000000000               0.000000000               0.000433020               0.001669501               0.000000000              -0.000046305               0.000571930               0.000525625               0.000000000               0.000000000               0.000000000               0.000000000               0.000454126               0.001770682              -0.000000000              -0.000051038               0.000607234               0.000556196               0.000000000               0.000000000               0.000000000               0.000000000               0.000474597               0.001858161               0.000000000              -0.000054296               0.000637479               0.000583183               0.000000000               0.000000000               0.000000000               0.000000000               0.000497611               0.001941220               0.000000000              -0.000056048               0.000665749               0.000609701               0.000000000               0.000000000               0.000000000               0.000000000               0.000510168               0.001983318              -0.000000000              -0.000056602               0.000679967               0.000623365               0.000000000               0.000000000               0.000000000               0.000000000               0.000156208               0.001797090               0.000000000              -0.000166058               0.000654376               0.000488319               0.000000000               0.000000000               0.000000000               0.000000000               0.000182564               0.001514214              -0.000000000              -0.000120815               0.000545005               0.000424190               0.000000000               0.000000000               0.000000000               0.000000000               0.000267690               0.001289858              -0.000000000              -0.000060848               0.000450231               0.000389383               0.000000000               0.000000000               0.000000000               0.000000000               0.000303459               0.001162410              -0.000000000              -0.000031504               0.000397968               0.000366463               0.000000000               0.000000000               0.000000000               0.000000000               0.000320660               0.001082482              -0.000000000              -0.000015063               0.000365845               0.000350782               0.000000000               0.000000000               0.000000000               0.000000000               0.000329069               0.001032210              -0.000000000              -0.000005625               0.000345942               0.000340316               0.000000000               0.000000000               0.000000000               0.000000000               0.000331596               0.001001547               0.000000000              -0.000000845               0.000334127               0.000333283               0.000000000               0.000000000               0.000000000               0.000000000               0.000324806               0.000990831               0.000000000              -0.000002051               0.000330957               0.000328906               0.000000000               0.000000000               0.000000000               0.000000000               0.000308740               0.000993170               0.000000000              -0.000008369               0.000333843               0.000325474               0.000000000               0.000000000               0.000000000               0.000000000               0.000288677               0.001001199               0.000000000              -0.000016896               0.000339362               0.000322466               0.000000000               0.000000000               0.000000000               0.000000000               0.000265803               0.001010739               0.000000000              -0.000026666               0.000345798               0.000319132               0.000000000               0.000000000               0.000000000               0.000000000               0.000236831               0.001027066               0.000000000              -0.000039572               0.000355542               0.000315971               0.000000000               0.000000000               0.000000000               0.000000000               0.000196692               0.001049039              -0.000000000              -0.000057370               0.000368799               0.000311429               0.000000000               0.000000000               0.000000000               0.000000000               0.000148820               0.001073179               0.000000000              -0.000078340               0.000383836               0.000305496               0.000000000               0.000000000               0.000000000               0.000000000               0.000100496               0.001103180               0.000000000              -0.000100211               0.000401127               0.000300915               0.000000000               0.000000000               0.000000000               0.000000000               0.000051172               0.001139569               0.000000000              -0.000123256               0.000420938               0.000297682               0.000000000               0.000000000               0.000000000               0.000000000               0.000030159               0.001170878               0.000000000              -0.000135050               0.000435306               0.000300256               0.000000000               0.000000000               0.000000000               0.000000000               0.000165879               0.001766635              -0.000140843              -0.000158625               0.000641747               0.000483123               0.000000000               0.000000000               0.000000000               0.000000000               0.000187364               0.001493710              -0.000095711              -0.000116452               0.000536716               0.000420264               0.000000000               0.000000000               0.000000000               0.000000000               0.000267388               0.001277519              -0.000049263              -0.000059419               0.000445642               0.000386223               0.000000000               0.000000000               0.000000000               0.000000000               0.000298988               0.001156891              -0.000029137              -0.000032491               0.000396457               0.000363966               0.000000000               0.000000000               0.000000000               0.000000000               0.000313781               0.001081818              -0.000020264              -0.000017560               0.000366456               0.000348896               0.000000000               0.000000000               0.000000000               0.000000000               0.000321484               0.001034545              -0.000015882              -0.000008762               0.000347765               0.000339004               0.000000000               0.000000000               0.000000000               0.000000000               0.000320310               0.001008166              -0.000012766              -0.000005905               0.000338020               0.000332116               0.000000000               0.000000000               0.000000000               0.000000000               0.000311451               0.000999942              -0.000010943              -0.000008198               0.000336044               0.000327845               0.000000000               0.000000000               0.000000000               0.000000000               0.000296991               0.001002708              -0.000012900              -0.000013967               0.000338888               0.000324921               0.000000000               0.000000000               0.000000000               0.000000000               0.000278308               0.001009819              -0.000018684              -0.000021862               0.000343890               0.000322028               0.000000000               0.000000000               0.000000000               0.000000000               0.000254263               0.001017572              -0.000021412              -0.000031848               0.000349803               0.000317956               0.000000000               0.000000000               0.000000000               0.000000000               0.000225165               0.001032460              -0.000019471              -0.000044620               0.000359023               0.000314403               0.000000000               0.000000000               0.000000000               0.000000000               0.000189795               0.001052477              -0.000019017              -0.000060386               0.000370951               0.000310565               0.000000000               0.000000000               0.000000000               0.000000000               0.000145804               0.001073762              -0.000017831              -0.000079544               0.000384432               0.000304888               0.000000000               0.000000000               0.000000000               0.000000000               0.000098395               0.001099101              -0.000013798              -0.000100489               0.000399860               0.000299371               0.000000000               0.000000000               0.000000000               0.000000000               0.000050786               0.001128871              -0.000008136              -0.000122064               0.000416975               0.000294911               0.000000000               0.000000000               0.000000000               0.000000000               0.000030148               0.001154012              -0.000005421              -0.000132946               0.000428982               0.000296036               0.000000000               0.000000000               0.000000000               0.000000000               0.000199754               0.001686300              -0.000266990              -0.000135879               0.000607387               0.000471508               0.000000000               0.000000000               0.000000000               0.000000000               0.000203649               0.001436768              -0.000181753              -0.000103227               0.000513327               0.000410100               0.000000000               0.000000000               0.000000000               0.000000000               0.000264484               0.001245861              -0.000094721              -0.000056551               0.000434133               0.000377582               0.000000000               0.000000000               0.000000000               0.000000000               0.000286836               0.001140370              -0.000057133              -0.000034983               0.000391780               0.000356798               0.000000000               0.000000000               0.000000000               0.000000000               0.000296349               0.001078626              -0.000040627              -0.000023698               0.000367438               0.000343740               0.000000000               0.000000000               0.000000000               0.000000000               0.000298002               0.001041414              -0.000032385              -0.000018426               0.000353277               0.000334851               0.000000000               0.000000000               0.000000000               0.000000000               0.000291436               0.001025709              -0.000025893              -0.000018925               0.000348208               0.000329283               0.000000000               0.000000000               0.000000000               0.000000000               0.000278966               0.001024165              -0.000022667              -0.000023408               0.000349188               0.000325780               0.000000000               0.000000000               0.000000000               0.000000000               0.000262568               0.001027759              -0.000026111              -0.000030007               0.000352585               0.000322579               0.000000000               0.000000000               0.000000000               0.000000000               0.000246408               0.001032944              -0.000035210              -0.000036715               0.000356549               0.000319835               0.000000000               0.000000000               0.000000000               0.000000000               0.000227159               0.001039367              -0.000037878              -0.000044736               0.000361364               0.000316628               0.000000000               0.000000000               0.000000000               0.000000000               0.000199999               0.001050404              -0.000032543              -0.000056301               0.000368898               0.000312597               0.000000000               0.000000000               0.000000000               0.000000000               0.000166868               0.001064132              -0.000029942              -0.000070441               0.000378187               0.000307746               0.000000000               0.000000000               0.000000000               0.000000000               0.000127680               0.001079903              -0.000025798              -0.000087108               0.000389000               0.000301892               0.000000000               0.000000000               0.000000000               0.000000000               0.000085927               0.001098260              -0.000018195              -0.000105060               0.000401103               0.000296043               0.000000000               0.000000000               0.000000000               0.000000000               0.000044438               0.001117408              -0.000009882              -0.000123011               0.000413469               0.000290458               0.000000000               0.000000000               0.000000000               0.000000000               0.000026068               0.001132909              -0.000006429              -0.000131838               0.000421579               0.000289741               0.000000000               0.000000000               0.000000000               0.000000000               0.000246240               0.001568307              -0.000367737              -0.000103698               0.000557330               0.000453631               0.000000000               0.000000000               0.000000000               0.000000000               0.000224555               0.001350487              -0.000251712              -0.000084603               0.000478359               0.000393756               0.000000000               0.000000000               0.000000000               0.000000000               0.000258388               0.001199664              -0.000133919              -0.000053062               0.000417571               0.000364509               0.000000000               0.000000000               0.000000000               0.000000000               0.000270074               0.001116418              -0.000082466              -0.000038274               0.000384894               0.000346619               0.000000000               0.000000000               0.000000000               0.000000000               0.000272785               0.001071702              -0.000060630              -0.000031668               0.000367787               0.000336118               0.000000000               0.000000000               0.000000000               0.000000000               0.000266225               0.001050244              -0.000048897              -0.000031446               0.000360560               0.000329114               0.000000000               0.000000000               0.000000000               0.000000000               0.000254114               0.001048426              -0.000038965              -0.000035760               0.000361392               0.000325632               0.000000000               0.000000000               0.000000000               0.000000000               0.000237697               0.001054441              -0.000034706              -0.000042669               0.000365700               0.000323031               0.000000000               0.000000000               0.000000000               0.000000000               0.000221709               0.001061844              -0.000039231              -0.000049590               0.000370474               0.000320885               0.000000000               0.000000000               0.000000000               0.000000000               0.000206323               0.001064823              -0.000048269              -0.000055732               0.000373515               0.000317783               0.000000000               0.000000000               0.000000000               0.000000000               0.000188035               0.001072326              -0.000048174              -0.000063528               0.000378614               0.000315087               0.000000000               0.000000000               0.000000000               0.000000000               0.000165743               0.001083751              -0.000039437              -0.000073315               0.000385685               0.000312370               0.000000000               0.000000000               0.000000000               0.000000000               0.000140962               0.001096473              -0.000033057              -0.000084198               0.000393554               0.000309355               0.000000000               0.000000000               0.000000000               0.000000000               0.000109115               0.001109833              -0.000025077              -0.000097811               0.000402544               0.000304733               0.000000000               0.000000000               0.000000000               0.000000000               0.000072776               0.001123550              -0.000015940              -0.000113153               0.000412230               0.000299078               0.000000000               0.000000000               0.000000000               0.000000000               0.000037256               0.001138869              -0.000007965              -0.000128387               0.000422415               0.000294028               0.000000000               0.000000000               0.000000000               0.000000000               0.000022904               0.001152764              -0.000005620              -0.000135506               0.000429420               0.000293913               0.000000000               0.000000000               0.000000000               0.000000000               0.000291842               0.001416427              -0.000441338              -0.000067613               0.000494675               0.000427062               0.000000000               0.000000000               0.000000000               0.000000000               0.000243556               0.001244697              -0.000302997              -0.000064254               0.000436313               0.000372059               0.000000000               0.000000000               0.000000000               0.000000000               0.000250280               0.001144423              -0.000164311              -0.000049198               0.000397870               0.000348672               0.000000000               0.000000000               0.000000000               0.000000000               0.000250314               0.001089553              -0.000106156              -0.000042326               0.000377290               0.000334963               0.000000000               0.000000000               0.000000000               0.000000000               0.000247000               0.001062533              -0.000080149              -0.000040192               0.000367571               0.000327380               0.000000000               0.000000000               0.000000000               0.000000000               0.000235971               0.001057961              -0.000063879              -0.000043756               0.000367235               0.000323480               0.000000000               0.000000000               0.000000000               0.000000000               0.000217812               0.001070330              -0.000051946              -0.000052112               0.000374144               0.000322032               0.000000000               0.000000000               0.000000000               0.000000000               0.000199709               0.001084081              -0.000046762              -0.000060619               0.000381563               0.000320944               0.000000000               0.000000000               0.000000000               0.000000000               0.000184510               0.001093870              -0.000052119              -0.000067542               0.000387134               0.000319591               0.000000000               0.000000000               0.000000000               0.000000000               0.000170389               0.001102796              -0.000059337              -0.000073953               0.000392246               0.000318293               0.000000000               0.000000000               0.000000000               0.000000000               0.000154016               0.001119117              -0.000053828              -0.000082133               0.000400413               0.000318280               0.000000000               0.000000000               0.000000000               0.000000000               0.000134994               0.001138570              -0.000043273              -0.000091698               0.000410086               0.000318387               0.000000000               0.000000000               0.000000000               0.000000000               0.000114740               0.001158064              -0.000036070              -0.000101730               0.000419928               0.000318197               0.000000000               0.000000000               0.000000000               0.000000000               0.000085679               0.001176406              -0.000028087              -0.000114921               0.000430438               0.000315517               0.000000000               0.000000000               0.000000000               0.000000000               0.000053643               0.001195057              -0.000018850              -0.000129266               0.000441437               0.000312171               0.000000000               0.000000000               0.000000000               0.000000000               0.000026780               0.001218328              -0.000010019              -0.000142248               0.000453521               0.000311273               0.000000000               0.000000000               0.000000000               0.000000000               0.000018744               0.001238431              -0.000008242              -0.000147774               0.000462064               0.000314290               0.000000000               0.000000000               0.000000000               0.000000000               0.000337286               0.001245202              -0.000481347              -0.000029169               0.000424786               0.000395617               0.000000000               0.000000000               0.000000000               0.000000000               0.000260448               0.001131308              -0.000334424              -0.000043746               0.000391681               0.000347935               0.000000000               0.000000000               0.000000000               0.000000000               0.000239124               0.001088130              -0.000188379              -0.000046345               0.000378155               0.000331810               0.000000000               0.000000000               0.000000000               0.000000000               0.000232147               0.001062168              -0.000127643              -0.000045716               0.000369291               0.000323575               0.000000000               0.000000000               0.000000000               0.000000000               0.000224373               0.001054056              -0.000097864              -0.000047617               0.000367221               0.000319604               0.000000000               0.000000000               0.000000000               0.000000000               0.000210149               0.001066720              -0.000077979              -0.000054534               0.000373748               0.000319214               0.000000000               0.000000000               0.000000000               0.000000000               0.000190800               0.001089051              -0.000063954              -0.000064581               0.000384540               0.000319959               0.000000000               0.000000000               0.000000000               0.000000000               0.000173447               0.001108674              -0.000059405              -0.000073542               0.000394068               0.000320527               0.000000000               0.000000000               0.000000000               0.000000000               0.000161449               0.001126308              -0.000063141              -0.000080245               0.000402181               0.000321936               0.000000000               0.000000000               0.000000000               0.000000000               0.000151632               0.001150191              -0.000065532              -0.000086912               0.000412364               0.000325452               0.000000000               0.000000000               0.000000000               0.000000000               0.000135588               0.001183554              -0.000056490              -0.000097098               0.000426880               0.000329782               0.000000000               0.000000000               0.000000000               0.000000000               0.000115189               0.001220380              -0.000045183              -0.000109351               0.000443240               0.000333888               0.000000000               0.000000000               0.000000000               0.000000000               0.000094128               0.001257003              -0.000037878              -0.000121827               0.000459606               0.000337779               0.000000000               0.000000000               0.000000000               0.000000000               0.000067932               0.001293133              -0.000029746              -0.000136167               0.000476429               0.000340262               0.000000000               0.000000000               0.000000000               0.000000000               0.000040934               0.001330510              -0.000020451              -0.000150963               0.000493820               0.000342857               0.000000000               0.000000000               0.000000000               0.000000000               0.000018103               0.001368274              -0.000010846              -0.000164245               0.000510835               0.000346590               0.000000000               0.000000000               0.000000000               0.000000000               0.000013050               0.001395627              -0.000009089              -0.000169559               0.000521724               0.000352165               0.000000000               0.000000000               0.000000000               0.000000000               0.000370581               0.001072493              -0.000489045               0.000004906               0.000355859               0.000360764               0.000000000               0.000000000               0.000000000               0.000000000               0.000273348               0.001019270              -0.000348856              -0.000024904               0.000348054               0.000323151               0.000000000               0.000000000               0.000000000               0.000000000               0.000227569               0.001034060              -0.000206375              -0.000043919               0.000359323               0.000315404               0.000000000               0.000000000               0.000000000               0.000000000               0.000216136               0.001036478              -0.000145174              -0.000048509               0.000361659               0.000313150               0.000000000               0.000000000               0.000000000               0.000000000               0.000205972               0.001049247              -0.000112722              -0.000053916               0.000367718               0.000313801               0.000000000               0.000000000               0.000000000               0.000000000               0.000189839               0.001078839              -0.000091021              -0.000063665               0.000380831               0.000317166               0.000000000               0.000000000               0.000000000               0.000000000               0.000172023               0.001109716              -0.000076371              -0.000074206               0.000394637               0.000320431               0.000000000               0.000000000               0.000000000               0.000000000               0.000161715               0.001139299              -0.000069568              -0.000081769               0.000407019               0.000325250               0.000000000               0.000000000               0.000000000               0.000000000               0.000156474               0.001173302              -0.000068899              -0.000087985               0.000420425               0.000332440               0.000000000               0.000000000               0.000000000               0.000000000               0.000149262               0.001220658              -0.000065070              -0.000096609               0.000439085               0.000342476               0.000000000               0.000000000               0.000000000               0.000000000               0.000135273               0.001279911              -0.000050906              -0.000109261               0.000463053               0.000353792               0.000000000               0.000000000               0.000000000               0.000000000               0.000114838               0.001340473              -0.000039651              -0.000124495               0.000488318               0.000363823               0.000000000               0.000000000               0.000000000               0.000000000               0.000090962               0.001397665              -0.000034222              -0.000140597               0.000512749               0.000372152               0.000000000               0.000000000               0.000000000               0.000000000               0.000064064               0.001452426              -0.000025811              -0.000157529               0.000536647               0.000379118               0.000000000               0.000000000               0.000000000               0.000000000               0.000038545               0.001505699              -0.000016930              -0.000173758               0.000559814               0.000386056               0.000000000               0.000000000               0.000000000               0.000000000               0.000016896               0.001554952              -0.000009434              -0.000188032               0.000580990               0.000392957               0.000000000               0.000000000               0.000000000               0.000000000               0.000012656               0.001587697              -0.000008944              -0.000193716               0.000593799               0.000400083               0.000000000               0.000000000               0.000000000               0.000000000               0.000385967               0.000905647              -0.000471074               0.000031531               0.000291369               0.000322900               0.000000000               0.000000000               0.000000000               0.000000000               0.000278500               0.000915194              -0.000348378              -0.000009962               0.000308382               0.000298420               0.000000000               0.000000000               0.000000000               0.000000000               0.000217248               0.000984324              -0.000217891              -0.000041572               0.000341962               0.000300390               0.000000000               0.000000000               0.000000000               0.000000000               0.000203539               0.001016108              -0.000158369              -0.000050686               0.000355595               0.000304908               0.000000000               0.000000000               0.000000000               0.000000000               0.000190726               0.001052243              -0.000124204              -0.000060008               0.000370747               0.000310739               0.000000000               0.000000000               0.000000000               0.000000000               0.000174169               0.001098521              -0.000101539              -0.000072002               0.000390170               0.000318169               0.000000000               0.000000000               0.000000000               0.000000000               0.000162130               0.001144341              -0.000085223              -0.000082244               0.000408858               0.000326614               0.000000000               0.000000000               0.000000000               0.000000000               0.000160804               0.001194434              -0.000074110              -0.000089002               0.000427808               0.000338806               0.000000000               0.000000000               0.000000000               0.000000000               0.000163370               0.001256822              -0.000065714              -0.000095839               0.000450883               0.000355044               0.000000000               0.000000000               0.000000000               0.000000000               0.000160308               0.001334489              -0.000055311              -0.000106695               0.000480390               0.000373695               0.000000000               0.000000000               0.000000000               0.000000000               0.000145861               0.001414784              -0.000040622              -0.000122150               0.000512307               0.000390157               0.000000000               0.000000000               0.000000000               0.000000000               0.000121210               0.001488398              -0.000031353              -0.000140596               0.000542993               0.000402397               0.000000000               0.000000000               0.000000000               0.000000000               0.000095005               0.001557434              -0.000027365              -0.000159052               0.000572157               0.000413105               0.000000000               0.000000000               0.000000000               0.000000000               0.000070256               0.001624349              -0.000019908              -0.000176697               0.000600343               0.000423646               0.000000000               0.000000000               0.000000000               0.000000000               0.000046094               0.001685849              -0.000011888              -0.000193445               0.000626426               0.000432980               0.000000000               0.000000000               0.000000000               0.000000000               0.000022896               0.001741689              -0.000006281              -0.000209125               0.000650265               0.000441141               0.000000000               0.000000000               0.000000000               0.000000000               0.000015213               0.001777562              -0.000006915              -0.000216490               0.000664678               0.000448188               0.000000000               0.000000000               0.000000000               0.000000000               0.000394713               0.000756966              -0.000433049               0.000053395               0.000234521               0.000287916               0.000000000               0.000000000               0.000000000               0.000000000               0.000282126               0.000821367              -0.000338859               0.000003126               0.000272744               0.000275870               0.000000000               0.000000000               0.000000000               0.000000000               0.000213000               0.000941076              -0.000230196              -0.000037760               0.000326275               0.000288516               0.000000000               0.000000000               0.000000000               0.000000000               0.000198285               0.001000691              -0.000170432              -0.000050730               0.000350470               0.000299741               0.000000000               0.000000000               0.000000000               0.000000000               0.000183208               0.001058283              -0.000135562              -0.000063582               0.000373952               0.000310369               0.000000000               0.000000000               0.000000000               0.000000000               0.000168004               0.001121041              -0.000111933              -0.000077128               0.000399386               0.000322258               0.000000000               0.000000000               0.000000000               0.000000000               0.000162466               0.001186039              -0.000091278              -0.000087330               0.000424452               0.000337123               0.000000000               0.000000000               0.000000000               0.000000000               0.000170711               0.001261451              -0.000073456              -0.000093665               0.000451701               0.000358036               0.000000000               0.000000000               0.000000000               0.000000000               0.000182098               0.001349098              -0.000058963              -0.000100350               0.000483145               0.000382795               0.000000000               0.000000000               0.000000000               0.000000000               0.000179069               0.001441137              -0.000046945              -0.000112991               0.000518038               0.000405047               0.000000000               0.000000000               0.000000000               0.000000000               0.000162883               0.001532142              -0.000036085              -0.000130436               0.000554188               0.000423751               0.000000000               0.000000000               0.000000000               0.000000000               0.000140494               0.001612591              -0.000028044              -0.000148888               0.000587154               0.000438266               0.000000000               0.000000000               0.000000000               0.000000000               0.000115507               0.001686212              -0.000022041              -0.000167461               0.000617885               0.000450424               0.000000000               0.000000000               0.000000000               0.000000000               0.000091225               0.001757350              -0.000013955              -0.000185459               0.000647597               0.000462138               0.000000000               0.000000000               0.000000000               0.000000000               0.000068922               0.001825074              -0.000005627              -0.000202288               0.000675781               0.000473493               0.000000000               0.000000000               0.000000000               0.000000000               0.000049587               0.001888906               0.000000032              -0.000217518               0.000702135               0.000484617               0.000000000               0.000000000               0.000000000               0.000000000               0.000039821               0.001922906               0.000001154              -0.000225430               0.000716105               0.000490676               0.000000000               0.000000000               0.000000000               0.000000000               0.000390389               0.000612598              -0.000385698               0.000069820               0.000180924               0.000250744               0.000000000               0.000000000               0.000000000               0.000000000               0.000287313               0.000709093              -0.000326118               0.000019105               0.000229993               0.000249099               0.000000000               0.000000000               0.000000000               0.000000000               0.000215597               0.000866760              -0.000247003              -0.000027496               0.000298083               0.000270586               0.000000000               0.000000000               0.000000000               0.000000000               0.000200272               0.000953518              -0.000188953              -0.000044088               0.000332532               0.000288444               0.000000000               0.000000000               0.000000000               0.000000000               0.000189729               0.001028693              -0.000153896              -0.000057438               0.000362040               0.000304602               0.000000000               0.000000000               0.000000000               0.000000000               0.000177171               0.001106253              -0.000128938              -0.000071843               0.000392695               0.000320852               0.000000000               0.000000000               0.000000000               0.000000000               0.000173714               0.001190454              -0.000106090              -0.000083664               0.000424702               0.000341038               0.000000000               0.000000000               0.000000000               0.000000000               0.000185233               0.001282930              -0.000087736              -0.000090904               0.000457940               0.000367036               0.000000000               0.000000000               0.000000000               0.000000000               0.000203514               0.001378052              -0.000071026              -0.000095939               0.000491325               0.000395387               0.000000000               0.000000000               0.000000000               0.000000000               0.000211437               0.001473223              -0.000055413              -0.000104864               0.000526024               0.000421160               0.000000000               0.000000000               0.000000000               0.000000000               0.000203824               0.001568161              -0.000044043              -0.000119586               0.000562577               0.000442991               0.000000000               0.000000000               0.000000000               0.000000000               0.000187521               0.001656080              -0.000035523              -0.000136689               0.000597584               0.000460895               0.000000000               0.000000000               0.000000000               0.000000000               0.000164822               0.001730745              -0.000026896              -0.000154535               0.000628421               0.000473886               0.000000000               0.000000000               0.000000000               0.000000000               0.000137666               0.001797665              -0.000017019              -0.000173083               0.000656910               0.000483827               0.000000000               0.000000000               0.000000000               0.000000000               0.000113786               0.001869844              -0.000006664              -0.000191060               0.000686962               0.000495902               0.000000000               0.000000000               0.000000000               0.000000000               0.000096126               0.001943550              -0.000000128              -0.000206896               0.000716809               0.000509913               0.000000000               0.000000000               0.000000000               0.000000000               0.000082510               0.001975223               0.000003376              -0.000215961               0.000730388               0.000514427               0.000000000               0.000000000               0.000000000               0.000000000               0.000366474               0.000473824              -0.000331410               0.000078199               0.000131873               0.000210072               0.000000000               0.000000000               0.000000000               0.000000000               0.000290854               0.000595058              -0.000305816               0.000034687               0.000186788               0.000221475               0.000000000               0.000000000               0.000000000               0.000000000               0.000226319               0.000777876              -0.000257371              -0.000012365               0.000263411               0.000251046               0.000000000               0.000000000               0.000000000               0.000000000               0.000211933               0.000891019              -0.000207256              -0.000031903               0.000307638               0.000275735               0.000000000               0.000000000               0.000000000               0.000000000               0.000205491               0.000983743              -0.000172563              -0.000045909               0.000343214               0.000297305               0.000000000               0.000000000               0.000000000               0.000000000               0.000197846               0.001073390              -0.000147465              -0.000059981               0.000377787               0.000317806               0.000000000               0.000000000               0.000000000               0.000000000               0.000197619               0.001170978              -0.000125950              -0.000072265               0.000414410               0.000342145               0.000000000               0.000000000               0.000000000               0.000000000               0.000210429               0.001275994              -0.000108000              -0.000080588               0.000452190               0.000371602               0.000000000               0.000000000               0.000000000               0.000000000               0.000229208               0.001379813              -0.000087715              -0.000086523               0.000488774               0.000402251               0.000000000               0.000000000               0.000000000               0.000000000               0.000244986               0.001478460              -0.000068020              -0.000092938               0.000523794               0.000430857               0.000000000               0.000000000               0.000000000               0.000000000               0.000248896               0.001572492              -0.000054671              -0.000103225               0.000558567               0.000455342               0.000000000               0.000000000               0.000000000               0.000000000               0.000240570               0.001661039              -0.000043938              -0.000117416               0.000592813               0.000475397               0.000000000               0.000000000               0.000000000               0.000000000               0.000222594               0.001735776              -0.000031087              -0.000133499               0.000623086               0.000489587               0.000000000               0.000000000               0.000000000               0.000000000               0.000198365               0.001801022              -0.000018836              -0.000150741               0.000650582               0.000499841               0.000000000               0.000000000               0.000000000               0.000000000               0.000174290               0.001867005              -0.000010001              -0.000168017               0.000678334               0.000510318               0.000000000               0.000000000               0.000000000               0.000000000               0.000155318               0.001940095              -0.000003454              -0.000184267               0.000708114               0.000523847               0.000000000               0.000000000               0.000000000               0.000000000               0.000137747               0.001972540               0.000003205              -0.000194912               0.000722477               0.000527565               0.000000000               0.000000000               0.000000000               0.000000000               0.000327770               0.000345787              -0.000266851               0.000079690               0.000088698               0.000168387               0.000000000               0.000000000               0.000000000               0.000000000               0.000286639               0.000482072              -0.000271715               0.000047230               0.000144946               0.000192176               0.000000000               0.000000000               0.000000000               0.000000000               0.000241984               0.000679573              -0.000253494               0.000005797               0.000224590               0.000230387               0.000000000               0.000000000               0.000000000               0.000000000               0.000232114               0.000815277              -0.000215502              -0.000014867               0.000276712               0.000261845               0.000000000               0.000000000               0.000000000               0.000000000               0.000229832               0.000924129              -0.000184446              -0.000029329               0.000317816               0.000288487               0.000000000               0.000000000               0.000000000               0.000000000               0.000228207               0.001028050              -0.000161547              -0.000042929               0.000356990               0.000314061               0.000000000               0.000000000               0.000000000               0.000000000               0.000231790               0.001141594              -0.000142862              -0.000055778               0.000399120               0.000343342               0.000000000               0.000000000               0.000000000               0.000000000               0.000239350               0.001259609              -0.000124762              -0.000067695               0.000442430               0.000374736               0.000000000               0.000000000               0.000000000               0.000000000               0.000254538               0.001373699              -0.000103892              -0.000076260               0.000483315               0.000407055               0.000000000               0.000000000               0.000000000               0.000000000               0.000273401               0.001477451              -0.000082544              -0.000082156               0.000519864               0.000437708               0.000000000               0.000000000               0.000000000               0.000000000               0.000283849               0.001567199              -0.000064209              -0.000089456               0.000552213               0.000462757               0.000000000               0.000000000               0.000000000               0.000000000               0.000282299               0.001648609              -0.000049305              -0.000100214               0.000582935               0.000482722               0.000000000               0.000000000               0.000000000               0.000000000               0.000273972               0.001728083              -0.000034715              -0.000113271               0.000613779               0.000500508               0.000000000               0.000000000               0.000000000               0.000000000               0.000262209               0.001802501              -0.000023170              -0.000126984               0.000643156               0.000516172               0.000000000               0.000000000               0.000000000               0.000000000               0.000246084               0.001871021              -0.000015769              -0.000141596               0.000670866               0.000529270               0.000000000               0.000000000               0.000000000               0.000000000               0.000227060               0.001943922              -0.000008199              -0.000157842               0.000700582               0.000542739               0.000000000               0.000000000               0.000000000               0.000000000               0.000206720               0.001974889               0.000000282              -0.000169341               0.000714737               0.000545396               0.000000000               0.000000000               0.000000000               0.000000000               0.000273226               0.000240011              -0.000198267               0.000072458               0.000055850               0.000128308               0.000000000               0.000000000               0.000000000               0.000000000               0.000275088               0.000378607              -0.000225533               0.000055831               0.000107591               0.000163422               0.000000000               0.000000000               0.000000000               0.000000000               0.000261950               0.000579788              -0.000232823               0.000025757               0.000184675               0.000210432               0.000000000               0.000000000               0.000000000               0.000000000               0.000258214               0.000729499              -0.000208701               0.000005643               0.000241283               0.000246926               0.000000000               0.000000000               0.000000000               0.000000000               0.000260978               0.000854611              -0.000184498              -0.000008960               0.000287854               0.000278894               0.000000000               0.000000000               0.000000000               0.000000000               0.000264313               0.000977386              -0.000165160              -0.000023056               0.000333477               0.000310422               0.000000000               0.000000000               0.000000000               0.000000000               0.000269075               0.001106002              -0.000147981              -0.000037347               0.000381112               0.000343766               0.000000000               0.000000000               0.000000000               0.000000000               0.000274339               0.001232233              -0.000131571              -0.000051152               0.000427791               0.000376639               0.000000000               0.000000000               0.000000000               0.000000000               0.000285888               0.001353090              -0.000113638              -0.000061928               0.000471668               0.000409740               0.000000000               0.000000000               0.000000000               0.000000000               0.000299669               0.001455660              -0.000092018              -0.000069581               0.000508409               0.000438828               0.000000000               0.000000000               0.000000000               0.000000000               0.000309889               0.001539777              -0.000070347              -0.000076264               0.000538675               0.000462412               0.000000000               0.000000000               0.000000000               0.000000000               0.000316706               0.001624369              -0.000052637              -0.000084281               0.000569545               0.000485263               0.000000000               0.000000000               0.000000000               0.000000000               0.000321783               0.001715813              -0.000039411              -0.000093808               0.000603201               0.000509393               0.000000000               0.000000000               0.000000000               0.000000000               0.000324975               0.001803869              -0.000029636              -0.000103618               0.000635823               0.000532205               0.000000000               0.000000000               0.000000000               0.000000000               0.000321921               0.001884769              -0.000020433              -0.000114875               0.000666542               0.000551666               0.000000000               0.000000000               0.000000000               0.000000000               0.000310107               0.001957392              -0.000010478              -0.000128384               0.000695252               0.000566868               0.000000000               0.000000000               0.000000000               0.000000000               0.000293692               0.001984427              -0.000002549              -0.000137919               0.000707442               0.000569524               0.000000000               0.000000000               0.000000000               0.000000000               0.000208736               0.000158300              -0.000135531               0.000058488               0.000033270               0.000091758               0.000000000               0.000000000               0.000000000               0.000000000               0.000257485               0.000291116              -0.000173284               0.000060167               0.000076982               0.000137149               0.000000000               0.000000000               0.000000000               0.000000000               0.000280719               0.000486265              -0.000194360               0.000044486               0.000147258               0.000191744               0.000000000               0.000000000               0.000000000               0.000000000               0.000287712               0.000645390              -0.000182531               0.000027218               0.000206055               0.000233273               0.000000000               0.000000000               0.000000000               0.000000000               0.000294908               0.000786113              -0.000167301               0.000012326               0.000257926               0.000270252               0.000000000               0.000000000               0.000000000               0.000000000               0.000302121               0.000925415              -0.000151832              -0.000002382               0.000309262               0.000306881               0.000000000               0.000000000               0.000000000               0.000000000               0.000307702               0.001060927              -0.000137076              -0.000017228               0.000359381               0.000342154               0.000000000               0.000000000               0.000000000               0.000000000               0.000314565               0.001188710              -0.000123952              -0.000030627               0.000406442               0.000375815               0.000000000               0.000000000               0.000000000               0.000000000               0.000320788               0.001310844              -0.000108343              -0.000043560               0.000451464               0.000407904               0.000000000               0.000000000               0.000000000               0.000000000               0.000326806               0.001414011              -0.000088463              -0.000054199               0.000489399               0.000435200               0.000000000               0.000000000               0.000000000               0.000000000               0.000336225               0.001504890              -0.000068420              -0.000062027               0.000522301               0.000460274               0.000000000               0.000000000               0.000000000               0.000000000               0.000351158               0.001603316              -0.000052335              -0.000068730               0.000557343               0.000488613               0.000000000               0.000000000               0.000000000               0.000000000               0.000367128               0.001705416              -0.000042305              -0.000075504               0.000593634               0.000518130               0.000000000               0.000000000               0.000000000               0.000000000               0.000380133               0.001801013              -0.000033847              -0.000082576               0.000627857               0.000545281               0.000000000               0.000000000               0.000000000               0.000000000               0.000387494               0.001887230              -0.000021772              -0.000090593               0.000659268               0.000568675               0.000000000               0.000000000               0.000000000               0.000000000               0.000387074               0.001958673              -0.000009806              -0.000099681               0.000686111               0.000586430               0.000000000               0.000000000               0.000000000               0.000000000               0.000379649               0.001986448              -0.000003437              -0.000105938               0.000697455               0.000591518               0.000000000               0.000000000               0.000000000               0.000000000               0.000152039               0.000103746              -0.000081803               0.000044046               0.000019899               0.000063945               0.000000000               0.000000000               0.000000000               0.000000000               0.000238679               0.000225727              -0.000116870               0.000061288               0.000054812               0.000116100               0.000000000               0.000000000               0.000000000               0.000000000               0.000294475               0.000408672              -0.000139922               0.000059343               0.000116442               0.000175785               0.000000000               0.000000000               0.000000000               0.000000000               0.000316931               0.000574283              -0.000136600               0.000047063               0.000175738               0.000222801               0.000000000               0.000000000               0.000000000               0.000000000               0.000328829               0.000728719              -0.000128272               0.000032221               0.000232164               0.000264384               0.000000000               0.000000000               0.000000000               0.000000000               0.000336976               0.000874043              -0.000118167               0.000017111               0.000285641               0.000302752               0.000000000               0.000000000               0.000000000               0.000000000               0.000344585               0.001009331              -0.000108183               0.000003053               0.000335423               0.000338476               0.000000000               0.000000000               0.000000000               0.000000000               0.000348664               0.001140272              -0.000097098              -0.000011785               0.000384015               0.000372230               0.000000000               0.000000000               0.000000000               0.000000000               0.000351724               0.001263130              -0.000084379              -0.000025995               0.000429704               0.000403709               0.000000000               0.000000000               0.000000000               0.000000000               0.000355131               0.001369835              -0.000070821              -0.000038055               0.000469292               0.000431237               0.000000000               0.000000000               0.000000000               0.000000000               0.000366496               0.001476007              -0.000057638              -0.000047065               0.000507686               0.000460621               0.000000000               0.000000000               0.000000000               0.000000000               0.000385445               0.001587149              -0.000045700              -0.000053851               0.000546995               0.000493143               0.000000000               0.000000000               0.000000000               0.000000000               0.000404344               0.001691990              -0.000036765              -0.000059870               0.000583948               0.000524078               0.000000000               0.000000000               0.000000000               0.000000000               0.000420220               0.001787932              -0.000028557              -0.000065909               0.000617941               0.000552032               0.000000000               0.000000000               0.000000000               0.000000000               0.000434141               0.001874377              -0.000017585              -0.000071494               0.000648617               0.000577123               0.000000000               0.000000000               0.000000000               0.000000000               0.000446692               0.001950531              -0.000007652              -0.000076307               0.000675606               0.000599299               0.000000000               0.000000000               0.000000000               0.000000000               0.000449844               0.001984912              -0.000003175              -0.000079422               0.000688105               0.000608683               0.000000000               0.000000000               0.000000000               0.000000000               0.000113729               0.000075709              -0.000038129               0.000033184               0.000014175               0.000047359               0.000000000               0.000000000               0.000000000               0.000000000               0.000223201               0.000185424              -0.000058418               0.000060522               0.000041633               0.000102155               0.000000000               0.000000000               0.000000000               0.000000000               0.000302992               0.000357081              -0.000072933               0.000068986               0.000096030               0.000165016               0.000000000               0.000000000               0.000000000               0.000000000               0.000338124               0.000526350              -0.000073482               0.000061002               0.000155114               0.000216116               0.000000000               0.000000000               0.000000000               0.000000000               0.000354740               0.000687925              -0.000069686               0.000047036               0.000213627               0.000260664               0.000000000               0.000000000               0.000000000               0.000000000               0.000363560               0.000836093              -0.000065424               0.000031823               0.000268087               0.000299910               0.000000000               0.000000000               0.000000000               0.000000000               0.000368116               0.000970454              -0.000060228               0.000016737               0.000317903               0.000334639               0.000000000               0.000000000               0.000000000               0.000000000               0.000370926               0.001100452              -0.000052933               0.000001541               0.000366300               0.000367841               0.000000000               0.000000000               0.000000000               0.000000000               0.000375644               0.001225727              -0.000046181              -0.000012349               0.000412688               0.000400339               0.000000000               0.000000000               0.000000000               0.000000000               0.000381532               0.001341988              -0.000040547              -0.000024674               0.000455549               0.000430876               0.000000000               0.000000000               0.000000000               0.000000000               0.000391946               0.001457068              -0.000034559              -0.000035154               0.000497402               0.000462249               0.000000000               0.000000000               0.000000000               0.000000000               0.000407215               0.001569118              -0.000026941              -0.000043434               0.000537512               0.000494078               0.000000000               0.000000000               0.000000000               0.000000000               0.000425338               0.001674660              -0.000020638              -0.000049830               0.000574824               0.000524994               0.000000000               0.000000000               0.000000000               0.000000000               0.000444643               0.001774842              -0.000015794              -0.000055114               0.000609979               0.000554865               0.000000000               0.000000000               0.000000000               0.000000000               0.000463960               0.001863565              -0.000010070              -0.000058960               0.000640835               0.000581875               0.000000000               0.000000000               0.000000000               0.000000000               0.000484713               0.001944268              -0.000004737              -0.000061266               0.000668505               0.000607239               0.000000000               0.000000000               0.000000000               0.000000000               0.000494993               0.001983816              -0.000002310              -0.000062355               0.000682050               0.000619696               0.000000000               0.000000000               0.000000000               0.000000000               0.000000000               0.000000000               0.000000000               0.000000000               0.000000000               0.000000000               0.000000000               0.000000000               0.000000000               0.000000000               0.000000000               0.000000000               0.000000000               0.000000000               0.000000000               0.000000000               0.000000000               0.000000000               0.000000000               0.000000000               0.000000000               0.000000000               0.000000000               0.000000000               0.000000000               0.000000000               0.000000000               0.000000000               0.000000000               0.000000000               0.000000000               0.000000000               0.000000000               0.000000000               0.000000000               0.000000000               0.000000000               0.000000000               0.000000000               0.000000000               0.000000000               0.000000000               0.000000000               0.000000000               0.000000000               0.000000000               0.000000000               0.000000000               0.000000000               0.000000000               0.000000000               0.000000000               0.000000000               0.000000000               0.000000000               0.000000000               0.000000000               0.000000000               0.000000000               0.000000000               0.000000000               0.000000000               0.000000000               0.000000000               0.000000000               0.000000000               0.000000000               0.000000000               0.000000000               0.000000000               0.000000000               0.000000000               0.000000000               0.000000000               0.000000000               0.000000000               0.000000000               0.000000000               0.000000000               0.000000000               0.000000000               0.000000000               0.000000000               0.000000000               0.000000000               0.000000000               0.000000000               0.000000000               0.000000000               0.000000000               0.000000000               0.000000000               0.000000000               0.000000000               0.000000000               0.000000000               0.000000000               0.000000000               0.000000000               0.000000000               0.000000000               0.000000000               0.000000000               0.000000000               0.000000000               0.000000000               0.000000000               0.000000000               0.000000000               0.000000000               0.000000000               0.000000000               0.000000000               0.000000000               0.000000000               0.000000000               0.000000000               0.000000000               0.000000000               0.000000000               0.000000000               0.000000000               0.000000000               0.000000000               0.000000000               0.000000000               0.000000000               0.000000000               0.000000000               0.000000000               0.000000000               0.000000000               0.000000000               0.000000000               0.000000000               0.000000000               0.000000000               0.000000000               0.000000000               0.000000000               0.000000000               0.000000000               0.000000000               0.000000000               0.000000000               0.000000000               0.000000000               0.000000000               0.000000000               0.000000000               0.000000000               0.000000000               0.000000000               0.000000000               0.000000000               0.000000000               0.000000000               0.000000000               0.000000000               0.000000000               0.000000000               0.000000000               0.000000000               0.000000000               0.000000000               0.000000000               0.000000000               0.000000000               0.000000000               0.000000000               0.000000000               0.000000000               0.000000000               0.000000000               0.000000000               0.000000000               0.000000000               0.000000000               0.000000000               0.000000000               0.000000000               0.000000000               0.000000000               0.000000000               0.000000000               0.000000000               0.000000000               0.000000000               0.000000000               0.000000000               0.000000000               0.000000000               0.000000000               0.000000000               0.000000000               0.000000000               0.000000000               0.000000000               0.000000000               0.000000000               0.000000000               0.000000000               0.000000000               0.000000000               0.000000000               0.000000000               0.000000000               0.000000000               0.000000000               0.000000000               0.000000000               0.000000000               0.000000000               0.000000000               0.000000000               0.000000000               0.000000000               0.000000000               0.000000000               0.000000000               0.000000000               0.000000000               0.000000000               0.000000000               0.000000000               0.000000000               0.000000000               0.000000000               0.000000000               0.000000000               0.000000000               0.000000000               0.000000000               0.000000000               0.000000000               0.000000000               0.000000000               0.000000000               0.000000000               0.000000000               0.000000000               0.000000000               0.000000000               0.000000000               0.000000000               0.000000000               0.000000000               0.000000000               0.000000000               0.000000000               0.000000000               0.000000000               0.000000000               0.000000000               0.000000000               0.000000000               0.000000000               0.000000000               0.000000000               0.000000000               0.000000000               0.000000000               0.000000000               0.000000000               0.000000000               0.000000000               0.000000000               0.000000000               0.000000000               0.000000000               0.000000000               0.000000000               0.000000000               0.000000000               0.000000000               0.000000000               0.000000000               0.000000000               0.000000000               0.000000000               0.000000000               0.000000000               0.000000000               0.000000000               0.000000000               0.000000000               0.000000000               0.000000000               0.000000000               0.000000000               0.000000000               0.000000000               0.000000000               0.000000000               0.000000000               0.000000000               0.000000000               0.000000000               0.000000000               0.000000000               0.000000000               0.000000000               0.000000000               0.000000000               0.000000000               0.000000000               0.000000000               0.000000000               0.000000000               0.000000000               0.000000000               0.000000000               0.000000000               0.000000000               0.000000000               0.000000000               0.000000000               0.000000000               0.000000000               0.000000000               0.000000000               0.000000000               0.000000000               0.000000000               0.000000000               0.000000000               0.000000000               0.000000000               0.000000000               0.000000000               0.000000000               0.000000000               0.000000000               0.000000000               0.000000000               0.000000000               0.000000000               0.000000000               0.000000000               0.000000000               0.000165879               0.001766635               0.000140843              -0.000158625               0.000641747               0.000483123               0.000000000               0.000000000               0.000000000               0.000000000               0.000187364               0.001493710               0.000095711              -0.000116452               0.000536716               0.000420264               0.000000000               0.000000000               0.000000000               0.000000000               0.000267388               0.001277519               0.000049263              -0.000059419               0.000445642               0.000386223               0.000000000               0.000000000               0.000000000               0.000000000               0.000298988               0.001156891               0.000029137              -0.000032491               0.000396457               0.000363966               0.000000000               0.000000000               0.000000000               0.000000000               0.000313781               0.001081818               0.000020264              -0.000017560               0.000366456               0.000348896               0.000000000               0.000000000               0.000000000               0.000000000               0.000321484               0.001034545               0.000015882              -0.000008762               0.000347765               0.000339004               0.000000000               0.000000000               0.000000000               0.000000000               0.000320310               0.001008166               0.000012766              -0.000005905               0.000338020               0.000332116               0.000000000               0.000000000               0.000000000               0.000000000               0.000311451               0.000999942               0.000010943              -0.000008198               0.000336044               0.000327845               0.000000000               0.000000000               0.000000000               0.000000000               0.000296991               0.001002708               0.000012900              -0.000013967               0.000338888               0.000324921               0.000000000               0.000000000               0.000000000               0.000000000               0.000278308               0.001009819               0.000018684              -0.000021862               0.000343890               0.000322028               0.000000000               0.000000000               0.000000000               0.000000000               0.000254263               0.001017572               0.000021412              -0.000031848               0.000349803               0.000317956               0.000000000               0.000000000               0.000000000               0.000000000               0.000225165               0.001032460               0.000019471              -0.000044620               0.000359023               0.000314403               0.000000000               0.000000000               0.000000000               0.000000000               0.000189795               0.001052477               0.000019017              -0.000060386               0.000370951               0.000310565               0.000000000               0.000000000               0.000000000               0.000000000               0.000145804               0.001073762               0.000017831              -0.000079544               0.000384432               0.000304888               0.000000000               0.000000000               0.000000000               0.000000000               0.000098395               0.001099101               0.000013798              -0.000100489               0.000399860               0.000299371               0.000000000               0.000000000               0.000000000               0.000000000               0.000050786               0.001128871               0.000008136              -0.000122064               0.000416975               0.000294911               0.000000000               0.000000000               0.000000000               0.000000000               0.000030148               0.001154012               0.000005421              -0.000132946               0.000428982               0.000296036               0.000000000               0.000000000               0.000000000               0.000000000               0.000199754               0.001686300               0.000266990              -0.000135879               0.000607387               0.000471508               0.000000000               0.000000000               0.000000000               0.000000000               0.000203649               0.001436768               0.000181753              -0.000103227               0.000513327               0.000410100               0.000000000               0.000000000               0.000000000               0.000000000               0.000264484               0.001245861               0.000094721              -0.000056551               0.000434133               0.000377582               0.000000000               0.000000000               0.000000000               0.000000000               0.000286836               0.001140370               0.000057133              -0.000034983               0.000391780               0.000356798               0.000000000               0.000000000               0.000000000               0.000000000               0.000296349               0.001078626               0.000040627              -0.000023698               0.000367438               0.000343740               0.000000000               0.000000000               0.000000000               0.000000000               0.000298002               0.001041414               0.000032385              -0.000018426               0.000353277               0.000334851               0.000000000               0.000000000               0.000000000               0.000000000               0.000291436               0.001025709               0.000025893              -0.000018925               0.000348208               0.000329283               0.000000000               0.000000000               0.000000000               0.000000000               0.000278966               0.001024165               0.000022667              -0.000023408               0.000349188               0.000325780               0.000000000               0.000000000               0.000000000               0.000000000               0.000262568               0.001027759               0.000026111              -0.000030007               0.000352585               0.000322579               0.000000000               0.000000000               0.000000000               0.000000000               0.000246408               0.001032944               0.000035210              -0.000036715               0.000356549               0.000319835               0.000000000               0.000000000               0.000000000               0.000000000               0.000227159               0.001039367               0.000037878              -0.000044736               0.000361364               0.000316628               0.000000000               0.000000000               0.000000000               0.000000000               0.000199999               0.001050404               0.000032543              -0.000056301               0.000368898               0.000312597               0.000000000               0.000000000               0.000000000               0.000000000               0.000166868               0.001064132               0.000029942              -0.000070441               0.000378187               0.000307746               0.000000000               0.000000000               0.000000000               0.000000000               0.000127680               0.001079903               0.000025798              -0.000087108               0.000389000               0.000301892               0.000000000               0.000000000               0.000000000               0.000000000               0.000085927               0.001098260               0.000018195              -0.000105060               0.000401103               0.000296043               0.000000000               0.000000000               0.000000000               0.000000000               0.000044438               0.001117408               0.000009882              -0.000123011               0.000413469               0.000290458               0.000000000               0.000000000               0.000000000               0.000000000               0.000026068               0.001132909               0.000006429              -0.000131838               0.000421579               0.000289741               0.000000000               0.000000000               0.000000000               0.000000000               0.000246240               0.001568307               0.000367737              -0.000103698               0.000557330               0.000453631               0.000000000               0.000000000               0.000000000               0.000000000               0.000224555               0.001350487               0.000251712              -0.000084603               0.000478359               0.000393756               0.000000000               0.000000000               0.000000000               0.000000000               0.000258388               0.001199664               0.000133919              -0.000053062               0.000417571               0.000364509               0.000000000               0.000000000               0.000000000               0.000000000               0.000270074               0.001116418               0.000082466              -0.000038274               0.000384894               0.000346619               0.000000000               0.000000000               0.000000000               0.000000000               0.000272785               0.001071702               0.000060630              -0.000031668               0.000367787               0.000336118               0.000000000               0.000000000               0.000000000               0.000000000               0.000266225               0.001050244               0.000048897              -0.000031446               0.000360560               0.000329114               0.000000000               0.000000000               0.000000000               0.000000000               0.000254114               0.001048426               0.000038965              -0.000035760               0.000361392               0.000325632               0.000000000               0.000000000               0.000000000               0.000000000               0.000237697               0.001054441               0.000034706              -0.000042669               0.000365700               0.000323031               0.000000000               0.000000000               0.000000000               0.000000000               0.000221709               0.001061844               0.000039231              -0.000049590               0.000370474               0.000320885               0.000000000               0.000000000               0.000000000               0.000000000               0.000206323               0.001064823               0.000048269              -0.000055732               0.000373515               0.000317783               0.000000000               0.000000000               0.000000000               0.000000000               0.000188035               0.001072326               0.000048174              -0.000063528               0.000378614               0.000315087               0.000000000               0.000000000               0.000000000               0.000000000               0.000165743               0.001083751               0.000039437              -0.000073315               0.000385685               0.000312370               0.000000000               0.000000000               0.000000000               0.000000000               0.000140962               0.001096473               0.000033057              -0.000084198               0.000393554               0.000309355               0.000000000               0.000000000               0.000000000               0.000000000               0.000109115               0.001109833               0.000025077              -0.000097811               0.000402544               0.000304733               0.000000000               0.000000000               0.000000000               0.000000000               0.000072776               0.001123550               0.000015940              -0.000113153               0.000412230               0.000299078               0.000000000               0.000000000               0.000000000               0.000000000               0.000037256               0.001138869               0.000007965              -0.000128387               0.000422415               0.000294028               0.000000000               0.000000000               0.000000000               0.000000000               0.000022904               0.001152764               0.000005620              -0.000135506               0.000429420               0.000293913               0.000000000               0.000000000               0.000000000               0.000000000               0.000291842               0.001416427               0.000441338              -0.000067613               0.000494675               0.000427062               0.000000000               0.000000000               0.000000000               0.000000000               0.000243556               0.001244697               0.000302997              -0.000064254               0.000436313               0.000372059               0.000000000               0.000000000               0.000000000               0.000000000               0.000250280               0.001144423               0.000164311              -0.000049198               0.000397870               0.000348672               0.000000000               0.000000000               0.000000000               0.000000000               0.000250314               0.001089553               0.000106156              -0.000042326               0.000377290               0.000334963               0.000000000               0.000000000               0.000000000               0.000000000               0.000247000               0.001062533               0.000080149              -0.000040192               0.000367571               0.000327380               0.000000000               0.000000000               0.000000000               0.000000000               0.000235971               0.001057961               0.000063879              -0.000043756               0.000367235               0.000323480               0.000000000               0.000000000               0.000000000               0.000000000               0.000217812               0.001070330               0.000051946              -0.000052112               0.000374144               0.000322032               0.000000000               0.000000000               0.000000000               0.000000000               0.000199709               0.001084081               0.000046762              -0.000060619               0.000381563               0.000320944               0.000000000               0.000000000               0.000000000               0.000000000               0.000184510               0.001093870               0.000052119              -0.000067542               0.000387134               0.000319591               0.000000000               0.000000000               0.000000000               0.000000000               0.000170389               0.001102796               0.000059337              -0.000073953               0.000392246               0.000318293               0.000000000               0.000000000               0.000000000               0.000000000               0.000154016               0.001119117               0.000053828              -0.000082133               0.000400413               0.000318280               0.000000000               0.000000000               0.000000000               0.000000000               0.000134994               0.001138570               0.000043273              -0.000091698               0.000410086               0.000318387               0.000000000               0.000000000               0.000000000               0.000000000               0.000114740               0.001158064               0.000036070              -0.000101730               0.000419928               0.000318197               0.000000000               0.000000000               0.000000000               0.000000000               0.000085679               0.001176406               0.000028087              -0.000114921               0.000430438               0.000315517               0.000000000               0.000000000               0.000000000               0.000000000               0.000053643               0.001195057               0.000018850              -0.000129266               0.000441437               0.000312171               0.000000000               0.000000000               0.000000000               0.000000000               0.000026780               0.001218328               0.000010019              -0.000142248               0.000453521               0.000311273               0.000000000               0.000000000               0.000000000               0.000000000               0.000018744               0.001238431               0.000008242              -0.000147774               0.000462064               0.000314290               0.000000000               0.000000000               0.000000000               0.000000000               0.000337286               0.001245202               0.000481347              -0.000029169               0.000424786               0.000395617               0.000000000               0.000000000               0.000000000               0.000000000               0.000260448               0.001131308               0.000334424              -0.000043746               0.000391681               0.000347935               0.000000000               0.000000000               0.000000000               0.000000000               0.000239124               0.001088130               0.000188379              -0.000046345               0.000378155               0.000331810               0.000000000               0.000000000               0.000000000               0.000000000               0.000232147               0.001062168               0.000127643              -0.000045716               0.000369291               0.000323575               0.000000000               0.000000000               0.000000000               0.000000000               0.000224373               0.001054056               0.000097864              -0.000047617               0.000367221               0.000319604               0.000000000               0.000000000               0.000000000               0.000000000               0.000210149               0.001066720               0.000077979              -0.000054534               0.000373748               0.000319214               0.000000000               0.000000000               0.000000000               0.000000000               0.000190800               0.001089051               0.000063954              -0.000064581               0.000384540               0.000319959               0.000000000               0.000000000               0.000000000               0.000000000               0.000173447               0.001108674               0.000059405              -0.000073542               0.000394068               0.000320527               0.000000000               0.000000000               0.000000000               0.000000000               0.000161449               0.001126308               0.000063141              -0.000080245               0.000402181               0.000321936               0.000000000               0.000000000               0.000000000               0.000000000               0.000151632               0.001150191               0.000065532              -0.000086912               0.000412364               0.000325452               0.000000000               0.000000000               0.000000000               0.000000000               0.000135588               0.001183554               0.000056490              -0.000097098               0.000426880               0.000329782               0.000000000               0.000000000               0.000000000               0.000000000               0.000115189               0.001220380               0.000045183              -0.000109351               0.000443240               0.000333888               0.000000000               0.000000000               0.000000000               0.000000000               0.000094128               0.001257003               0.000037878              -0.000121827               0.000459606               0.000337779               0.000000000               0.000000000               0.000000000               0.000000000               0.000067932               0.001293133               0.000029746              -0.000136167               0.000476429               0.000340262               0.000000000               0.000000000               0.000000000               0.000000000               0.000040934               0.001330510               0.000020451              -0.000150963               0.000493820               0.000342857               0.000000000               0.000000000               0.000000000               0.000000000               0.000018103               0.001368274               0.000010846              -0.000164245               0.000510835               0.000346590               0.000000000               0.000000000               0.000000000               0.000000000               0.000013050               0.001395627               0.000009089              -0.000169559               0.000521724               0.000352165               0.000000000               0.000000000               0.000000000               0.000000000               0.000370581               0.001072493               0.000489045               0.000004906               0.000355859               0.000360764               0.000000000               0.000000000               0.000000000               0.000000000               0.000273348               0.001019270               0.000348856              -0.000024904               0.000348054               0.000323151               0.000000000               0.000000000               0.000000000               0.000000000               0.000227569               0.001034060               0.000206375              -0.000043919               0.000359323               0.000315404               0.000000000               0.000000000               0.000000000               0.000000000               0.000216136               0.001036478               0.000145174              -0.000048509               0.000361659               0.000313150               0.000000000               0.000000000               0.000000000               0.000000000               0.000205972               0.001049247               0.000112722              -0.000053916               0.000367718               0.000313801               0.000000000               0.000000000               0.000000000               0.000000000               0.000189839               0.001078839               0.000091021              -0.000063665               0.000380831               0.000317166               0.000000000               0.000000000               0.000000000               0.000000000               0.000172023               0.001109716               0.000076371              -0.000074206               0.000394637               0.000320431               0.000000000               0.000000000               0.000000000               0.000000000               0.000161715               0.001139299               0.000069568              -0.000081769               0.000407019               0.000325250               0.000000000               0.000000000               0.000000000               0.000000000               0.000156474               0.001173302               0.000068899              -0.000087985               0.000420425               0.000332440               0.000000000               0.000000000               0.000000000               0.000000000               0.000149262               0.001220658               0.000065070              -0.000096609               0.000439085               0.000342476               0.000000000               0.000000000               0.000000000               0.000000000               0.000135273               0.001279911               0.000050906              -0.000109261               0.000463053               0.000353792               0.000000000               0.000000000               0.000000000               0.000000000               0.000114838               0.001340473               0.000039651              -0.000124495               0.000488318               0.000363823               0.000000000               0.000000000               0.000000000               0.000000000               0.000090962               0.001397665               0.000034222              -0.000140597               0.000512749               0.000372152               0.000000000               0.000000000               0.000000000               0.000000000               0.000064064               0.001452426               0.000025811              -0.000157529               0.000536647               0.000379118               0.000000000               0.000000000               0.000000000               0.000000000               0.000038545               0.001505699               0.000016930              -0.000173758               0.000559814               0.000386056               0.000000000               0.000000000               0.000000000               0.000000000               0.000016896               0.001554952               0.000009434              -0.000188032               0.000580990               0.000392957               0.000000000               0.000000000               0.000000000               0.000000000               0.000012656               0.001587697               0.000008944              -0.000193716               0.000593799               0.000400083               0.000000000               0.000000000               0.000000000               0.000000000               0.000385967               0.000905647               0.000471074               0.000031531               0.000291369               0.000322900               0.000000000               0.000000000               0.000000000               0.000000000               0.000278500               0.000915194               0.000348378              -0.000009962               0.000308382               0.000298420               0.000000000               0.000000000               0.000000000               0.000000000               0.000217248               0.000984324               0.000217891              -0.000041572               0.000341962               0.000300390               0.000000000               0.000000000               0.000000000               0.000000000               0.000203539               0.001016108               0.000158369              -0.000050686               0.000355595               0.000304908               0.000000000               0.000000000               0.000000000               0.000000000               0.000190726               0.001052243               0.000124204              -0.000060008               0.000370747               0.000310739               0.000000000               0.000000000               0.000000000               0.000000000               0.000174169               0.001098521               0.000101539              -0.000072002               0.000390170               0.000318169               0.000000000               0.000000000               0.000000000               0.000000000               0.000162130               0.001144341               0.000085223              -0.000082244               0.000408858               0.000326614               0.000000000               0.000000000               0.000000000               0.000000000               0.000160804               0.001194434               0.000074110              -0.000089002               0.000427808               0.000338806               0.000000000               0.000000000               0.000000000               0.000000000               0.000163370               0.001256822               0.000065714              -0.000095839               0.000450883               0.000355044               0.000000000               0.000000000               0.000000000               0.000000000               0.000160308               0.001334489               0.000055311              -0.000106695               0.000480390               0.000373695               0.000000000               0.000000000               0.000000000               0.000000000               0.000145861               0.001414784               0.000040622              -0.000122150               0.000512307               0.000390157               0.000000000               0.000000000               0.000000000               0.000000000               0.000121210               0.001488398               0.000031353              -0.000140596               0.000542993               0.000402397               0.000000000               0.000000000               0.000000000               0.000000000               0.000095005               0.001557434               0.000027365              -0.000159052               0.000572157               0.000413105               0.000000000               0.000000000               0.000000000               0.000000000               0.000070256               0.001624349               0.000019908              -0.000176697               0.000600343               0.000423646               0.000000000               0.000000000               0.000000000               0.000000000               0.000046094               0.001685849               0.000011888              -0.000193445               0.000626426               0.000432980               0.000000000               0.000000000               0.000000000               0.000000000               0.000022896               0.001741689               0.000006281              -0.000209125               0.000650265               0.000441141               0.000000000               0.000000000               0.000000000               0.000000000               0.000015213               0.001777562               0.000006915              -0.000216490               0.000664678               0.000448188               0.000000000               0.000000000               0.000000000               0.000000000               0.000394713               0.000756966               0.000433049               0.000053395               0.000234521               0.000287916               0.000000000               0.000000000               0.000000000               0.000000000               0.000282126               0.000821367               0.000338859               0.000003126               0.000272744               0.000275870               0.000000000               0.000000000               0.000000000               0.000000000               0.000213000               0.000941076               0.000230196              -0.000037760               0.000326275               0.000288516               0.000000000               0.000000000               0.000000000               0.000000000               0.000198285               0.001000691               0.000170432              -0.000050730               0.000350470               0.000299741               0.000000000               0.000000000               0.000000000               0.000000000               0.000183208               0.001058283               0.000135562              -0.000063582               0.000373952               0.000310369               0.000000000               0.000000000               0.000000000               0.000000000               0.000168004               0.001121041               0.000111933              -0.000077128               0.000399386               0.000322258               0.000000000               0.000000000               0.000000000               0.000000000               0.000162466               0.001186039               0.000091278              -0.000087330               0.000424452               0.000337123               0.000000000               0.000000000               0.000000000               0.000000000               0.000170711               0.001261451               0.000073456              -0.000093665               0.000451701               0.000358036               0.000000000               0.000000000               0.000000000               0.000000000               0.000182098               0.001349098               0.000058963              -0.000100350               0.000483145               0.000382795               0.000000000               0.000000000               0.000000000               0.000000000               0.000179069               0.001441137               0.000046945              -0.000112991               0.000518038               0.000405047               0.000000000               0.000000000               0.000000000               0.000000000               0.000162883               0.001532142               0.000036085              -0.000130436               0.000554188               0.000423751               0.000000000               0.000000000               0.000000000               0.000000000               0.000140494               0.001612591               0.000028044              -0.000148888               0.000587154               0.000438266               0.000000000               0.000000000               0.000000000               0.000000000               0.000115507               0.001686212               0.000022041              -0.000167461               0.000617885               0.000450424               0.000000000               0.000000000               0.000000000               0.000000000               0.000091225               0.001757350               0.000013955              -0.000185459               0.000647597               0.000462138               0.000000000               0.000000000               0.000000000               0.000000000               0.000068922               0.001825074               0.000005627              -0.000202288               0.000675781               0.000473493               0.000000000               0.000000000               0.000000000               0.000000000               0.000049587               0.001888906              -0.000000032              -0.000217518               0.000702135               0.000484617               0.000000000               0.000000000               0.000000000               0.000000000               0.000039821               0.001922906              -0.000001154              -0.000225430               0.000716105               0.000490676               0.000000000               0.000000000               0.000000000               0.000000000               0.000390389               0.000612598               0.000385698               0.000069820               0.000180924               0.000250744               0.000000000               0.000000000               0.000000000               0.000000000               0.000287313               0.000709093               0.000326118               0.000019105               0.000229993               0.000249099               0.000000000               0.000000000               0.000000000               0.000000000               0.000215597               0.000866760               0.000247003              -0.000027496               0.000298083               0.000270586               0.000000000               0.000000000               0.000000000               0.000000000               0.000200272               0.000953518               0.000188953              -0.000044088               0.000332532               0.000288444               0.000000000               0.000000000               0.000000000               0.000000000               0.000189729               0.001028693               0.000153896              -0.000057438               0.000362040               0.000304602               0.000000000               0.000000000               0.000000000               0.000000000               0.000177171               0.001106253               0.000128938              -0.000071843               0.000392695               0.000320852               0.000000000               0.000000000               0.000000000               0.000000000               0.000173714               0.001190454               0.000106090              -0.000083664               0.000424702               0.000341038               0.000000000               0.000000000               0.000000000               0.000000000               0.000185233               0.001282930               0.000087736              -0.000090904               0.000457940               0.000367036               0.000000000               0.000000000               0.000000000               0.000000000               0.000203514               0.001378052               0.000071026              -0.000095939               0.000491325               0.000395387               0.000000000               0.000000000               0.000000000               0.000000000               0.000211437               0.001473223               0.000055413              -0.000104864               0.000526024               0.000421160               0.000000000               0.000000000               0.000000000               0.000000000               0.000203824               0.001568161               0.000044043              -0.000119586               0.000562577               0.000442991               0.000000000               0.000000000               0.000000000               0.000000000               0.000187521               0.001656080               0.000035523              -0.000136689               0.000597584               0.000460895               0.000000000               0.000000000               0.000000000               0.000000000               0.000164822               0.001730745               0.000026896              -0.000154535               0.000628421               0.000473886               0.000000000               0.000000000               0.000000000               0.000000000               0.000137666               0.001797665               0.000017019              -0.000173083               0.000656910               0.000483827               0.000000000               0.000000000               0.000000000               0.000000000               0.000113786               0.001869844               0.000006664              -0.000191060               0.000686962               0.000495902               0.000000000               0.000000000               0.000000000               0.000000000               0.000096126               0.001943550               0.000000128              -0.000206896               0.000716809               0.000509913               0.000000000               0.000000000               0.000000000               0.000000000               0.000082510               0.001975223              -0.000003376              -0.000215961               0.000730388               0.000514427               0.000000000               0.000000000               0.000000000               0.000000000               0.000366474               0.000473824               0.000331410               0.000078199               0.000131873               0.000210072               0.000000000               0.000000000               0.000000000               0.000000000               0.000290854               0.000595058               0.000305816               0.000034687               0.000186788               0.000221475               0.000000000               0.000000000               0.000000000               0.000000000               0.000226319               0.000777876               0.000257371              -0.000012365               0.000263411               0.000251046               0.000000000               0.000000000               0.000000000               0.000000000               0.000211933               0.000891019               0.000207256              -0.000031903               0.000307638               0.000275735               0.000000000               0.000000000               0.000000000               0.000000000               0.000205491               0.000983743               0.000172563              -0.000045909               0.000343214               0.000297305               0.000000000               0.000000000               0.000000000               0.000000000               0.000197846               0.001073390               0.000147465              -0.000059981               0.000377787               0.000317806               0.000000000               0.000000000               0.000000000               0.000000000               0.000197619               0.001170978               0.000125950              -0.000072265               0.000414410               0.000342145               0.000000000               0.000000000               0.000000000               0.000000000               0.000210429               0.001275994               0.000108000              -0.000080588               0.000452190               0.000371602               0.000000000               0.000000000               0.000000000               0.000000000               0.000229208               0.001379813               0.000087715              -0.000086523               0.000488774               0.000402251               0.000000000               0.000000000               0.000000000               0.000000000               0.000244986               0.001478460               0.000068020              -0.000092938               0.000523794               0.000430857               0.000000000               0.000000000               0.000000000               0.000000000               0.000248896               0.001572492               0.000054671              -0.000103225               0.000558567               0.000455342               0.000000000               0.000000000               0.000000000               0.000000000               0.000240570               0.001661039               0.000043938              -0.000117416               0.000592813               0.000475397               0.000000000               0.000000000               0.000000000               0.000000000               0.000222594               0.001735776               0.000031087              -0.000133499               0.000623086               0.000489587               0.000000000               0.000000000               0.000000000               0.000000000               0.000198365               0.001801022               0.000018836              -0.000150741               0.000650582               0.000499841               0.000000000               0.000000000               0.000000000               0.000000000               0.000174290               0.001867005               0.000010001              -0.000168017               0.000678334               0.000510318               0.000000000               0.000000000               0.000000000               0.000000000               0.000155318               0.001940095               0.000003454              -0.000184267               0.000708114               0.000523847               0.000000000               0.000000000               0.000000000               0.000000000               0.000137747               0.001972540              -0.000003205              -0.000194912               0.000722477               0.000527565               0.000000000               0.000000000               0.000000000               0.000000000               0.000327770               0.000345787               0.000266851               0.000079690               0.000088698               0.000168387               0.000000000               0.000000000               0.000000000               0.000000000               0.000286639               0.000482072               0.000271715               0.000047230               0.000144946               0.000192176               0.000000000               0.000000000               0.000000000               0.000000000               0.000241984               0.000679573               0.000253494               0.000005797               0.000224590               0.000230387               0.000000000               0.000000000               0.000000000               0.000000000               0.000232114               0.000815277               0.000215502              -0.000014867               0.000276712               0.000261845               0.000000000               0.000000000               0.000000000               0.000000000               0.000229832               0.000924129               0.000184446              -0.000029329               0.000317816               0.000288487               0.000000000               0.000000000               0.000000000               0.000000000               0.000228207               0.001028050               0.000161547              -0.000042929               0.000356990               0.000314061               0.000000000               0.000000000               0.000000000               0.000000000               0.000231790               0.001141594               0.000142862              -0.000055778               0.000399120               0.000343342               0.000000000               0.000000000               0.000000000               0.000000000               0.000239350               0.001259609               0.000124762              -0.000067695               0.000442430               0.000374736               0.000000000               0.000000000               0.000000000               0.000000000               0.000254538               0.001373699               0.000103892              -0.000076260               0.000483315               0.000407055               0.000000000               0.000000000               0.000000000               0.000000000               0.000273401               0.001477451               0.000082544              -0.000082156               0.000519864               0.000437708               0.000000000               0.000000000               0.000000000               0.000000000               0.000283849               0.001567199               0.000064209              -0.000089456               0.000552213               0.000462757               0.000000000               0.000000000               0.000000000               0.000000000               0.000282299               0.001648609               0.000049305              -0.000100214               0.000582935               0.000482722               0.000000000               0.000000000               0.000000000               0.000000000               0.000273972               0.001728083               0.000034715              -0.000113271               0.000613779               0.000500508               0.000000000               0.000000000               0.000000000               0.000000000               0.000262209               0.001802501               0.000023170              -0.000126984               0.000643156               0.000516172               0.000000000               0.000000000               0.000000000               0.000000000               0.000246084               0.001871021               0.000015769              -0.000141596               0.000670866               0.000529270               0.000000000               0.000000000               0.000000000               0.000000000               0.000227060               0.001943922               0.000008199              -0.000157842               0.000700582               0.000542739               0.000000000               0.000000000               0.000000000               0.000000000               0.000206720               0.001974889              -0.000000282              -0.000169341               0.000714737               0.000545396               0.000000000               0.000000000               0.000000000               0.000000000               0.000273226               0.000240011               0.000198267               0.000072458               0.000055850               0.000128308               0.000000000               0.000000000               0.000000000               0.000000000               0.000275088               0.000378607               0.000225533               0.000055831               0.000107591               0.000163422               0.000000000               0.000000000               0.000000000               0.000000000               0.000261950               0.000579788               0.000232823               0.000025757               0.000184675               0.000210432               0.000000000               0.000000000               0.000000000               0.000000000               0.000258214               0.000729499               0.000208701               0.000005643               0.000241283               0.000246926               0.000000000               0.000000000               0.000000000               0.000000000               0.000260978               0.000854611               0.000184498              -0.000008960               0.000287854               0.000278894               0.000000000               0.000000000               0.000000000               0.000000000               0.000264313               0.000977386               0.000165160              -0.000023056               0.000333477               0.000310422               0.000000000               0.000000000               0.000000000               0.000000000               0.000269075               0.001106002               0.000147981              -0.000037347               0.000381112               0.000343766               0.000000000               0.000000000               0.000000000               0.000000000               0.000274339               0.001232233               0.000131571              -0.000051152               0.000427791               0.000376639               0.000000000               0.000000000               0.000000000               0.000000000               0.000285888               0.001353090               0.000113638              -0.000061928               0.000471668               0.000409740               0.000000000               0.000000000               0.000000000               0.000000000               0.000299669               0.001455660               0.000092018              -0.000069581               0.000508409               0.000438828               0.000000000               0.000000000               0.000000000               0.000000000               0.000309889               0.001539777               0.000070347              -0.000076264               0.000538675               0.000462412               0.000000000               0.000000000               0.000000000               0.000000000               0.000316706               0.001624369               0.000052637              -0.000084281               0.000569545               0.000485263               0.000000000               0.000000000               0.000000000               0.000000000               0.000321783               0.001715813               0.000039411              -0.000093808               0.000603201               0.000509393               0.000000000               0.000000000               0.000000000               0.000000000               0.000324975               0.001803869               0.000029636              -0.000103618               0.000635823               0.000532205               0.000000000               0.000000000               0.000000000               0.000000000               0.000321921               0.001884769               0.000020433              -0.000114875               0.000666542               0.000551666               0.000000000               0.000000000               0.000000000               0.000000000               0.000310107               0.001957392               0.000010478              -0.000128384               0.000695252               0.000566868               0.000000000               0.000000000               0.000000000               0.000000000               0.000293692               0.001984427               0.000002549              -0.000137919               0.000707442               0.000569524               0.000000000               0.000000000               0.000000000               0.000000000               0.000208736               0.000158300               0.000135531               0.000058488               0.000033270               0.000091758               0.000000000               0.000000000               0.000000000               0.000000000               0.000257485               0.000291116               0.000173284               0.000060167               0.000076982               0.000137149               0.000000000               0.000000000               0.000000000               0.000000000               0.000280719               0.000486265               0.000194360               0.000044486               0.000147258               0.000191744               0.000000000               0.000000000               0.000000000               0.000000000               0.000287712               0.000645390               0.000182531               0.000027218               0.000206055               0.000233273               0.000000000               0.000000000               0.000000000               0.000000000               0.000294908               0.000786113               0.000167301               0.000012326               0.000257926               0.000270252               0.000000000               0.000000000               0.000000000               0.000000000               0.000302121               0.000925415               0.000151832              -0.000002382               0.000309262               0.000306881               0.000000000               0.000000000               0.000000000               0.000000000               0.000307702               0.001060927               0.000137076              -0.000017228               0.000359381               0.000342154               0.000000000               0.000000000               0.000000000               0.000000000               0.000314565               0.001188710               0.000123952              -0.000030627               0.000406442               0.000375815               0.000000000               0.000000000               0.000000000               0.000000000               0.000320788               0.001310844               0.000108343              -0.000043560               0.000451464               0.000407904               0.000000000               0.000000000               0.000000000               0.000000000               0.000326806               0.001414011               0.000088463              -0.000054199               0.000489399               0.000435200               0.000000000               0.000000000               0.000000000               0.000000000               0.000336225               0.001504890               0.000068420              -0.000062027               0.000522301               0.000460274               0.000000000               0.000000000               0.000000000               0.000000000               0.000351158               0.001603316               0.000052335              -0.000068730               0.000557343               0.000488613               0.000000000               0.000000000               0.000000000               0.000000000               0.000367128               0.001705416               0.000042305              -0.000075504               0.000593634               0.000518130               0.000000000               0.000000000               0.000000000               0.000000000               0.000380133               0.001801013               0.000033847              -0.000082576               0.000627857               0.000545281               0.000000000               0.000000000               0.000000000               0.000000000               0.000387494               0.001887230               0.000021772              -0.000090593               0.000659268               0.000568675               0.000000000               0.000000000               0.000000000               0.000000000               0.000387074               0.001958673               0.000009806              -0.000099681               0.000686111               0.000586430               0.000000000               0.000000000               0.000000000               0.000000000               0.000379649               0.001986448               0.000003437              -0.000105938               0.000697455               0.000591518               0.000000000               0.000000000               0.000000000               0.000000000               0.000152039               0.000103746               0.000081803               0.000044046               0.000019899               0.000063945               0.000000000               0.000000000               0.000000000               0.000000000               0.000238679               0.000225727               0.000116870               0.000061288               0.000054812               0.000116100               0.000000000               0.000000000               0.000000000               0.000000000               0.000294475               0.000408672               0.000139922               0.000059343               0.000116442               0.000175785               0.000000000               0.000000000               0.000000000               0.000000000               0.000316931               0.000574283               0.000136600               0.000047063               0.000175738               0.000222801               0.000000000               0.000000000               0.000000000               0.000000000               0.000328829               0.000728719               0.000128272               0.000032221               0.000232164               0.000264384               0.000000000               0.000000000               0.000000000               0.000000000               0.000336976               0.000874043               0.000118167               0.000017111               0.000285641               0.000302752               0.000000000               0.000000000               0.000000000               0.000000000               0.000344585               0.001009331               0.000108183               0.000003053               0.000335423               0.000338476               0.000000000               0.000000000               0.000000000               0.000000000               0.000348664               0.001140272               0.000097098              -0.000011785               0.000384015               0.000372230               0.000000000               0.000000000               0.000000000               0.000000000               0.000351724               0.001263130               0.000084379              -0.000025995               0.000429704               0.000403709               0.000000000               0.000000000               0.000000000               0.000000000               0.000355131               0.001369835               0.000070821              -0.000038055               0.000469292               0.000431237               0.000000000               0.000000000               0.000000000               0.000000000               0.000366496               0.001476007               0.000057638              -0.000047065               0.000507686               0.000460621               0.000000000               0.000000000               0.000000000               0.000000000               0.000385445               0.001587149               0.000045700              -0.000053851               0.000546995               0.000493143               0.000000000               0.000000000               0.000000000               0.000000000               0.000404344               0.001691990               0.000036765              -0.000059870               0.000583948               0.000524078               0.000000000               0.000000000               0.000000000               0.000000000               0.000420220               0.001787932               0.000028557              -0.000065909               0.000617941               0.000552032               0.000000000               0.000000000               0.000000000               0.000000000               0.000434141               0.001874377               0.000017585              -0.000071494               0.000648617               0.000577123               0.000000000               0.000000000               0.000000000               0.000000000               0.000446692               0.001950531               0.000007652              -0.000076307               0.000675606               0.000599299               0.000000000               0.000000000               0.000000000               0.000000000               0.000449844               0.001984912               0.000003175              -0.000079422               0.000688105               0.000608683               0.000000000               0.000000000               0.000000000               0.000000000               0.000113729               0.000075709               0.000038129               0.000033184               0.000014175               0.000047359               0.000000000               0.000000000               0.000000000               0.000000000               0.000223201               0.000185424               0.000058418               0.000060522               0.000041633               0.000102155               0.000000000               0.000000000               0.000000000               0.000000000               0.000302992               0.000357081               0.000072933               0.000068986               0.000096030               0.000165016               0.000000000               0.000000000               0.000000000               0.000000000               0.000338124               0.000526350               0.000073482               0.000061002               0.000155114               0.000216116               0.000000000               0.000000000               0.000000000               0.000000000               0.000354740               0.000687925               0.000069686               0.000047036               0.000213627               0.000260664               0.000000000               0.000000000               0.000000000               0.000000000               0.000363560               0.000836093               0.000065424               0.000031823               0.000268087               0.000299910               0.000000000               0.000000000               0.000000000               0.000000000               0.000368116               0.000970454               0.000060228               0.000016737               0.000317903               0.000334639               0.000000000               0.000000000               0.000000000               0.000000000               0.000370926               0.001100452               0.000052933               0.000001541               0.000366300               0.000367841               0.000000000               0.000000000               0.000000000               0.000000000               0.000375644               0.001225727               0.000046181              -0.000012349               0.000412688               0.000400339               0.000000000               0.000000000               0.000000000               0.000000000               0.000381532               0.001341988               0.000040547              -0.000024674               0.000455549               0.000430876               0.000000000               0.000000000               0.000000000               0.000000000               0.000391946               0.001457068               0.000034559              -0.000035154               0.000497402               0.000462249               0.000000000               0.000000000               0.000000000               0.000000000               0.000407215               0.001569118               0.000026941              -0.000043434               0.000537512               0.000494078               0.000000000               0.000000000               0.000000000               0.000000000               0.000425338               0.001674660               0.000020638              -0.000049830               0.000574824               0.000524994               0.000000000               0.000000000               0.000000000               0.000000000               0.000444643               0.001774842               0.000015794              -0.000055114               0.000609979               0.000554865               0.000000000               0.000000000               0.000000000               0.000000000               0.000463960               0.001863565               0.000010070              -0.000058960               0.000640835               0.000581875               0.000000000               0.000000000               0.000000000               0.000000000               0.000484713               0.001944268               0.000004737              -0.000061266               0.000668505               0.000607239               0.000000000               0.000000000               0.000000000               0.000000000               0.000494993               0.001983816               0.000002310              -0.000062355               0.000682050               0.000619696               0.000000000               0.000000000               0.000000000               0.000000000               0.000000000               0.000000000               0.000000000               0.000000000               0.000000000               0.000000000               0.000000000               0.000000000               0.000000000               0.000000000               0.000000000               0.000000000               0.000000000               0.000000000               0.000000000               0.000000000               0.000000000               0.000000000               0.000000000               0.000000000               0.000000000               0.000000000               0.000000000               0.000000000               0.000000000               0.000000000               0.000000000               0.000000000               0.000000000               0.000000000               0.000000000               0.000000000               0.000000000               0.000000000               0.000000000               0.000000000               0.000000000               0.000000000               0.000000000               0.000000000               0.000000000               0.000000000               0.000000000               0.000000000               0.000000000               0.000000000               0.000000000               0.000000000               0.000000000               0.000000000               0.000000000               0.000000000               0.000000000               0.000000000               0.000000000               0.000000000               0.000000000               0.000000000               0.000000000               0.000000000               0.000000000               0.000000000               0.000000000               0.000000000               0.000000000               0.000000000               0.000000000               0.000000000               0.000000000               0.000000000               0.000000000               0.000000000               0.000000000               0.000000000               0.000000000               0.000000000               0.000000000               0.000000000               0.000000000               0.000000000               0.000000000               0.000000000               0.000000000               0.000000000               0.000000000               0.000000000               0.000000000               0.000000000               0.000000000               0.000000000               0.000000000               0.000000000               0.000000000               0.000000000               0.000000000               0.000000000               0.000000000               0.000000000               0.000000000               0.000000000               0.000000000               0.000000000               0.000000000               0.000000000               0.000000000               0.000000000               0.000000000               0.000000000               0.000000000               0.000000000               0.000000000               0.000000000               0.000000000               0.000000000               0.000000000               0.000000000               0.000000000               0.000000000               0.000000000               0.000000000               0.000000000               0.000000000               0.000000000               0.000000000               0.000000000               0.000000000               0.000000000               0.000000000               0.000000000               0.000000000               0.000000000               0.000000000               0.000000000               0.000000000               0.000000000               0.000000000               0.000000000               0.000000000               0.000000000               0.000000000               0.000000000               0.000000000               0.000000000               0.000000000               0.000000000               0.000000000               0.000000000               0.000000000               0.000000000               0.000000000               0.000000000               0.000000000               0.000000000               0.000000000               0.000000000               0.000000000               0.000000000               0.000000000               0.000000000               0.000000000               0.000000000               0.000000000               0.000000000               0.000000000               0.000000000               0.000000000               0.000000000               0.000000000               0.000000000               0.000000000 </DataArray>
</PointData>
</Piece>
</UnstructuredGrid> </VTKFile>
