<?xml version="1.0"?>
<VTKFile type="UnstructuredGrid" version="0.1">
<UnstructuredGrid>
<Piece NumberOfPoints="      1156" NumberOfCells="      1024">
<Points>
<DataArray type="Float64"                                    Name="coordinates"                                                      NumberOfComponents=" 3" format="ascii">
              0.133000000               0.000000000               0.000000000               0.155937500               0.000000000               0.000000000               0.178875000               0.000000000               0.000000000               0.201812500               0.000000000               0.000000000               0.224750000               0.000000000               0.000000000               0.247687500               0.000000000               0.000000000               0.270625000               0.000000000               0.000000000               0.293562500               0.000000000               0.000000000               0.316500000               0.000000000               0.000000000               0.339437500               0.000000000               0.000000000               0.362375000               0.000000000               0.000000000               0.385312500               0.000000000               0.000000000               0.408250000               0.000000000               0.000000000               0.431187500               0.000000000               0.000000000               0.454125000               0.000000000               0.000000000               0.477062500               0.000000000               0.000000000               0.500000000               0.000000000               0.000000000               0.132359569               0.013036280               0.000000000               0.155337096               0.016127762               0.000000000               0.178314623               0.019219245               0.000000000               0.201292150               0.022310727               0.000000000               0.224269676               0.025402210               0.000000000               0.247247203               0.028493692               0.000000000               0.270224730               0.031585175               0.000000000               0.293202257               0.034676657               0.000000000               0.316179784               0.037768140               0.000000000               0.339157311               0.040859622               0.000000000               0.362134838               0.043951105               0.000000000               0.385112365               0.047042587               0.000000000               0.408089892               0.050134070               0.000000000               0.431067419               0.053225552               0.000000000               0.454044946               0.056317035               0.000000000               0.477022473               0.059408517               0.000000000               0.500000000               0.062500000               0.000000000               0.130444442               0.025947013               0.000000000               0.153541665               0.032137825               0.000000000               0.176638887               0.038328636               0.000000000               0.199736109               0.044519448               0.000000000               0.222833332               0.050710260               0.000000000               0.245930554               0.056901071               0.000000000               0.269027776               0.063091883               0.000000000               0.292124999               0.069282695               0.000000000               0.315222221               0.075473506               0.000000000               0.338319444               0.081664318               0.000000000               0.361416666               0.087855130               0.000000000               0.384513888               0.094045942               0.000000000               0.407611111               0.100236753               0.000000000               0.430708333               0.106427565               0.000000000               0.453805555               0.112618377               0.000000000               0.476902778               0.118809188               0.000000000               0.500000000               0.125000000               0.000000000               0.127273065               0.038607862               0.000000000               0.150568498               0.047913621               0.000000000               0.173863932               0.057219379               0.000000000               0.197159365               0.066525138               0.000000000               0.220454798               0.075830897               0.000000000               0.243750232               0.085136655               0.000000000               0.267045665               0.094442414               0.000000000               0.290341099               0.103748172               0.000000000               0.313636532               0.113053931               0.000000000               0.336931966               0.122359690               0.000000000               0.360227399               0.131665448               0.000000000               0.383522833               0.140971207               0.000000000               0.406818266               0.150276966               0.000000000               0.430113700               0.159582724               0.000000000               0.453409133               0.168888483               0.000000000               0.476704567               0.178194241               0.000000000               0.500000000               0.187500000               0.000000000               0.122875978               0.050896897               0.000000000               0.146446229               0.063340840               0.000000000               0.170016481               0.075784784               0.000000000               0.193586732               0.088228728               0.000000000               0.217156983               0.100672672               0.000000000               0.240727235               0.113116616               0.000000000               0.264297486               0.125560560               0.000000000               0.287867738               0.138004504               0.000000000               0.311437989               0.150448448               0.000000000               0.335008240               0.162892392               0.000000000               0.358578492               0.175336336               0.000000000               0.382148743               0.187780280               0.000000000               0.405718994               0.200224224               0.000000000               0.429289246               0.212668168               0.000000000               0.452859497               0.225112112               0.000000000               0.476429749               0.237556056               0.000000000               0.500000000               0.250000000               0.000000000               0.117295528               0.062695766               0.000000000               0.141214558               0.078308531               0.000000000               0.165133587               0.093921295               0.000000000               0.189052617               0.109534060               0.000000000               0.212971646               0.125146824               0.000000000               0.236890676               0.140759589               0.000000000               0.260809705               0.156372354               0.000000000               0.284728735               0.171985118               0.000000000               0.308647764               0.187597883               0.000000000               0.332566794               0.203210648               0.000000000               0.356485823               0.218823412               0.000000000               0.380404853               0.234436177               0.000000000               0.404323882               0.250048941               0.000000000               0.428242912               0.265661706               0.000000000               0.452161941               0.281274471               0.000000000               0.476080971               0.296887235               0.000000000               0.500000000               0.312500000               0.000000000               0.110585458               0.073890841               0.000000000               0.134923867               0.092710163               0.000000000               0.159262276               0.111529486               0.000000000               0.183600685               0.130348808               0.000000000               0.207939094               0.149168131               0.000000000               0.232277503               0.167987453               0.000000000               0.256615912               0.186806776               0.000000000               0.280954320               0.205626098               0.000000000               0.305292729               0.224445420               0.000000000               0.329631138               0.243264743               0.000000000               0.353969547               0.262084065               0.000000000               0.378307956               0.280903388               0.000000000               0.402646365               0.299722710               0.000000000               0.426984773               0.318542033               0.000000000               0.451323182               0.337361355               0.000000000               0.475661591               0.356180678               0.000000000               0.500000000               0.375000000               0.000000000               0.102810390               0.084374307               0.000000000               0.127634741               0.106444663               0.000000000               0.152459092               0.128515018               0.000000000               0.177283442               0.150585374               0.000000000               0.202107793               0.172655730               0.000000000               0.226932143               0.194726086               0.000000000               0.251756494               0.216796442               0.000000000               0.276580845               0.238866798               0.000000000               0.301405195               0.260937153               0.000000000               0.326229546               0.283007509               0.000000000               0.351053896               0.305077865               0.000000000               0.375878247               0.327148221               0.000000000               0.400702598               0.349218577               0.000000000               0.425526948               0.371288933               0.000000000               0.450351299               0.393359288               0.000000000               0.475175649               0.415429644               0.000000000               0.500000000               0.437500000               0.000000000               0.094045202               0.094045202               0.000000000               0.119417377               0.119417377               0.000000000               0.144789552               0.144789552               0.000000000               0.170161727               0.170161727               0.000000000               0.195533901               0.195533901               0.000000000               0.220906076               0.220906076               0.000000000               0.246278251               0.246278251               0.000000000               0.271650426               0.271650426               0.000000000               0.297022601               0.297022601               0.000000000               0.322394776               0.322394776               0.000000000               0.347766951               0.347766951               0.000000000               0.373139126               0.373139126               0.000000000               0.398511300               0.398511300               0.000000000               0.423883475               0.423883475               0.000000000               0.449255650               0.449255650               0.000000000               0.474627825               0.474627825               0.000000000               0.500000000               0.500000000               0.000000000               0.084374307               0.102810390               0.000000000               0.106444663               0.127634741               0.000000000               0.128515018               0.152459092               0.000000000               0.150585374               0.177283442               0.000000000               0.172655730               0.202107793               0.000000000               0.194726086               0.226932143               0.000000000               0.216796442               0.251756494               0.000000000               0.238866798               0.276580845               0.000000000               0.260937153               0.301405195               0.000000000               0.283007509               0.326229546               0.000000000               0.305077865               0.351053896               0.000000000               0.327148221               0.375878247               0.000000000               0.349218577               0.400702598               0.000000000               0.371288933               0.425526948               0.000000000               0.393359288               0.450351299               0.000000000               0.415429644               0.475175649               0.000000000               0.437500000               0.500000000               0.000000000               0.073890841               0.110585458               0.000000000               0.092710163               0.134923867               0.000000000               0.111529486               0.159262276               0.000000000               0.130348808               0.183600685               0.000000000               0.149168131               0.207939094               0.000000000               0.167987453               0.232277503               0.000000000               0.186806776               0.256615912               0.000000000               0.205626098               0.280954320               0.000000000               0.224445420               0.305292729               0.000000000               0.243264743               0.329631138               0.000000000               0.262084065               0.353969547               0.000000000               0.280903388               0.378307956               0.000000000               0.299722710               0.402646365               0.000000000               0.318542033               0.426984773               0.000000000               0.337361355               0.451323182               0.000000000               0.356180678               0.475661591               0.000000000               0.375000000               0.500000000               0.000000000               0.062695766               0.117295528               0.000000000               0.078308531               0.141214558               0.000000000               0.093921295               0.165133587               0.000000000               0.109534060               0.189052617               0.000000000               0.125146824               0.212971646               0.000000000               0.140759589               0.236890676               0.000000000               0.156372354               0.260809705               0.000000000               0.171985118               0.284728735               0.000000000               0.187597883               0.308647764               0.000000000               0.203210648               0.332566794               0.000000000               0.218823412               0.356485823               0.000000000               0.234436177               0.380404853               0.000000000               0.250048941               0.404323882               0.000000000               0.265661706               0.428242912               0.000000000               0.281274471               0.452161941               0.000000000               0.296887235               0.476080971               0.000000000               0.312500000               0.500000000               0.000000000               0.050896897               0.122875978               0.000000000               0.063340840               0.146446229               0.000000000               0.075784784               0.170016481               0.000000000               0.088228728               0.193586732               0.000000000               0.100672672               0.217156983               0.000000000               0.113116616               0.240727235               0.000000000               0.125560560               0.264297486               0.000000000               0.138004504               0.287867738               0.000000000               0.150448448               0.311437989               0.000000000               0.162892392               0.335008240               0.000000000               0.175336336               0.358578492               0.000000000               0.187780280               0.382148743               0.000000000               0.200224224               0.405718994               0.000000000               0.212668168               0.429289246               0.000000000               0.225112112               0.452859497               0.000000000               0.237556056               0.476429749               0.000000000               0.250000000               0.500000000               0.000000000               0.038607862               0.127273065               0.000000000               0.047913621               0.150568498               0.000000000               0.057219379               0.173863932               0.000000000               0.066525138               0.197159365               0.000000000               0.075830897               0.220454798               0.000000000               0.085136655               0.243750232               0.000000000               0.094442414               0.267045665               0.000000000               0.103748172               0.290341099               0.000000000               0.113053931               0.313636532               0.000000000               0.122359690               0.336931966               0.000000000               0.131665448               0.360227399               0.000000000               0.140971207               0.383522833               0.000000000               0.150276966               0.406818266               0.000000000               0.159582724               0.430113700               0.000000000               0.168888483               0.453409133               0.000000000               0.178194241               0.476704567               0.000000000               0.187500000               0.500000000               0.000000000               0.025947013               0.130444442               0.000000000               0.032137825               0.153541665               0.000000000               0.038328636               0.176638887               0.000000000               0.044519448               0.199736109               0.000000000               0.050710260               0.222833332               0.000000000               0.056901071               0.245930554               0.000000000               0.063091883               0.269027776               0.000000000               0.069282695               0.292124999               0.000000000               0.075473506               0.315222221               0.000000000               0.081664318               0.338319444               0.000000000               0.087855130               0.361416666               0.000000000               0.094045942               0.384513888               0.000000000               0.100236753               0.407611111               0.000000000               0.106427565               0.430708333               0.000000000               0.112618377               0.453805555               0.000000000               0.118809188               0.476902778               0.000000000               0.125000000               0.500000000               0.000000000               0.013036280               0.132359569               0.000000000               0.016127762               0.155337096               0.000000000               0.019219245               0.178314623               0.000000000               0.022310727               0.201292150               0.000000000               0.025402210               0.224269676               0.000000000               0.028493692               0.247247203               0.000000000               0.031585175               0.270224730               0.000000000               0.034676657               0.293202257               0.000000000               0.037768140               0.316179784               0.000000000               0.040859622               0.339157311               0.000000000               0.043951105               0.362134838               0.000000000               0.047042587               0.385112365               0.000000000               0.050134070               0.408089892               0.000000000               0.053225552               0.431067419               0.000000000               0.056317035               0.454044946               0.000000000               0.059408517               0.477022473               0.000000000               0.062500000               0.500000000               0.000000000               0.000000000               0.133000000               0.000000000               0.000000000               0.155937500               0.000000000               0.000000000               0.178875000               0.000000000               0.000000000               0.201812500               0.000000000               0.000000000               0.224750000               0.000000000               0.000000000               0.247687500               0.000000000               0.000000000               0.270625000               0.000000000               0.000000000               0.293562500               0.000000000               0.000000000               0.316500000               0.000000000               0.000000000               0.339437500               0.000000000               0.000000000               0.362375000               0.000000000               0.000000000               0.385312500               0.000000000               0.000000000               0.408250000               0.000000000               0.000000000               0.431187500               0.000000000               0.000000000               0.454125000               0.000000000               0.000000000               0.477062500               0.000000000               0.000000000               0.500000000               0.000000000               0.133000000               0.000000000               0.000000000               0.155937500               0.000000000               0.000000000               0.178875000               0.000000000               0.000000000               0.201812500               0.000000000               0.000000000               0.224750000               0.000000000               0.000000000               0.247687500               0.000000000               0.000000000               0.270625000               0.000000000               0.000000000               0.293562500               0.000000000               0.000000000               0.316500000               0.000000000               0.000000000               0.339437500               0.000000000               0.000000000               0.362375000               0.000000000               0.000000000               0.385312500               0.000000000               0.000000000               0.408250000               0.000000000               0.000000000               0.431187500               0.000000000               0.000000000               0.454125000               0.000000000               0.000000000               0.477062500               0.000000000               0.000000000               0.500000000               0.000000000               0.000000000               0.132359569              -0.013036280               0.000000000               0.155337096              -0.016127762               0.000000000               0.178314623              -0.019219245               0.000000000               0.201292150              -0.022310727               0.000000000               0.224269676              -0.025402210               0.000000000               0.247247203              -0.028493692               0.000000000               0.270224730              -0.031585175               0.000000000               0.293202257              -0.034676657               0.000000000               0.316179784              -0.037768140               0.000000000               0.339157311              -0.040859622               0.000000000               0.362134838              -0.043951105               0.000000000               0.385112365              -0.047042587               0.000000000               0.408089892              -0.050134070               0.000000000               0.431067419              -0.053225552               0.000000000               0.454044946              -0.056317035               0.000000000               0.477022473              -0.059408517               0.000000000               0.500000000              -0.062500000               0.000000000               0.130444442              -0.025947013               0.000000000               0.153541665              -0.032137825               0.000000000               0.176638887              -0.038328636               0.000000000               0.199736109              -0.044519448               0.000000000               0.222833332              -0.050710260               0.000000000               0.245930554              -0.056901071               0.000000000               0.269027776              -0.063091883               0.000000000               0.292124999              -0.069282695               0.000000000               0.315222221              -0.075473506               0.000000000               0.338319444              -0.081664318               0.000000000               0.361416666              -0.087855130               0.000000000               0.384513888              -0.094045942               0.000000000               0.407611111              -0.100236753               0.000000000               0.430708333              -0.106427565               0.000000000               0.453805555              -0.112618377               0.000000000               0.476902778              -0.118809188               0.000000000               0.500000000              -0.125000000               0.000000000               0.127273065              -0.038607862               0.000000000               0.150568498              -0.047913621               0.000000000               0.173863932              -0.057219379               0.000000000               0.197159365              -0.066525138               0.000000000               0.220454798              -0.075830897               0.000000000               0.243750232              -0.085136655               0.000000000               0.267045665              -0.094442414               0.000000000               0.290341099              -0.103748172               0.000000000               0.313636532              -0.113053931               0.000000000               0.336931966              -0.122359690               0.000000000               0.360227399              -0.131665448               0.000000000               0.383522833              -0.140971207               0.000000000               0.406818266              -0.150276966               0.000000000               0.430113700              -0.159582724               0.000000000               0.453409133              -0.168888483               0.000000000               0.476704567              -0.178194241               0.000000000               0.500000000              -0.187500000               0.000000000               0.122875978              -0.050896897               0.000000000               0.146446229              -0.063340840               0.000000000               0.170016481              -0.075784784               0.000000000               0.193586732              -0.088228728               0.000000000               0.217156983              -0.100672672               0.000000000               0.240727235              -0.113116616               0.000000000               0.264297486              -0.125560560               0.000000000               0.287867738              -0.138004504               0.000000000               0.311437989              -0.150448448               0.000000000               0.335008240              -0.162892392               0.000000000               0.358578492              -0.175336336               0.000000000               0.382148743              -0.187780280               0.000000000               0.405718994              -0.200224224               0.000000000               0.429289246              -0.212668168               0.000000000               0.452859497              -0.225112112               0.000000000               0.476429749              -0.237556056               0.000000000               0.500000000              -0.250000000               0.000000000               0.117295528              -0.062695766               0.000000000               0.141214558              -0.078308531               0.000000000               0.165133587              -0.093921295               0.000000000               0.189052617              -0.109534060               0.000000000               0.212971646              -0.125146824               0.000000000               0.236890676              -0.140759589               0.000000000               0.260809705              -0.156372354               0.000000000               0.284728735              -0.171985118               0.000000000               0.308647764              -0.187597883               0.000000000               0.332566794              -0.203210648               0.000000000               0.356485823              -0.218823412               0.000000000               0.380404853              -0.234436177               0.000000000               0.404323882              -0.250048941               0.000000000               0.428242912              -0.265661706               0.000000000               0.452161941              -0.281274471               0.000000000               0.476080971              -0.296887235               0.000000000               0.500000000              -0.312500000               0.000000000               0.110585458              -0.073890841               0.000000000               0.134923867              -0.092710163               0.000000000               0.159262276              -0.111529486               0.000000000               0.183600685              -0.130348808               0.000000000               0.207939094              -0.149168131               0.000000000               0.232277503              -0.167987453               0.000000000               0.256615912              -0.186806776               0.000000000               0.280954320              -0.205626098               0.000000000               0.305292729              -0.224445420               0.000000000               0.329631138              -0.243264743               0.000000000               0.353969547              -0.262084065               0.000000000               0.378307956              -0.280903388               0.000000000               0.402646365              -0.299722710               0.000000000               0.426984773              -0.318542033               0.000000000               0.451323182              -0.337361355               0.000000000               0.475661591              -0.356180678               0.000000000               0.500000000              -0.375000000               0.000000000               0.102810390              -0.084374307               0.000000000               0.127634741              -0.106444663               0.000000000               0.152459092              -0.128515018               0.000000000               0.177283442              -0.150585374               0.000000000               0.202107793              -0.172655730               0.000000000               0.226932143              -0.194726086               0.000000000               0.251756494              -0.216796442               0.000000000               0.276580845              -0.238866798               0.000000000               0.301405195              -0.260937153               0.000000000               0.326229546              -0.283007509               0.000000000               0.351053896              -0.305077865               0.000000000               0.375878247              -0.327148221               0.000000000               0.400702598              -0.349218577               0.000000000               0.425526948              -0.371288933               0.000000000               0.450351299              -0.393359288               0.000000000               0.475175649              -0.415429644               0.000000000               0.500000000              -0.437500000               0.000000000               0.094045202              -0.094045202               0.000000000               0.119417377              -0.119417377               0.000000000               0.144789552              -0.144789552               0.000000000               0.170161727              -0.170161727               0.000000000               0.195533901              -0.195533901               0.000000000               0.220906076              -0.220906076               0.000000000               0.246278251              -0.246278251               0.000000000               0.271650426              -0.271650426               0.000000000               0.297022601              -0.297022601               0.000000000               0.322394776              -0.322394776               0.000000000               0.347766951              -0.347766951               0.000000000               0.373139126              -0.373139126               0.000000000               0.398511300              -0.398511300               0.000000000               0.423883475              -0.423883475               0.000000000               0.449255650              -0.449255650               0.000000000               0.474627825              -0.474627825               0.000000000               0.500000000              -0.500000000               0.000000000               0.084374307              -0.102810390               0.000000000               0.106444663              -0.127634741               0.000000000               0.128515018              -0.152459092               0.000000000               0.150585374              -0.177283442               0.000000000               0.172655730              -0.202107793               0.000000000               0.194726086              -0.226932143               0.000000000               0.216796442              -0.251756494               0.000000000               0.238866798              -0.276580845               0.000000000               0.260937153              -0.301405195               0.000000000               0.283007509              -0.326229546               0.000000000               0.305077865              -0.351053896               0.000000000               0.327148221              -0.375878247               0.000000000               0.349218577              -0.400702598               0.000000000               0.371288933              -0.425526948               0.000000000               0.393359288              -0.450351299               0.000000000               0.415429644              -0.475175649               0.000000000               0.437500000              -0.500000000               0.000000000               0.073890841              -0.110585458               0.000000000               0.092710163              -0.134923867               0.000000000               0.111529486              -0.159262276               0.000000000               0.130348808              -0.183600685               0.000000000               0.149168131              -0.207939094               0.000000000               0.167987453              -0.232277503               0.000000000               0.186806776              -0.256615912               0.000000000               0.205626098              -0.280954320               0.000000000               0.224445420              -0.305292729               0.000000000               0.243264743              -0.329631138               0.000000000               0.262084065              -0.353969547               0.000000000               0.280903388              -0.378307956               0.000000000               0.299722710              -0.402646365               0.000000000               0.318542033              -0.426984773               0.000000000               0.337361355              -0.451323182               0.000000000               0.356180678              -0.475661591               0.000000000               0.375000000              -0.500000000               0.000000000               0.062695766              -0.117295528               0.000000000               0.078308531              -0.141214558               0.000000000               0.093921295              -0.165133587               0.000000000               0.109534060              -0.189052617               0.000000000               0.125146824              -0.212971646               0.000000000               0.140759589              -0.236890676               0.000000000               0.156372354              -0.260809705               0.000000000               0.171985118              -0.284728735               0.000000000               0.187597883              -0.308647764               0.000000000               0.203210648              -0.332566794               0.000000000               0.218823412              -0.356485823               0.000000000               0.234436177              -0.380404853               0.000000000               0.250048941              -0.404323882               0.000000000               0.265661706              -0.428242912               0.000000000               0.281274471              -0.452161941               0.000000000               0.296887235              -0.476080971               0.000000000               0.312500000              -0.500000000               0.000000000               0.050896897              -0.122875978               0.000000000               0.063340840              -0.146446229               0.000000000               0.075784784              -0.170016481               0.000000000               0.088228728              -0.193586732               0.000000000               0.100672672              -0.217156983               0.000000000               0.113116616              -0.240727235               0.000000000               0.125560560              -0.264297486               0.000000000               0.138004504              -0.287867738               0.000000000               0.150448448              -0.311437989               0.000000000               0.162892392              -0.335008240               0.000000000               0.175336336              -0.358578492               0.000000000               0.187780280              -0.382148743               0.000000000               0.200224224              -0.405718994               0.000000000               0.212668168              -0.429289246               0.000000000               0.225112112              -0.452859497               0.000000000               0.237556056              -0.476429749               0.000000000               0.250000000              -0.500000000               0.000000000               0.038607862              -0.127273065               0.000000000               0.047913621              -0.150568498               0.000000000               0.057219379              -0.173863932               0.000000000               0.066525138              -0.197159365               0.000000000               0.075830897              -0.220454798               0.000000000               0.085136655              -0.243750232               0.000000000               0.094442414              -0.267045665               0.000000000               0.103748172              -0.290341099               0.000000000               0.113053931              -0.313636532               0.000000000               0.122359690              -0.336931966               0.000000000               0.131665448              -0.360227399               0.000000000               0.140971207              -0.383522833               0.000000000               0.150276966              -0.406818266               0.000000000               0.159582724              -0.430113700               0.000000000               0.168888483              -0.453409133               0.000000000               0.178194241              -0.476704567               0.000000000               0.187500000              -0.500000000               0.000000000               0.025947013              -0.130444442               0.000000000               0.032137825              -0.153541665               0.000000000               0.038328636              -0.176638887               0.000000000               0.044519448              -0.199736109               0.000000000               0.050710260              -0.222833332               0.000000000               0.056901071              -0.245930554               0.000000000               0.063091883              -0.269027776               0.000000000               0.069282695              -0.292124999               0.000000000               0.075473506              -0.315222221               0.000000000               0.081664318              -0.338319444               0.000000000               0.087855130              -0.361416666               0.000000000               0.094045942              -0.384513888               0.000000000               0.100236753              -0.407611111               0.000000000               0.106427565              -0.430708333               0.000000000               0.112618377              -0.453805555               0.000000000               0.118809188              -0.476902778               0.000000000               0.125000000              -0.500000000               0.000000000               0.013036280              -0.132359569               0.000000000               0.016127762              -0.155337096               0.000000000               0.019219245              -0.178314623               0.000000000               0.022310727              -0.201292150               0.000000000               0.025402210              -0.224269676               0.000000000               0.028493692              -0.247247203               0.000000000               0.031585175              -0.270224730               0.000000000               0.034676657              -0.293202257               0.000000000               0.037768140              -0.316179784               0.000000000               0.040859622              -0.339157311               0.000000000               0.043951105              -0.362134838               0.000000000               0.047042587              -0.385112365               0.000000000               0.050134070              -0.408089892               0.000000000               0.053225552              -0.431067419               0.000000000               0.056317035              -0.454044946               0.000000000               0.059408517              -0.477022473               0.000000000               0.062500000              -0.500000000               0.000000000               0.000000000              -0.133000000               0.000000000               0.000000000              -0.155937500               0.000000000               0.000000000              -0.178875000               0.000000000               0.000000000              -0.201812500               0.000000000               0.000000000              -0.224750000               0.000000000               0.000000000              -0.247687500               0.000000000               0.000000000              -0.270625000               0.000000000               0.000000000              -0.293562500               0.000000000               0.000000000              -0.316500000               0.000000000               0.000000000              -0.339437500               0.000000000               0.000000000              -0.362375000               0.000000000               0.000000000              -0.385312500               0.000000000               0.000000000              -0.408250000               0.000000000               0.000000000              -0.431187500               0.000000000               0.000000000              -0.454125000               0.000000000               0.000000000              -0.477062500               0.000000000               0.000000000              -0.500000000               0.000000000              -0.133000000               0.000000000               0.000000000              -0.155937500               0.000000000               0.000000000              -0.178875000               0.000000000               0.000000000              -0.201812500               0.000000000               0.000000000              -0.224750000               0.000000000               0.000000000              -0.247687500               0.000000000               0.000000000              -0.270625000               0.000000000               0.000000000              -0.293562500               0.000000000               0.000000000              -0.316500000               0.000000000               0.000000000              -0.339437500               0.000000000               0.000000000              -0.362375000               0.000000000               0.000000000              -0.385312500               0.000000000               0.000000000              -0.408250000               0.000000000               0.000000000              -0.431187500               0.000000000               0.000000000              -0.454125000               0.000000000               0.000000000              -0.477062500               0.000000000               0.000000000              -0.500000000               0.000000000               0.000000000              -0.132359569              -0.013036280               0.000000000              -0.155337096              -0.016127762               0.000000000              -0.178314623              -0.019219245               0.000000000              -0.201292150              -0.022310727               0.000000000              -0.224269676              -0.025402210               0.000000000              -0.247247203              -0.028493692               0.000000000              -0.270224730              -0.031585175               0.000000000              -0.293202257              -0.034676657               0.000000000              -0.316179784              -0.037768140               0.000000000              -0.339157311              -0.040859622               0.000000000              -0.362134838              -0.043951105               0.000000000              -0.385112365              -0.047042587               0.000000000              -0.408089892              -0.050134070               0.000000000              -0.431067419              -0.053225552               0.000000000              -0.454044946              -0.056317035               0.000000000              -0.477022473              -0.059408517               0.000000000              -0.500000000              -0.062500000               0.000000000              -0.130444442              -0.025947013               0.000000000              -0.153541665              -0.032137825               0.000000000              -0.176638887              -0.038328636               0.000000000              -0.199736109              -0.044519448               0.000000000              -0.222833332              -0.050710260               0.000000000              -0.245930554              -0.056901071               0.000000000              -0.269027776              -0.063091883               0.000000000              -0.292124999              -0.069282695               0.000000000              -0.315222221              -0.075473506               0.000000000              -0.338319444              -0.081664318               0.000000000              -0.361416666              -0.087855130               0.000000000              -0.384513888              -0.094045942               0.000000000              -0.407611111              -0.100236753               0.000000000              -0.430708333              -0.106427565               0.000000000              -0.453805555              -0.112618377               0.000000000              -0.476902778              -0.118809188               0.000000000              -0.500000000              -0.125000000               0.000000000              -0.127273065              -0.038607862               0.000000000              -0.150568498              -0.047913621               0.000000000              -0.173863932              -0.057219379               0.000000000              -0.197159365              -0.066525138               0.000000000              -0.220454798              -0.075830897               0.000000000              -0.243750232              -0.085136655               0.000000000              -0.267045665              -0.094442414               0.000000000              -0.290341099              -0.103748172               0.000000000              -0.313636532              -0.113053931               0.000000000              -0.336931966              -0.122359690               0.000000000              -0.360227399              -0.131665448               0.000000000              -0.383522833              -0.140971207               0.000000000              -0.406818266              -0.150276966               0.000000000              -0.430113700              -0.159582724               0.000000000              -0.453409133              -0.168888483               0.000000000              -0.476704567              -0.178194241               0.000000000              -0.500000000              -0.187500000               0.000000000              -0.122875978              -0.050896897               0.000000000              -0.146446229              -0.063340840               0.000000000              -0.170016481              -0.075784784               0.000000000              -0.193586732              -0.088228728               0.000000000              -0.217156983              -0.100672672               0.000000000              -0.240727235              -0.113116616               0.000000000              -0.264297486              -0.125560560               0.000000000              -0.287867738              -0.138004504               0.000000000              -0.311437989              -0.150448448               0.000000000              -0.335008240              -0.162892392               0.000000000              -0.358578492              -0.175336336               0.000000000              -0.382148743              -0.187780280               0.000000000              -0.405718994              -0.200224224               0.000000000              -0.429289246              -0.212668168               0.000000000              -0.452859497              -0.225112112               0.000000000              -0.476429749              -0.237556056               0.000000000              -0.500000000              -0.250000000               0.000000000              -0.117295528              -0.062695766               0.000000000              -0.141214558              -0.078308531               0.000000000              -0.165133587              -0.093921295               0.000000000              -0.189052617              -0.109534060               0.000000000              -0.212971646              -0.125146824               0.000000000              -0.236890676              -0.140759589               0.000000000              -0.260809705              -0.156372354               0.000000000              -0.284728735              -0.171985118               0.000000000              -0.308647764              -0.187597883               0.000000000              -0.332566794              -0.203210648               0.000000000              -0.356485823              -0.218823412               0.000000000              -0.380404853              -0.234436177               0.000000000              -0.404323882              -0.250048941               0.000000000              -0.428242912              -0.265661706               0.000000000              -0.452161941              -0.281274471               0.000000000              -0.476080971              -0.296887235               0.000000000              -0.500000000              -0.312500000               0.000000000              -0.110585458              -0.073890841               0.000000000              -0.134923867              -0.092710163               0.000000000              -0.159262276              -0.111529486               0.000000000              -0.183600685              -0.130348808               0.000000000              -0.207939094              -0.149168131               0.000000000              -0.232277503              -0.167987453               0.000000000              -0.256615912              -0.186806776               0.000000000              -0.280954320              -0.205626098               0.000000000              -0.305292729              -0.224445420               0.000000000              -0.329631138              -0.243264743               0.000000000              -0.353969547              -0.262084065               0.000000000              -0.378307956              -0.280903388               0.000000000              -0.402646365              -0.299722710               0.000000000              -0.426984773              -0.318542033               0.000000000              -0.451323182              -0.337361355               0.000000000              -0.475661591              -0.356180678               0.000000000              -0.500000000              -0.375000000               0.000000000              -0.102810390              -0.084374307               0.000000000              -0.127634741              -0.106444663               0.000000000              -0.152459092              -0.128515018               0.000000000              -0.177283442              -0.150585374               0.000000000              -0.202107793              -0.172655730               0.000000000              -0.226932143              -0.194726086               0.000000000              -0.251756494              -0.216796442               0.000000000              -0.276580845              -0.238866798               0.000000000              -0.301405195              -0.260937153               0.000000000              -0.326229546              -0.283007509               0.000000000              -0.351053896              -0.305077865               0.000000000              -0.375878247              -0.327148221               0.000000000              -0.400702598              -0.349218577               0.000000000              -0.425526948              -0.371288933               0.000000000              -0.450351299              -0.393359288               0.000000000              -0.475175649              -0.415429644               0.000000000              -0.500000000              -0.437500000               0.000000000              -0.094045202              -0.094045202               0.000000000              -0.119417377              -0.119417377               0.000000000              -0.144789552              -0.144789552               0.000000000              -0.170161727              -0.170161727               0.000000000              -0.195533901              -0.195533901               0.000000000              -0.220906076              -0.220906076               0.000000000              -0.246278251              -0.246278251               0.000000000              -0.271650426              -0.271650426               0.000000000              -0.297022601              -0.297022601               0.000000000              -0.322394776              -0.322394776               0.000000000              -0.347766951              -0.347766951               0.000000000              -0.373139126              -0.373139126               0.000000000              -0.398511300              -0.398511300               0.000000000              -0.423883475              -0.423883475               0.000000000              -0.449255650              -0.449255650               0.000000000              -0.474627825              -0.474627825               0.000000000              -0.500000000              -0.500000000               0.000000000              -0.084374307              -0.102810390               0.000000000              -0.106444663              -0.127634741               0.000000000              -0.128515018              -0.152459092               0.000000000              -0.150585374              -0.177283442               0.000000000              -0.172655730              -0.202107793               0.000000000              -0.194726086              -0.226932143               0.000000000              -0.216796442              -0.251756494               0.000000000              -0.238866798              -0.276580845               0.000000000              -0.260937153              -0.301405195               0.000000000              -0.283007509              -0.326229546               0.000000000              -0.305077865              -0.351053896               0.000000000              -0.327148221              -0.375878247               0.000000000              -0.349218577              -0.400702598               0.000000000              -0.371288933              -0.425526948               0.000000000              -0.393359288              -0.450351299               0.000000000              -0.415429644              -0.475175649               0.000000000              -0.437500000              -0.500000000               0.000000000              -0.073890841              -0.110585458               0.000000000              -0.092710163              -0.134923867               0.000000000              -0.111529486              -0.159262276               0.000000000              -0.130348808              -0.183600685               0.000000000              -0.149168131              -0.207939094               0.000000000              -0.167987453              -0.232277503               0.000000000              -0.186806776              -0.256615912               0.000000000              -0.205626098              -0.280954320               0.000000000              -0.224445420              -0.305292729               0.000000000              -0.243264743              -0.329631138               0.000000000              -0.262084065              -0.353969547               0.000000000              -0.280903388              -0.378307956               0.000000000              -0.299722710              -0.402646365               0.000000000              -0.318542033              -0.426984773               0.000000000              -0.337361355              -0.451323182               0.000000000              -0.356180678              -0.475661591               0.000000000              -0.375000000              -0.500000000               0.000000000              -0.062695766              -0.117295528               0.000000000              -0.078308531              -0.141214558               0.000000000              -0.093921295              -0.165133587               0.000000000              -0.109534060              -0.189052617               0.000000000              -0.125146824              -0.212971646               0.000000000              -0.140759589              -0.236890676               0.000000000              -0.156372354              -0.260809705               0.000000000              -0.171985118              -0.284728735               0.000000000              -0.187597883              -0.308647764               0.000000000              -0.203210648              -0.332566794               0.000000000              -0.218823412              -0.356485823               0.000000000              -0.234436177              -0.380404853               0.000000000              -0.250048941              -0.404323882               0.000000000              -0.265661706              -0.428242912               0.000000000              -0.281274471              -0.452161941               0.000000000              -0.296887235              -0.476080971               0.000000000              -0.312500000              -0.500000000               0.000000000              -0.050896897              -0.122875978               0.000000000              -0.063340840              -0.146446229               0.000000000              -0.075784784              -0.170016481               0.000000000              -0.088228728              -0.193586732               0.000000000              -0.100672672              -0.217156983               0.000000000              -0.113116616              -0.240727235               0.000000000              -0.125560560              -0.264297486               0.000000000              -0.138004504              -0.287867738               0.000000000              -0.150448448              -0.311437989               0.000000000              -0.162892392              -0.335008240               0.000000000              -0.175336336              -0.358578492               0.000000000              -0.187780280              -0.382148743               0.000000000              -0.200224224              -0.405718994               0.000000000              -0.212668168              -0.429289246               0.000000000              -0.225112112              -0.452859497               0.000000000              -0.237556056              -0.476429749               0.000000000              -0.250000000              -0.500000000               0.000000000              -0.038607862              -0.127273065               0.000000000              -0.047913621              -0.150568498               0.000000000              -0.057219379              -0.173863932               0.000000000              -0.066525138              -0.197159365               0.000000000              -0.075830897              -0.220454798               0.000000000              -0.085136655              -0.243750232               0.000000000              -0.094442414              -0.267045665               0.000000000              -0.103748172              -0.290341099               0.000000000              -0.113053931              -0.313636532               0.000000000              -0.122359690              -0.336931966               0.000000000              -0.131665448              -0.360227399               0.000000000              -0.140971207              -0.383522833               0.000000000              -0.150276966              -0.406818266               0.000000000              -0.159582724              -0.430113700               0.000000000              -0.168888483              -0.453409133               0.000000000              -0.178194241              -0.476704567               0.000000000              -0.187500000              -0.500000000               0.000000000              -0.025947013              -0.130444442               0.000000000              -0.032137825              -0.153541665               0.000000000              -0.038328636              -0.176638887               0.000000000              -0.044519448              -0.199736109               0.000000000              -0.050710260              -0.222833332               0.000000000              -0.056901071              -0.245930554               0.000000000              -0.063091883              -0.269027776               0.000000000              -0.069282695              -0.292124999               0.000000000              -0.075473506              -0.315222221               0.000000000              -0.081664318              -0.338319444               0.000000000              -0.087855130              -0.361416666               0.000000000              -0.094045942              -0.384513888               0.000000000              -0.100236753              -0.407611111               0.000000000              -0.106427565              -0.430708333               0.000000000              -0.112618377              -0.453805555               0.000000000              -0.118809188              -0.476902778               0.000000000              -0.125000000              -0.500000000               0.000000000              -0.013036280              -0.132359569               0.000000000              -0.016127762              -0.155337096               0.000000000              -0.019219245              -0.178314623               0.000000000              -0.022310727              -0.201292150               0.000000000              -0.025402210              -0.224269676               0.000000000              -0.028493692              -0.247247203               0.000000000              -0.031585175              -0.270224730               0.000000000              -0.034676657              -0.293202257               0.000000000              -0.037768140              -0.316179784               0.000000000              -0.040859622              -0.339157311               0.000000000              -0.043951105              -0.362134838               0.000000000              -0.047042587              -0.385112365               0.000000000              -0.050134070              -0.408089892               0.000000000              -0.053225552              -0.431067419               0.000000000              -0.056317035              -0.454044946               0.000000000              -0.059408517              -0.477022473               0.000000000              -0.062500000              -0.500000000               0.000000000               0.000000000              -0.133000000               0.000000000               0.000000000              -0.155937500               0.000000000               0.000000000              -0.178875000               0.000000000               0.000000000              -0.201812500               0.000000000               0.000000000              -0.224750000               0.000000000               0.000000000              -0.247687500               0.000000000               0.000000000              -0.270625000               0.000000000               0.000000000              -0.293562500               0.000000000               0.000000000              -0.316500000               0.000000000               0.000000000              -0.339437500               0.000000000               0.000000000              -0.362375000               0.000000000               0.000000000              -0.385312500               0.000000000               0.000000000              -0.408250000               0.000000000               0.000000000              -0.431187500               0.000000000               0.000000000              -0.454125000               0.000000000               0.000000000              -0.477062500               0.000000000               0.000000000              -0.500000000               0.000000000              -0.133000000               0.000000000               0.000000000              -0.155937500               0.000000000               0.000000000              -0.178875000               0.000000000               0.000000000              -0.201812500               0.000000000               0.000000000              -0.224750000               0.000000000               0.000000000              -0.247687500               0.000000000               0.000000000              -0.270625000               0.000000000               0.000000000              -0.293562500               0.000000000               0.000000000              -0.316500000               0.000000000               0.000000000              -0.339437500               0.000000000               0.000000000              -0.362375000               0.000000000               0.000000000              -0.385312500               0.000000000               0.000000000              -0.408250000               0.000000000               0.000000000              -0.431187500               0.000000000               0.000000000              -0.454125000               0.000000000               0.000000000              -0.477062500               0.000000000               0.000000000              -0.500000000               0.000000000               0.000000000              -0.132359569               0.013036280               0.000000000              -0.155337096               0.016127762               0.000000000              -0.178314623               0.019219245               0.000000000              -0.201292150               0.022310727               0.000000000              -0.224269676               0.025402210               0.000000000              -0.247247203               0.028493692               0.000000000              -0.270224730               0.031585175               0.000000000              -0.293202257               0.034676657               0.000000000              -0.316179784               0.037768140               0.000000000              -0.339157311               0.040859622               0.000000000              -0.362134838               0.043951105               0.000000000              -0.385112365               0.047042587               0.000000000              -0.408089892               0.050134070               0.000000000              -0.431067419               0.053225552               0.000000000              -0.454044946               0.056317035               0.000000000              -0.477022473               0.059408517               0.000000000              -0.500000000               0.062500000               0.000000000              -0.130444442               0.025947013               0.000000000              -0.153541665               0.032137825               0.000000000              -0.176638887               0.038328636               0.000000000              -0.199736109               0.044519448               0.000000000              -0.222833332               0.050710260               0.000000000              -0.245930554               0.056901071               0.000000000              -0.269027776               0.063091883               0.000000000              -0.292124999               0.069282695               0.000000000              -0.315222221               0.075473506               0.000000000              -0.338319444               0.081664318               0.000000000              -0.361416666               0.087855130               0.000000000              -0.384513888               0.094045942               0.000000000              -0.407611111               0.100236753               0.000000000              -0.430708333               0.106427565               0.000000000              -0.453805555               0.112618377               0.000000000              -0.476902778               0.118809188               0.000000000              -0.500000000               0.125000000               0.000000000              -0.127273065               0.038607862               0.000000000              -0.150568498               0.047913621               0.000000000              -0.173863932               0.057219379               0.000000000              -0.197159365               0.066525138               0.000000000              -0.220454798               0.075830897               0.000000000              -0.243750232               0.085136655               0.000000000              -0.267045665               0.094442414               0.000000000              -0.290341099               0.103748172               0.000000000              -0.313636532               0.113053931               0.000000000              -0.336931966               0.122359690               0.000000000              -0.360227399               0.131665448               0.000000000              -0.383522833               0.140971207               0.000000000              -0.406818266               0.150276966               0.000000000              -0.430113700               0.159582724               0.000000000              -0.453409133               0.168888483               0.000000000              -0.476704567               0.178194241               0.000000000              -0.500000000               0.187500000               0.000000000              -0.122875978               0.050896897               0.000000000              -0.146446229               0.063340840               0.000000000              -0.170016481               0.075784784               0.000000000              -0.193586732               0.088228728               0.000000000              -0.217156983               0.100672672               0.000000000              -0.240727235               0.113116616               0.000000000              -0.264297486               0.125560560               0.000000000              -0.287867738               0.138004504               0.000000000              -0.311437989               0.150448448               0.000000000              -0.335008240               0.162892392               0.000000000              -0.358578492               0.175336336               0.000000000              -0.382148743               0.187780280               0.000000000              -0.405718994               0.200224224               0.000000000              -0.429289246               0.212668168               0.000000000              -0.452859497               0.225112112               0.000000000              -0.476429749               0.237556056               0.000000000              -0.500000000               0.250000000               0.000000000              -0.117295528               0.062695766               0.000000000              -0.141214558               0.078308531               0.000000000              -0.165133587               0.093921295               0.000000000              -0.189052617               0.109534060               0.000000000              -0.212971646               0.125146824               0.000000000              -0.236890676               0.140759589               0.000000000              -0.260809705               0.156372354               0.000000000              -0.284728735               0.171985118               0.000000000              -0.308647764               0.187597883               0.000000000              -0.332566794               0.203210648               0.000000000              -0.356485823               0.218823412               0.000000000              -0.380404853               0.234436177               0.000000000              -0.404323882               0.250048941               0.000000000              -0.428242912               0.265661706               0.000000000              -0.452161941               0.281274471               0.000000000              -0.476080971               0.296887235               0.000000000              -0.500000000               0.312500000               0.000000000              -0.110585458               0.073890841               0.000000000              -0.134923867               0.092710163               0.000000000              -0.159262276               0.111529486               0.000000000              -0.183600685               0.130348808               0.000000000              -0.207939094               0.149168131               0.000000000              -0.232277503               0.167987453               0.000000000              -0.256615912               0.186806776               0.000000000              -0.280954320               0.205626098               0.000000000              -0.305292729               0.224445420               0.000000000              -0.329631138               0.243264743               0.000000000              -0.353969547               0.262084065               0.000000000              -0.378307956               0.280903388               0.000000000              -0.402646365               0.299722710               0.000000000              -0.426984773               0.318542033               0.000000000              -0.451323182               0.337361355               0.000000000              -0.475661591               0.356180678               0.000000000              -0.500000000               0.375000000               0.000000000              -0.102810390               0.084374307               0.000000000              -0.127634741               0.106444663               0.000000000              -0.152459092               0.128515018               0.000000000              -0.177283442               0.150585374               0.000000000              -0.202107793               0.172655730               0.000000000              -0.226932143               0.194726086               0.000000000              -0.251756494               0.216796442               0.000000000              -0.276580845               0.238866798               0.000000000              -0.301405195               0.260937153               0.000000000              -0.326229546               0.283007509               0.000000000              -0.351053896               0.305077865               0.000000000              -0.375878247               0.327148221               0.000000000              -0.400702598               0.349218577               0.000000000              -0.425526948               0.371288933               0.000000000              -0.450351299               0.393359288               0.000000000              -0.475175649               0.415429644               0.000000000              -0.500000000               0.437500000               0.000000000              -0.094045202               0.094045202               0.000000000              -0.119417377               0.119417377               0.000000000              -0.144789552               0.144789552               0.000000000              -0.170161727               0.170161727               0.000000000              -0.195533901               0.195533901               0.000000000              -0.220906076               0.220906076               0.000000000              -0.246278251               0.246278251               0.000000000              -0.271650426               0.271650426               0.000000000              -0.297022601               0.297022601               0.000000000              -0.322394776               0.322394776               0.000000000              -0.347766951               0.347766951               0.000000000              -0.373139126               0.373139126               0.000000000              -0.398511300               0.398511300               0.000000000              -0.423883475               0.423883475               0.000000000              -0.449255650               0.449255650               0.000000000              -0.474627825               0.474627825               0.000000000              -0.500000000               0.500000000               0.000000000              -0.084374307               0.102810390               0.000000000              -0.106444663               0.127634741               0.000000000              -0.128515018               0.152459092               0.000000000              -0.150585374               0.177283442               0.000000000              -0.172655730               0.202107793               0.000000000              -0.194726086               0.226932143               0.000000000              -0.216796442               0.251756494               0.000000000              -0.238866798               0.276580845               0.000000000              -0.260937153               0.301405195               0.000000000              -0.283007509               0.326229546               0.000000000              -0.305077865               0.351053896               0.000000000              -0.327148221               0.375878247               0.000000000              -0.349218577               0.400702598               0.000000000              -0.371288933               0.425526948               0.000000000              -0.393359288               0.450351299               0.000000000              -0.415429644               0.475175649               0.000000000              -0.437500000               0.500000000               0.000000000              -0.073890841               0.110585458               0.000000000              -0.092710163               0.134923867               0.000000000              -0.111529486               0.159262276               0.000000000              -0.130348808               0.183600685               0.000000000              -0.149168131               0.207939094               0.000000000              -0.167987453               0.232277503               0.000000000              -0.186806776               0.256615912               0.000000000              -0.205626098               0.280954320               0.000000000              -0.224445420               0.305292729               0.000000000              -0.243264743               0.329631138               0.000000000              -0.262084065               0.353969547               0.000000000              -0.280903388               0.378307956               0.000000000              -0.299722710               0.402646365               0.000000000              -0.318542033               0.426984773               0.000000000              -0.337361355               0.451323182               0.000000000              -0.356180678               0.475661591               0.000000000              -0.375000000               0.500000000               0.000000000              -0.062695766               0.117295528               0.000000000              -0.078308531               0.141214558               0.000000000              -0.093921295               0.165133587               0.000000000              -0.109534060               0.189052617               0.000000000              -0.125146824               0.212971646               0.000000000              -0.140759589               0.236890676               0.000000000              -0.156372354               0.260809705               0.000000000              -0.171985118               0.284728735               0.000000000              -0.187597883               0.308647764               0.000000000              -0.203210648               0.332566794               0.000000000              -0.218823412               0.356485823               0.000000000              -0.234436177               0.380404853               0.000000000              -0.250048941               0.404323882               0.000000000              -0.265661706               0.428242912               0.000000000              -0.281274471               0.452161941               0.000000000              -0.296887235               0.476080971               0.000000000              -0.312500000               0.500000000               0.000000000              -0.050896897               0.122875978               0.000000000              -0.063340840               0.146446229               0.000000000              -0.075784784               0.170016481               0.000000000              -0.088228728               0.193586732               0.000000000              -0.100672672               0.217156983               0.000000000              -0.113116616               0.240727235               0.000000000              -0.125560560               0.264297486               0.000000000              -0.138004504               0.287867738               0.000000000              -0.150448448               0.311437989               0.000000000              -0.162892392               0.335008240               0.000000000              -0.175336336               0.358578492               0.000000000              -0.187780280               0.382148743               0.000000000              -0.200224224               0.405718994               0.000000000              -0.212668168               0.429289246               0.000000000              -0.225112112               0.452859497               0.000000000              -0.237556056               0.476429749               0.000000000              -0.250000000               0.500000000               0.000000000              -0.038607862               0.127273065               0.000000000              -0.047913621               0.150568498               0.000000000              -0.057219379               0.173863932               0.000000000              -0.066525138               0.197159365               0.000000000              -0.075830897               0.220454798               0.000000000              -0.085136655               0.243750232               0.000000000              -0.094442414               0.267045665               0.000000000              -0.103748172               0.290341099               0.000000000              -0.113053931               0.313636532               0.000000000              -0.122359690               0.336931966               0.000000000              -0.131665448               0.360227399               0.000000000              -0.140971207               0.383522833               0.000000000              -0.150276966               0.406818266               0.000000000              -0.159582724               0.430113700               0.000000000              -0.168888483               0.453409133               0.000000000              -0.178194241               0.476704567               0.000000000              -0.187500000               0.500000000               0.000000000              -0.025947013               0.130444442               0.000000000              -0.032137825               0.153541665               0.000000000              -0.038328636               0.176638887               0.000000000              -0.044519448               0.199736109               0.000000000              -0.050710260               0.222833332               0.000000000              -0.056901071               0.245930554               0.000000000              -0.063091883               0.269027776               0.000000000              -0.069282695               0.292124999               0.000000000              -0.075473506               0.315222221               0.000000000              -0.081664318               0.338319444               0.000000000              -0.087855130               0.361416666               0.000000000              -0.094045942               0.384513888               0.000000000              -0.100236753               0.407611111               0.000000000              -0.106427565               0.430708333               0.000000000              -0.112618377               0.453805555               0.000000000              -0.118809188               0.476902778               0.000000000              -0.125000000               0.500000000               0.000000000              -0.013036280               0.132359569               0.000000000              -0.016127762               0.155337096               0.000000000              -0.019219245               0.178314623               0.000000000              -0.022310727               0.201292150               0.000000000              -0.025402210               0.224269676               0.000000000              -0.028493692               0.247247203               0.000000000              -0.031585175               0.270224730               0.000000000              -0.034676657               0.293202257               0.000000000              -0.037768140               0.316179784               0.000000000              -0.040859622               0.339157311               0.000000000              -0.043951105               0.362134838               0.000000000              -0.047042587               0.385112365               0.000000000              -0.050134070               0.408089892               0.000000000              -0.053225552               0.431067419               0.000000000              -0.056317035               0.454044946               0.000000000              -0.059408517               0.477022473               0.000000000              -0.062500000               0.500000000               0.000000000               0.000000000               0.133000000               0.000000000               0.000000000               0.155937500               0.000000000               0.000000000               0.178875000               0.000000000               0.000000000               0.201812500               0.000000000               0.000000000               0.224750000               0.000000000               0.000000000               0.247687500               0.000000000               0.000000000               0.270625000               0.000000000               0.000000000               0.293562500               0.000000000               0.000000000               0.316500000               0.000000000               0.000000000               0.339437500               0.000000000               0.000000000               0.362375000               0.000000000               0.000000000               0.385312500               0.000000000               0.000000000               0.408250000               0.000000000               0.000000000               0.431187500               0.000000000               0.000000000               0.454125000               0.000000000               0.000000000               0.477062500               0.000000000               0.000000000               0.500000000               0.000000000 </DataArray>
</Points>
<Cells>
<DataArray type="Int32"                                    Name="connectivity"                                                      NumberOfComponents=" 1" format="ascii">
         0          1         18         17          1          2         19         18          2          3         20         19          3          4         21         20          4          5         22         21          5          6         23         22          6          7         24         23          7          8         25         24          8          9         26         25          9         10         27         26         10         11         28         27         11         12         29         28         12         13         30         29         13         14         31         30         14         15         32         31         15         16         33         32         17         18         35         34         18         19         36         35         19         20         37         36         20         21         38         37         21         22         39         38         22         23         40         39         23         24         41         40         24         25         42         41         25         26         43         42         26         27         44         43         27         28         45         44         28         29         46         45         29         30         47         46         30         31         48         47         31         32         49         48         32         33         50         49         34         35         52         51         35         36         53         52         36         37         54         53         37         38         55         54         38         39         56         55         39         40         57         56         40         41         58         57         41         42         59         58         42         43         60         59         43         44         61         60         44         45         62         61         45         46         63         62         46         47         64         63         47         48         65         64         48         49         66         65         49         50         67         66         51         52         69         68         52         53         70         69         53         54         71         70         54         55         72         71         55         56         73         72         56         57         74         73         57         58         75         74         58         59         76         75         59         60         77         76         60         61         78         77         61         62         79         78         62         63         80         79         63         64         81         80         64         65         82         81         65         66         83         82         66         67         84         83         68         69         86         85         69         70         87         86         70         71         88         87         71         72         89         88         72         73         90         89         73         74         91         90         74         75         92         91         75         76         93         92         76         77         94         93         77         78         95         94         78         79         96         95         79         80         97         96         80         81         98         97         81         82         99         98         82         83        100         99         83         84        101        100         85         86        103        102         86         87        104        103         87         88        105        104         88         89        106        105         89         90        107        106         90         91        108        107         91         92        109        108         92         93        110        109         93         94        111        110         94         95        112        111         95         96        113        112         96         97        114        113         97         98        115        114         98         99        116        115         99        100        117        116        100        101        118        117        102        103        120        119        103        104        121        120        104        105        122        121        105        106        123        122        106        107        124        123        107        108        125        124        108        109        126        125        109        110        127        126        110        111        128        127        111        112        129        128        112        113        130        129        113        114        131        130        114        115        132        131        115        116        133        132        116        117        134        133        117        118        135        134        119        120        137        136        120        121        138        137        121        122        139        138        122        123        140        139        123        124        141        140        124        125        142        141        125        126        143        142        126        127        144        143        127        128        145        144        128        129        146        145        129        130        147        146        130        131        148        147        131        132        149        148        132        133        150        149        133        134        151        150        134        135        152        151        136        137        154        153        137        138        155        154        138        139        156        155        139        140        157        156        140        141        158        157        141        142        159        158        142        143        160        159        143        144        161        160        144        145        162        161        145        146        163        162        146        147        164        163        147        148        165        164        148        149        166        165        149        150        167        166        150        151        168        167        151        152        169        168        153        154        171        170        154        155        172        171        155        156        173        172        156        157        174        173        157        158        175        174        158        159        176        175        159        160        177        176        160        161        178        177        161        162        179        178        162        163        180        179        163        164        181        180        164        165        182        181        165        166        183        182        166        167        184        183        167        168        185        184        168        169        186        185        170        171        188        187        171        172        189        188        172        173        190        189        173        174        191        190        174        175        192        191        175        176        193        192        176        177        194        193        177        178        195        194        178        179        196        195        179        180        197        196        180        181        198        197        181        182        199        198        182        183        200        199        183        184        201        200        184        185        202        201        185        186        203        202        187        188        205        204        188        189        206        205        189        190        207        206        190        191        208        207        191        192        209        208        192        193        210        209        193        194        211        210        194        195        212        211        195        196        213        212        196        197        214        213        197        198        215        214        198        199        216        215        199        200        217        216        200        201        218        217        201        202        219        218        202        203        220        219        204        205        222        221        205        206        223        222        206        207        224        223        207        208        225        224        208        209        226        225        209        210        227        226        210        211        228        227        211        212        229        228        212        213        230        229        213        214        231        230        214        215        232        231        215        216        233        232        216        217        234        233        217        218        235        234        218        219        236        235        219        220        237        236        221        222        239        238        222        223        240        239        223        224        241        240        224        225        242        241        225        226        243        242        226        227        244        243        227        228        245        244        228        229        246        245        229        230        247        246        230        231        248        247        231        232        249        248        232        233        250        249        233        234        251        250        234        235        252        251        235        236        253        252        236        237        254        253        238        239        256        255        239        240        257        256        240        241        258        257        241        242        259        258        242        243        260        259        243        244        261        260        244        245        262        261        245        246        263        262        246        247        264        263        247        248        265        264        248        249        266        265        249        250        267        266        250        251        268        267        251        252        269        268        252        253        270        269        253        254        271        270        255        256        273        272        256        257        274        273        257        258        275        274        258        259        276        275        259        260        277        276        260        261        278        277        261        262        279        278        262        263        280        279        263        264        281        280        264        265        282        281        265        266        283        282        266        267        284        283        267        268        285        284        268        269        286        285        269        270        287        286        270        271        288        287        306        307          1          0        307        308          2          1        308        309          3          2        309        310          4          3        310        311          5          4        311        312          6          5        312        313          7          6        313        314          8          7        314        315          9          8        315        316         10          9        316        317         11         10        317        318         12         11        318        319         13         12        319        320         14         13        320        321         15         14        321        322         16         15        323        324        307        306        324        325        308        307        325        326        309        308        326        327        310        309        327        328        311        310        328        329        312        311        329        330        313        312        330        331        314        313        331        332        315        314        332        333        316        315        333        334        317        316        334        335        318        317        335        336        319        318        336        337        320        319        337        338        321        320        338        339        322        321        340        341        324        323        341        342        325        324        342        343        326        325        343        344        327        326        344        345        328        327        345        346        329        328        346        347        330        329        347        348        331        330        348        349        332        331        349        350        333        332        350        351        334        333        351        352        335        334        352        353        336        335        353        354        337        336        354        355        338        337        355        356        339        338        357        358        341        340        358        359        342        341        359        360        343        342        360        361        344        343        361        362        345        344        362        363        346        345        363        364        347        346        364        365        348        347        365        366        349        348        366        367        350        349        367        368        351        350        368        369        352        351        369        370        353        352        370        371        354        353        371        372        355        354        372        373        356        355        374        375        358        357        375        376        359        358        376        377        360        359        377        378        361        360        378        379        362        361        379        380        363        362        380        381        364        363        381        382        365        364        382        383        366        365        383        384        367        366        384        385        368        367        385        386        369        368        386        387        370        369        387        388        371        370        388        389        372        371        389        390        373        372        391        392        375        374        392        393        376        375        393        394        377        376        394        395        378        377        395        396        379        378        396        397        380        379        397        398        381        380        398        399        382        381        399        400        383        382        400        401        384        383        401        402        385        384        402        403        386        385        403        404        387        386        404        405        388        387        405        406        389        388        406        407        390        389        408        409        392        391        409        410        393        392        410        411        394        393        411        412        395        394        412        413        396        395        413        414        397        396        414        415        398        397        415        416        399        398        416        417        400        399        417        418        401        400        418        419        402        401        419        420        403        402        420        421        404        403        421        422        405        404        422        423        406        405        423        424        407        406        425        426        409        408        426        427        410        409        427        428        411        410        428        429        412        411        429        430        413        412        430        431        414        413        431        432        415        414        432        433        416        415        433        434        417        416        434        435        418        417        435        436        419        418        436        437        420        419        437        438        421        420        438        439        422        421        439        440        423        422        440        441        424        423        442        443        426        425        443        444        427        426        444        445        428        427        445        446        429        428        446        447        430        429        447        448        431        430        448        449        432        431        449        450        433        432        450        451        434        433        451        452        435        434        452        453        436        435        453        454        437        436        454        455        438        437        455        456        439        438        456        457        440        439        457        458        441        440        459        460        443        442        460        461        444        443        461        462        445        444        462        463        446        445        463        464        447        446        464        465        448        447        465        466        449        448        466        467        450        449        467        468        451        450        468        469        452        451        469        470        453        452        470        471        454        453        471        472        455        454        472        473        456        455        473        474        457        456        474        475        458        457        476        477        460        459        477        478        461        460        478        479        462        461        479        480        463        462        480        481        464        463        481        482        465        464        482        483        466        465        483        484        467        466        484        485        468        467        485        486        469        468        486        487        470        469        487        488        471        470        488        489        472        471        489        490        473        472        490        491        474        473        491        492        475        474        493        494        477        476        494        495        478        477        495        496        479        478        496        497        480        479        497        498        481        480        498        499        482        481        499        500        483        482        500        501        484        483        501        502        485        484        502        503        486        485        503        504        487        486        504        505        488        487        505        506        489        488        506        507        490        489        507        508        491        490        508        509        492        491        510        511        494        493        511        512        495        494        512        513        496        495        513        514        497        496        514        515        498        497        515        516        499        498        516        517        500        499        517        518        501        500        518        519        502        501        519        520        503        502        520        521        504        503        521        522        505        504        522        523        506        505        523        524        507        506        524        525        508        507        525        526        509        508        527        528        511        510        528        529        512        511        529        530        513        512        530        531        514        513        531        532        515        514        532        533        516        515        533        534        517        516        534        535        518        517        535        536        519        518        536        537        520        519        537        538        521        520        538        539        522        521        539        540        523        522        540        541        524        523        541        542        525        524        542        543        526        525        544        545        528        527        545        546        529        528        546        547        530        529        547        548        531        530        548        549        532        531        549        550        533        532        550        551        534        533        551        552        535        534        552        553        536        535        553        554        537        536        554        555        538        537        555        556        539        538        556        557        540        539        557        558        541        540        558        559        542        541        559        560        543        542        561        562        545        544        562        563        546        545        563        564        547        546        564        565        548        547        565        566        549        548        566        567        550        549        567        568        551        550        568        569        552        551        569        570        553        552        570        571        554        553        571        572        555        554        572        573        556        555        573        574        557        556        574        575        558        557        575        576        559        558        576        577        560        559        578        579        596        595        579        580        597        596        580        581        598        597        581        582        599        598        582        583        600        599        583        584        601        600        584        585        602        601        585        586        603        602        586        587        604        603        587        588        605        604        588        589        606        605        589        590        607        606        590        591        608        607        591        592        609        608        592        593        610        609        593        594        611        610        595        596        613        612        596        597        614        613        597        598        615        614        598        599        616        615        599        600        617        616        600        601        618        617        601        602        619        618        602        603        620        619        603        604        621        620        604        605        622        621        605        606        623        622        606        607        624        623        607        608        625        624        608        609        626        625        609        610        627        626        610        611        628        627        612        613        630        629        613        614        631        630        614        615        632        631        615        616        633        632        616        617        634        633        617        618        635        634        618        619        636        635        619        620        637        636        620        621        638        637        621        622        639        638        622        623        640        639        623        624        641        640        624        625        642        641        625        626        643        642        626        627        644        643        627        628        645        644        629        630        647        646        630        631        648        647        631        632        649        648        632        633        650        649        633        634        651        650        634        635        652        651        635        636        653        652        636        637        654        653        637        638        655        654        638        639        656        655        639        640        657        656        640        641        658        657        641        642        659        658        642        643        660        659        643        644        661        660        644        645        662        661        646        647        664        663        647        648        665        664        648        649        666        665        649        650        667        666        650        651        668        667        651        652        669        668        652        653        670        669        653        654        671        670        654        655        672        671        655        656        673        672        656        657        674        673        657        658        675        674        658        659        676        675        659        660        677        676        660        661        678        677        661        662        679        678        663        664        681        680        664        665        682        681        665        666        683        682        666        667        684        683        667        668        685        684        668        669        686        685        669        670        687        686        670        671        688        687        671        672        689        688        672        673        690        689        673        674        691        690        674        675        692        691        675        676        693        692        676        677        694        693        677        678        695        694        678        679        696        695        680        681        698        697        681        682        699        698        682        683        700        699        683        684        701        700        684        685        702        701        685        686        703        702        686        687        704        703        687        688        705        704        688        689        706        705        689        690        707        706        690        691        708        707        691        692        709        708        692        693        710        709        693        694        711        710        694        695        712        711        695        696        713        712        697        698        715        714        698        699        716        715        699        700        717        716        700        701        718        717        701        702        719        718        702        703        720        719        703        704        721        720        704        705        722        721        705        706        723        722        706        707        724        723        707        708        725        724        708        709        726        725        709        710        727        726        710        711        728        727        711        712        729        728        712        713        730        729        714        715        732        731        715        716        733        732        716        717        734        733        717        718        735        734        718        719        736        735        719        720        737        736        720        721        738        737        721        722        739        738        722        723        740        739        723        724        741        740        724        725        742        741        725        726        743        742        726        727        744        743        727        728        745        744        728        729        746        745        729        730        747        746        731        732        749        748        732        733        750        749        733        734        751        750        734        735        752        751        735        736        753        752        736        737        754        753        737        738        755        754        738        739        756        755        739        740        757        756        740        741        758        757        741        742        759        758        742        743        760        759        743        744        761        760        744        745        762        761        745        746        763        762        746        747        764        763        748        749        766        765        749        750        767        766        750        751        768        767        751        752        769        768        752        753        770        769        753        754        771        770        754        755        772        771        755        756        773        772        756        757        774        773        757        758        775        774        758        759        776        775        759        760        777        776        760        761        778        777        761        762        779        778        762        763        780        779        763        764        781        780        765        766        783        782        766        767        784        783        767        768        785        784        768        769        786        785        769        770        787        786        770        771        788        787        771        772        789        788        772        773        790        789        773        774        791        790        774        775        792        791        775        776        793        792        776        777        794        793        777        778        795        794        778        779        796        795        779        780        797        796        780        781        798        797        782        783        800        799        783        784        801        800        784        785        802        801        785        786        803        802        786        787        804        803        787        788        805        804        788        789        806        805        789        790        807        806        790        791        808        807        791        792        809        808        792        793        810        809        793        794        811        810        794        795        812        811        795        796        813        812        796        797        814        813        797        798        815        814        799        800        817        816        800        801        818        817        801        802        819        818        802        803        820        819        803        804        821        820        804        805        822        821        805        806        823        822        806        807        824        823        807        808        825        824        808        809        826        825        809        810        827        826        810        811        828        827        811        812        829        828        812        813        830        829        813        814        831        830        814        815        832        831        816        817        834        833        817        818        835        834        818        819        836        835        819        820        837        836        820        821        838        837        821        822        839        838        822        823        840        839        823        824        841        840        824        825        842        841        825        826        843        842        826        827        844        843        827        828        845        844        828        829        846        845        829        830        847        846        830        831        848        847        831        832        849        848        833        834        562        561        834        835        563        562        835        836        564        563        836        837        565        564        837        838        566        565        838        839        567        566        839        840        568        567        840        841        569        568        841        842        570        569        842        843        571        570        843        844        572        571        844        845        573        572        845        846        574        573        846        847        575        574        847        848        576        575        848        849        577        576        884        885        579        578        885        886        580        579        886        887        581        580        887        888        582        581        888        889        583        582        889        890        584        583        890        891        585        584        891        892        586        585        892        893        587        586        893        894        588        587        894        895        589        588        895        896        590        589        896        897        591        590        897        898        592        591        898        899        593        592        899        900        594        593        901        902        885        884        902        903        886        885        903        904        887        886        904        905        888        887        905        906        889        888        906        907        890        889        907        908        891        890        908        909        892        891        909        910        893        892        910        911        894        893        911        912        895        894        912        913        896        895        913        914        897        896        914        915        898        897        915        916        899        898        916        917        900        899        918        919        902        901        919        920        903        902        920        921        904        903        921        922        905        904        922        923        906        905        923        924        907        906        924        925        908        907        925        926        909        908        926        927        910        909        927        928        911        910        928        929        912        911        929        930        913        912        930        931        914        913        931        932        915        914        932        933        916        915        933        934        917        916        935        936        919        918        936        937        920        919        937        938        921        920        938        939        922        921        939        940        923        922        940        941        924        923        941        942        925        924        942        943        926        925        943        944        927        926        944        945        928        927        945        946        929        928        946        947        930        929        947        948        931        930        948        949        932        931        949        950        933        932        950        951        934        933        952        953        936        935        953        954        937        936        954        955        938        937        955        956        939        938        956        957        940        939        957        958        941        940        958        959        942        941        959        960        943        942        960        961        944        943        961        962        945        944        962        963        946        945        963        964        947        946        964        965        948        947        965        966        949        948        966        967        950        949        967        968        951        950        969        970        953        952        970        971        954        953        971        972        955        954        972        973        956        955        973        974        957        956        974        975        958        957        975        976        959        958        976        977        960        959        977        978        961        960        978        979        962        961        979        980        963        962        980        981        964        963        981        982        965        964        982        983        966        965        983        984        967        966        984        985        968        967        986        987        970        969        987        988        971        970        988        989        972        971        989        990        973        972        990        991        974        973        991        992        975        974        992        993        976        975        993        994        977        976        994        995        978        977        995        996        979        978        996        997        980        979        997        998        981        980        998        999        982        981        999       1000        983        982       1000       1001        984        983       1001       1002        985        984       1003       1004        987        986       1004       1005        988        987       1005       1006        989        988       1006       1007        990        989       1007       1008        991        990       1008       1009        992        991       1009       1010        993        992       1010       1011        994        993       1011       1012        995        994       1012       1013        996        995       1013       1014        997        996       1014       1015        998        997       1015       1016        999        998       1016       1017       1000        999       1017       1018       1001       1000       1018       1019       1002       1001       1020       1021       1004       1003       1021       1022       1005       1004       1022       1023       1006       1005       1023       1024       1007       1006       1024       1025       1008       1007       1025       1026       1009       1008       1026       1027       1010       1009       1027       1028       1011       1010       1028       1029       1012       1011       1029       1030       1013       1012       1030       1031       1014       1013       1031       1032       1015       1014       1032       1033       1016       1015       1033       1034       1017       1016       1034       1035       1018       1017       1035       1036       1019       1018       1037       1038       1021       1020       1038       1039       1022       1021       1039       1040       1023       1022       1040       1041       1024       1023       1041       1042       1025       1024       1042       1043       1026       1025       1043       1044       1027       1026       1044       1045       1028       1027       1045       1046       1029       1028       1046       1047       1030       1029       1047       1048       1031       1030       1048       1049       1032       1031       1049       1050       1033       1032       1050       1051       1034       1033       1051       1052       1035       1034       1052       1053       1036       1035       1054       1055       1038       1037       1055       1056       1039       1038       1056       1057       1040       1039       1057       1058       1041       1040       1058       1059       1042       1041       1059       1060       1043       1042       1060       1061       1044       1043       1061       1062       1045       1044       1062       1063       1046       1045       1063       1064       1047       1046       1064       1065       1048       1047       1065       1066       1049       1048       1066       1067       1050       1049       1067       1068       1051       1050       1068       1069       1052       1051       1069       1070       1053       1052       1071       1072       1055       1054       1072       1073       1056       1055       1073       1074       1057       1056       1074       1075       1058       1057       1075       1076       1059       1058       1076       1077       1060       1059       1077       1078       1061       1060       1078       1079       1062       1061       1079       1080       1063       1062       1080       1081       1064       1063       1081       1082       1065       1064       1082       1083       1066       1065       1083       1084       1067       1066       1084       1085       1068       1067       1085       1086       1069       1068       1086       1087       1070       1069       1088       1089       1072       1071       1089       1090       1073       1072       1090       1091       1074       1073       1091       1092       1075       1074       1092       1093       1076       1075       1093       1094       1077       1076       1094       1095       1078       1077       1095       1096       1079       1078       1096       1097       1080       1079       1097       1098       1081       1080       1098       1099       1082       1081       1099       1100       1083       1082       1100       1101       1084       1083       1101       1102       1085       1084       1102       1103       1086       1085       1103       1104       1087       1086       1105       1106       1089       1088       1106       1107       1090       1089       1107       1108       1091       1090       1108       1109       1092       1091       1109       1110       1093       1092       1110       1111       1094       1093       1111       1112       1095       1094       1112       1113       1096       1095       1113       1114       1097       1096       1114       1115       1098       1097       1115       1116       1099       1098       1116       1117       1100       1099       1117       1118       1101       1100       1118       1119       1102       1101       1119       1120       1103       1102       1120       1121       1104       1103       1122       1123       1106       1105       1123       1124       1107       1106       1124       1125       1108       1107       1125       1126       1109       1108       1126       1127       1110       1109       1127       1128       1111       1110       1128       1129       1112       1111       1129       1130       1113       1112       1130       1131       1114       1113       1131       1132       1115       1114       1132       1133       1116       1115       1133       1134       1117       1116       1134       1135       1118       1117       1135       1136       1119       1118       1136       1137       1120       1119       1137       1138       1121       1120        272        273       1123       1122        273        274       1124       1123        274        275       1125       1124        275        276       1126       1125        276        277       1127       1126        277        278       1128       1127        278        279       1129       1128        279        280       1130       1129        280        281       1131       1130        281        282       1132       1131        282        283       1133       1132        283        284       1134       1133        284        285       1135       1134        285        286       1136       1135        286        287       1137       1136        287        288       1138       1137 </DataArray>
<DataArray type="Int32"                                    Name="offsets"                                                      NumberOfComponents=" 1" format="ascii">
         4          8         12         16         20         24         28         32         36         40         44         48         52         56         60         64         68         72         76         80         84         88         92         96        100        104        108        112        116        120        124        128        132        136        140        144        148        152        156        160        164        168        172        176        180        184        188        192        196        200        204        208        212        216        220        224        228        232        236        240        244        248        252        256        260        264        268        272        276        280        284        288        292        296        300        304        308        312        316        320        324        328        332        336        340        344        348        352        356        360        364        368        372        376        380        384        388        392        396        400        404        408        412        416        420        424        428        432        436        440        444        448        452        456        460        464        468        472        476        480        484        488        492        496        500        504        508        512        516        520        524        528        532        536        540        544        548        552        556        560        564        568        572        576        580        584        588        592        596        600        604        608        612        616        620        624        628        632        636        640        644        648        652        656        660        664        668        672        676        680        684        688        692        696        700        704        708        712        716        720        724        728        732        736        740        744        748        752        756        760        764        768        772        776        780        784        788        792        796        800        804        808        812        816        820        824        828        832        836        840        844        848        852        856        860        864        868        872        876        880        884        888        892        896        900        904        908        912        916        920        924        928        932        936        940        944        948        952        956        960        964        968        972        976        980        984        988        992        996       1000       1004       1008       1012       1016       1020       1024       1028       1032       1036       1040       1044       1048       1052       1056       1060       1064       1068       1072       1076       1080       1084       1088       1092       1096       1100       1104       1108       1112       1116       1120       1124       1128       1132       1136       1140       1144       1148       1152       1156       1160       1164       1168       1172       1176       1180       1184       1188       1192       1196       1200       1204       1208       1212       1216       1220       1224       1228       1232       1236       1240       1244       1248       1252       1256       1260       1264       1268       1272       1276       1280       1284       1288       1292       1296       1300       1304       1308       1312       1316       1320       1324       1328       1332       1336       1340       1344       1348       1352       1356       1360       1364       1368       1372       1376       1380       1384       1388       1392       1396       1400       1404       1408       1412       1416       1420       1424       1428       1432       1436       1440       1444       1448       1452       1456       1460       1464       1468       1472       1476       1480       1484       1488       1492       1496       1500       1504       1508       1512       1516       1520       1524       1528       1532       1536       1540       1544       1548       1552       1556       1560       1564       1568       1572       1576       1580       1584       1588       1592       1596       1600       1604       1608       1612       1616       1620       1624       1628       1632       1636       1640       1644       1648       1652       1656       1660       1664       1668       1672       1676       1680       1684       1688       1692       1696       1700       1704       1708       1712       1716       1720       1724       1728       1732       1736       1740       1744       1748       1752       1756       1760       1764       1768       1772       1776       1780       1784       1788       1792       1796       1800       1804       1808       1812       1816       1820       1824       1828       1832       1836       1840       1844       1848       1852       1856       1860       1864       1868       1872       1876       1880       1884       1888       1892       1896       1900       1904       1908       1912       1916       1920       1924       1928       1932       1936       1940       1944       1948       1952       1956       1960       1964       1968       1972       1976       1980       1984       1988       1992       1996       2000       2004       2008       2012       2016       2020       2024       2028       2032       2036       2040       2044       2048       2052       2056       2060       2064       2068       2072       2076       2080       2084       2088       2092       2096       2100       2104       2108       2112       2116       2120       2124       2128       2132       2136       2140       2144       2148       2152       2156       2160       2164       2168       2172       2176       2180       2184       2188       2192       2196       2200       2204       2208       2212       2216       2220       2224       2228       2232       2236       2240       2244       2248       2252       2256       2260       2264       2268       2272       2276       2280       2284       2288       2292       2296       2300       2304       2308       2312       2316       2320       2324       2328       2332       2336       2340       2344       2348       2352       2356       2360       2364       2368       2372       2376       2380       2384       2388       2392       2396       2400       2404       2408       2412       2416       2420       2424       2428       2432       2436       2440       2444       2448       2452       2456       2460       2464       2468       2472       2476       2480       2484       2488       2492       2496       2500       2504       2508       2512       2516       2520       2524       2528       2532       2536       2540       2544       2548       2552       2556       2560       2564       2568       2572       2576       2580       2584       2588       2592       2596       2600       2604       2608       2612       2616       2620       2624       2628       2632       2636       2640       2644       2648       2652       2656       2660       2664       2668       2672       2676       2680       2684       2688       2692       2696       2700       2704       2708       2712       2716       2720       2724       2728       2732       2736       2740       2744       2748       2752       2756       2760       2764       2768       2772       2776       2780       2784       2788       2792       2796       2800       2804       2808       2812       2816       2820       2824       2828       2832       2836       2840       2844       2848       2852       2856       2860       2864       2868       2872       2876       2880       2884       2888       2892       2896       2900       2904       2908       2912       2916       2920       2924       2928       2932       2936       2940       2944       2948       2952       2956       2960       2964       2968       2972       2976       2980       2984       2988       2992       2996       3000       3004       3008       3012       3016       3020       3024       3028       3032       3036       3040       3044       3048       3052       3056       3060       3064       3068       3072       3076       3080       3084       3088       3092       3096       3100       3104       3108       3112       3116       3120       3124       3128       3132       3136       3140       3144       3148       3152       3156       3160       3164       3168       3172       3176       3180       3184       3188       3192       3196       3200       3204       3208       3212       3216       3220       3224       3228       3232       3236       3240       3244       3248       3252       3256       3260       3264       3268       3272       3276       3280       3284       3288       3292       3296       3300       3304       3308       3312       3316       3320       3324       3328       3332       3336       3340       3344       3348       3352       3356       3360       3364       3368       3372       3376       3380       3384       3388       3392       3396       3400       3404       3408       3412       3416       3420       3424       3428       3432       3436       3440       3444       3448       3452       3456       3460       3464       3468       3472       3476       3480       3484       3488       3492       3496       3500       3504       3508       3512       3516       3520       3524       3528       3532       3536       3540       3544       3548       3552       3556       3560       3564       3568       3572       3576       3580       3584       3588       3592       3596       3600       3604       3608       3612       3616       3620       3624       3628       3632       3636       3640       3644       3648       3652       3656       3660       3664       3668       3672       3676       3680       3684       3688       3692       3696       3700       3704       3708       3712       3716       3720       3724       3728       3732       3736       3740       3744       3748       3752       3756       3760       3764       3768       3772       3776       3780       3784       3788       3792       3796       3800       3804       3808       3812       3816       3820       3824       3828       3832       3836       3840       3844       3848       3852       3856       3860       3864       3868       3872       3876       3880       3884       3888       3892       3896       3900       3904       3908       3912       3916       3920       3924       3928       3932       3936       3940       3944       3948       3952       3956       3960       3964       3968       3972       3976       3980       3984       3988       3992       3996       4000       4004       4008       4012       4016       4020       4024       4028       4032       4036       4040       4044       4048       4052       4056       4060       4064       4068       4072       4076       4080       4084       4088       4092       4096 </DataArray>
<DataArray type="UInt8"                                    Name="types"                                                      NumberOfComponents=" 1" format="ascii">
         9          9          9          9          9          9          9          9          9          9          9          9          9          9          9          9          9          9          9          9          9          9          9          9          9          9          9          9          9          9          9          9          9          9          9          9          9          9          9          9          9          9          9          9          9          9          9          9          9          9          9          9          9          9          9          9          9          9          9          9          9          9          9          9          9          9          9          9          9          9          9          9          9          9          9          9          9          9          9          9          9          9          9          9          9          9          9          9          9          9          9          9          9          9          9          9          9          9          9          9          9          9          9          9          9          9          9          9          9          9          9          9          9          9          9          9          9          9          9          9          9          9          9          9          9          9          9          9          9          9          9          9          9          9          9          9          9          9          9          9          9          9          9          9          9          9          9          9          9          9          9          9          9          9          9          9          9          9          9          9          9          9          9          9          9          9          9          9          9          9          9          9          9          9          9          9          9          9          9          9          9          9          9          9          9          9          9          9          9          9          9          9          9          9          9          9          9          9          9          9          9          9          9          9          9          9          9          9          9          9          9          9          9          9          9          9          9          9          9          9          9          9          9          9          9          9          9          9          9          9          9          9          9          9          9          9          9          9          9          9          9          9          9          9          9          9          9          9          9          9          9          9          9          9          9          9          9          9          9          9          9          9          9          9          9          9          9          9          9          9          9          9          9          9          9          9          9          9          9          9          9          9          9          9          9          9          9          9          9          9          9          9          9          9          9          9          9          9          9          9          9          9          9          9          9          9          9          9          9          9          9          9          9          9          9          9          9          9          9          9          9          9          9          9          9          9          9          9          9          9          9          9          9          9          9          9          9          9          9          9          9          9          9          9          9          9          9          9          9          9          9          9          9          9          9          9          9          9          9          9          9          9          9          9          9          9          9          9          9          9          9          9          9          9          9          9          9          9          9          9          9          9          9          9          9          9          9          9          9          9          9          9          9          9          9          9          9          9          9          9          9          9          9          9          9          9          9          9          9          9          9          9          9          9          9          9          9          9          9          9          9          9          9          9          9          9          9          9          9          9          9          9          9          9          9          9          9          9          9          9          9          9          9          9          9          9          9          9          9          9          9          9          9          9          9          9          9          9          9          9          9          9          9          9          9          9          9          9          9          9          9          9          9          9          9          9          9          9          9          9          9          9          9          9          9          9          9          9          9          9          9          9          9          9          9          9          9          9          9          9          9          9          9          9          9          9          9          9          9          9          9          9          9          9          9          9          9          9          9          9          9          9          9          9          9          9          9          9          9          9          9          9          9          9          9          9          9          9          9          9          9          9          9          9          9          9          9          9          9          9          9          9          9          9          9          9          9          9          9          9          9          9          9          9          9          9          9          9          9          9          9          9          9          9          9          9          9          9          9          9          9          9          9          9          9          9          9          9          9          9          9          9          9          9          9          9          9          9          9          9          9          9          9          9          9          9          9          9          9          9          9          9          9          9          9          9          9          9          9          9          9          9          9          9          9          9          9          9          9          9          9          9          9          9          9          9          9          9          9          9          9          9          9          9          9          9          9          9          9          9          9          9          9          9          9          9          9          9          9          9          9          9          9          9          9          9          9          9          9          9          9          9          9          9          9          9          9          9          9          9          9          9          9          9          9          9          9          9          9          9          9          9          9          9          9          9          9          9          9          9          9          9          9          9          9          9          9          9          9          9          9          9          9          9          9          9          9          9          9          9          9          9          9          9          9          9          9          9          9          9          9          9          9          9          9          9          9          9          9          9          9          9          9          9          9          9          9          9          9          9          9          9          9          9          9          9          9          9          9          9          9          9          9          9          9          9          9          9          9          9          9          9          9          9          9          9          9          9          9          9          9          9          9          9          9          9          9          9          9          9          9          9          9          9          9          9          9          9          9          9          9          9          9          9          9          9          9          9          9          9          9          9          9          9          9          9          9          9          9          9          9          9          9          9          9          9          9          9          9          9          9          9          9          9          9          9          9          9          9          9          9          9          9          9          9          9          9          9          9          9          9          9          9          9          9          9          9          9          9          9          9          9          9          9          9          9          9          9          9          9          9          9          9          9          9          9          9          9          9          9          9          9          9          9          9          9          9          9          9          9          9          9          9          9          9          9          9          9          9          9          9          9          9          9          9          9          9          9          9          9          9          9          9          9          9          9          9          9          9          9          9          9          9          9          9          9          9          9          9          9          9          9          9          9          9          9          9          9          9          9          9          9          9          9          9          9          9          9          9          9          9          9          9          9          9          9          9          9          9          9          9          9          9          9          9          9          9          9          9          9          9          9          9          9          9          9          9          9          9          9          9          9          9          9          9          9          9          9          9          9          9          9          9          9          9          9          9          9          9          9          9          9          9          9          9          9          9          9          9          9          9          9          9          9          9          9          9          9          9          9          9          9          9          9 </DataArray>
</Cells>
<CellData>
<DataArray type="Int32"                                    Name="material"                                                      NumberOfComponents=" 1" format="ascii">
         1          1          1          1          1          1          1          1          1          1          1          1          1          1          1          1          1          1          1          1          1          1          1          1          1          1          1          1          1          1          1          1          1          1          1          1          1          1          1          1          1          1          1          1          1          1          1          1          1          1          1          1          1          1          1          1          1          1          1          1          1          1          1          1          1          1          1          1          1          1          1          1          1          1          1          1          1          1          1          1          1          1          1          1          1          1          1          1          1          1          1          1          1          1          1          1          1          1          1          1          1          1          1          1          1          1          1          1          1          1          1          1          1          1          1          1          1          1          1          1          1          1          1          1          1          1          1          1          1          1          1          1          1          1          1          1          1          1          1          1          1          1          1          1          1          1          1          1          1          1          1          1          1          1          1          1          1          1          1          1          1          1          1          1          1          1          1          1          1          1          1          1          1          1          1          1          1          1          1          1          1          1          1          1          1          1          1          1          1          1          1          1          1          1          1          1          1          1          1          1          1          1          1          1          1          1          1          1          1          1          1          1          1          1          1          1          1          1          1          1          1          1          1          1          1          1          1          1          1          1          1          1          1          1          1          1          1          1          1          1          1          1          1          1          1          1          1          1          1          1          1          1          1          1          1          1          1          1          1          1          1          1          1          1          1          1          1          1          1          1          1          1          1          1          1          1          1          1          1          1          1          1          1          1          1          1          1          1          1          1          1          1          1          1          1          1          1          1          1          1          1          1          1          1          1          1          1          1          1          1          1          1          1          1          1          1          1          1          1          1          1          1          1          1          1          1          1          1          1          1          1          1          1          1          1          1          1          1          1          1          1          1          1          1          1          1          1          1          1          1          1          1          1          1          1          1          1          1          1          1          1          1          1          1          1          1          1          1          1          1          1          1          1          1          1          1          1          1          1          1          1          1          1          1          1          1          1          1          1          1          1          1          1          1          1          1          1          1          1          1          1          1          1          1          1          1          1          1          1          1          1          1          1          1          1          1          1          1          1          1          1          1          1          1          1          1          1          1          1          1          1          1          1          1          1          1          1          1          1          1          1          1          1          1          1          1          1          1          1          1          1          1          1          1          1          1          1          1          1          1          1          1          1          1          1          1          1          1          1          1          1          1          1          1          1          1          1          1          1          1          1          1          1          1          1          1          1          1          1          1          1          1          1          1          1          1          1          1          1          1          1          1          1          1          1          1          1          1          1          1          1          1          1          1          1          1          1          1          1          1          1          1          1          1          1          1          1          1          1          1          1          1          1          1          1          1          1          1          1          1          1          1          1          1          1          1          1          1          1          1          1          1          1          1          1          1          1          1          1          1          1          1          1          1          1          1          1          1          1          1          1          1          1          1          1          1          1          1          1          1          1          1          1          1          1          1          1          1          1          1          1          1          1          1          1          1          1          1          1          1          1          1          1          1          1          1          1          1          1          1          1          1          1          1          1          1          1          1          1          1          1          1          1          1          1          1          1          1          1          1          1          1          1          1          1          1          1          1          1          1          1          1          1          1          1          1          1          1          1          1          1          1          1          1          1          1          1          1          1          1          1          1          1          1          1          1          1          1          1          1          1          1          1          1          1          1          1          1          1          1          1          1          1          1          1          1          1          1          1          1          1          1          1          1          1          1          1          1          1          1          1          1          1          1          1          1          1          1          1          1          1          1          1          1          1          1          1          1          1          1          1          1          1          1          1          1          1          1          1          1          1          1          1          1          1          1          1          1          1          1          1          1          1          1          1          1          1          1          1          1          1          1          1          1          1          1          1          1          1          1          1          1          1          1          1          1          1          1          1          1          1          1          1          1          1          1          1          1          1          1          1          1          1          1          1          1          1          1          1          1          1          1          1          1          1          1          1          1          1          1          1          1          1          1          1          1          1          1          1          1          1          1          1          1          1          1          1          1          1          1          1          1          1          1          1          1          1          1          1          1          1          1          1          1          1          1          1          1          1          1          1          1          1          1          1          1          1          1          1          1          1          1          1          1          1          1          1          1          1          1          1          1          1          1          1          1          1          1          1          1          1          1          1          1          1          1          1          1          1          1          1          1          1          1          1          1          1          1          1          1          1          1          1          1          1          1          1          1          1          1          1          1          1          1          1          1          1          1          1          1          1          1          1          1          1          1          1          1          1          1          1          1          1          1          1          1          1          1          1          1          1          1          1          1          1          1          1          1          1          1          1          1          1          1          1          1          1          1          1          1          1          1          1          1          1          1          1          1          1          1          1          1          1          1          1          1          1          1          1          1          1          1          1          1          1          1          1          1          1          1          1          1          1          1          1          1          1          1          1          1          1          1          1          1          1          1          1          1          1          1          1          1          1          1          1          1          1          1          1          1          1          1          1          1          1          1          1          1          1          1          1          1          1          1 </DataArray>
</CellData>
<PointData>
<DataArray type="Float64"                                    Name="u"                                                      NumberOfComponents=" 3" format="ascii">
              0.000006024               0.000000000               0.999999999               0.000002583               0.000000000               0.999999999               0.000000905               0.000000000               0.999999999               0.000000079               0.000000000               0.999999999              -0.000000363               0.000000000               0.999999999              -0.000000522               0.000000000               0.999999999              -0.000000477              -0.000000000               0.999999999              -0.000000404               0.000000000               0.999999999              -0.000000379              -0.000000000               0.999999999              -0.000000445              -0.000000000               0.999999999              -0.000000602               0.000000000               0.999999999              -0.000000986               0.000000000               0.999999999              -0.000001794               0.000000000               0.999999999              -0.000003024               0.000000000               0.999999999              -0.000004676               0.000000000               0.999999999              -0.000006864               0.000000000               0.999999999              -0.000009629               0.000000000               0.999999999               0.000005916               0.000008396               0.999999999               0.000002603               0.000007747               0.999999999               0.000001010               0.000007700               0.999999999               0.000000159               0.000007957               0.999999999              -0.000000262               0.000008396               0.999999999              -0.000000432               0.000008897               0.999999999              -0.000000506               0.000009560               0.999999999              -0.000000557               0.000010404               0.999999999              -0.000000683               0.000011374               0.999999999              -0.000000957               0.000012364               0.999999999              -0.000001399               0.000013440               0.999999999              -0.000002064               0.000014821               0.999999999              -0.000003057               0.000016375               0.999999999              -0.000004486               0.000018130               0.999999999              -0.000006381               0.000020141               0.999999999              -0.000008778               0.000022382               0.999999999              -0.000011707               0.000024930               0.999999999               0.000005730               0.000016749               0.999999999               0.000002688               0.000015375               0.999999999               0.000001231               0.000015333               0.999999999               0.000000448               0.000015874               0.999999999               0.000000020               0.000016787               0.999999999              -0.000000280               0.000017892               0.999999999              -0.000000587               0.000019347               0.999999999              -0.000001011               0.000021099               0.999999999              -0.000001649               0.000023096               0.999999999              -0.000002432               0.000025087               0.999999999              -0.000003413               0.000027299               0.999999999              -0.000004722               0.000030019               0.999999999              -0.000006405               0.000033029               0.999999999              -0.000008474               0.000036435               0.999999999              -0.000010948               0.000040262               0.999999999              -0.000013889               0.000044464               0.999999999              -0.000017276               0.000049062               0.999999999               0.000005390               0.000024928               0.999999999               0.000002790               0.000022810               0.999999999               0.000001557               0.000022776               0.999999999               0.000000880               0.000023720               0.999999999               0.000000356               0.000025200               0.999999999              -0.000000145               0.000027031               0.999999999              -0.000000802               0.000029451               0.999999999              -0.000001760               0.000032269               0.999999999              -0.000002991               0.000035384               0.999999999              -0.000004460               0.000038443               0.999999999              -0.000006226               0.000041843               0.999999999              -0.000008334               0.000045897               0.999999999              -0.000010745               0.000050356               0.999999999              -0.000013512               0.000055351               0.999999999              -0.000016733               0.000060871               0.999999999              -0.000020394               0.000066874               0.999999999              -0.000024472               0.000073355               0.999999999               0.000004901               0.000032824               0.999999999               0.000002995               0.000029992               0.999999999               0.000001996               0.000030047               0.999999999               0.000001277               0.000031441               0.999999999               0.000000633               0.000033576               0.999999999              -0.000000150               0.000036341               0.999999999              -0.000001313               0.000039827               0.999999999              -0.000002804               0.000043917               0.999999999              -0.000004680               0.000048175               0.999999999              -0.000006841               0.000052495               0.999999999              -0.000009345               0.000057355               0.999999999              -0.000012227               0.000062852               0.999999999              -0.000015522               0.000068882               0.999999999              -0.000019316               0.000075527               0.999999999              -0.000023534               0.000082830               0.999999999              -0.000028212               0.000090732               0.999999999              -0.000033325               0.000099290               0.999999999               0.000004399               0.000040404               0.999999999               0.000003247               0.000036879               0.999999999               0.000002430               0.000037118               0.999999999               0.000001660               0.000039044               0.999999999               0.000000781               0.000041934               0.999999999              -0.000000424               0.000045737               0.999999999              -0.000002106               0.000050502               0.999999999              -0.000004263               0.000055808               0.999999999              -0.000006745               0.000061471               0.999999999              -0.000009531               0.000067285               0.999999999              -0.000012780               0.000073869               0.999999999              -0.000016496               0.000081224               0.999999999              -0.000020714               0.000089265               0.999999999              -0.000025432               0.000098001               0.999999999              -0.000030642               0.000107484               0.999999999              -0.000036377               0.000117748               0.999999999              -0.000042535               0.000128752               0.999999999               0.000003841               0.000047564               0.999999999               0.000003522               0.000043455               0.999999999               0.000002868               0.000043961               0.999999999               0.000001954               0.000046505               0.999999999               0.000000762               0.000050264               0.999999999              -0.000000964               0.000055263               0.999999999              -0.000003313               0.000061291               0.999999999              -0.000006069               0.000068079               0.999999999              -0.000009181               0.000075222               0.999999999              -0.000012619               0.000082965               0.999999999              -0.000016476               0.000091772               0.999999999              -0.000020862               0.000101566               0.999999999              -0.000025847               0.000112103               0.999999999              -0.000031442               0.000123565               0.999999999              -0.000037600               0.000135872               0.999999999              -0.000044259               0.000149017               0.999999999              -0.000051356               0.000162988               0.999999999               0.000003244               0.000054211               0.999999999               0.000003843               0.000049714               0.999999999               0.000003235               0.000050559               0.999999999               0.000002138               0.000053808               0.999999999               0.000000560               0.000058596               0.999999999              -0.000001768               0.000064902               0.999999999              -0.000004726               0.000072402               0.999999999              -0.000008073               0.000080777               0.999999999              -0.000011624               0.000090013               0.999999999              -0.000015478               0.000100187               0.999999999              -0.000019926               0.000111693               0.999999999              -0.000025051               0.000124316               0.999999999              -0.000030831               0.000137841               0.999999999              -0.000037278               0.000152436               0.999999999              -0.000044262               0.000168021               0.999999999              -0.000051729               0.000184391               0.999999999              -0.000059664               0.000201417               0.999999999               0.000002632               0.000060270               0.999999999               0.000004161               0.000055637               0.999999999               0.000003527               0.000056919               0.999999999               0.000002230               0.000060947               0.999999999               0.000000199               0.000066959               0.999999999              -0.000002732               0.000074710               0.999999999              -0.000006164               0.000083977               0.999999999              -0.000009837               0.000094507               0.999999999              -0.000013675               0.000106275               0.999999999              -0.000018093               0.000119264               0.999999999              -0.000023242               0.000133789               0.999999999              -0.000029078               0.000149565               0.999999999              -0.000035577               0.000166415               0.999999999              -0.000042711               0.000184405               0.999999999              -0.000050343               0.000203500               0.999999999              -0.000058432               0.000223423               0.999999999              -0.000066940               0.000244025               0.999999999               0.000001966               0.000065979               0.999999999               0.000004297               0.000061617               0.999999999               0.000004044               0.000062341               0.999999999               0.000002969               0.000065808               0.999999999               0.000001250               0.000071183               0.999999999              -0.000001214               0.000078285               0.999999999              -0.000004174               0.000086923               0.999999999              -0.000007471               0.000096934               0.999999999              -0.000010873               0.000108077               0.999999999              -0.000014342               0.000120396               0.999999999              -0.000018321               0.000133956               0.999999999              -0.000022929               0.000148717               0.999999999              -0.000027967               0.000164443               0.999999999              -0.000033525               0.000181208               0.999999999              -0.000039610               0.000199012               0.999999999              -0.000046056               0.000217886               0.999999999              -0.000052912               0.000237747               0.999999999               0.000001395               0.000071139               0.999999999               0.000004255               0.000067340               0.999999999               0.000004383               0.000067764               0.999999999               0.000003578               0.000070792               0.999999999               0.000002189               0.000075643               0.999999999               0.000000150               0.000082120               0.999999999              -0.000002358               0.000090150               0.999999999              -0.000005293               0.000099579               0.999999999              -0.000008230               0.000110272               0.999999999              -0.000011104               0.000122010               0.999999999              -0.000014131               0.000134748               0.999999999              -0.000017584               0.000148556               0.999999999              -0.000021331               0.000163396               0.999999999              -0.000025403               0.000179130               0.999999999              -0.000029974               0.000195677               0.999999999              -0.000034868               0.000213212               0.999999999              -0.000040253               0.000231748               0.999999999               0.000000928               0.000075630               0.999999999               0.000004016               0.000072634               0.999999999               0.000004464               0.000073026               0.999999999               0.000003951               0.000075729               0.999999999               0.000002834               0.000080170               0.999999999               0.000001215               0.000086146               0.999999999              -0.000000896               0.000093628               0.999999999              -0.000003305               0.000102551               0.999999999              -0.000005818               0.000112791               0.999999999              -0.000008193               0.000124026               0.999999999              -0.000010487               0.000136122               0.999999999              -0.000012973               0.000149174               0.999999999              -0.000015662               0.000163201               0.999999999              -0.000018535               0.000178023               0.999999999              -0.000021655               0.000193662               0.999999999              -0.000025147               0.000210101               0.999999999              -0.000028906               0.000227416               0.999999999               0.000000597               0.000079428               0.999999999               0.000003567               0.000077363               0.999999999               0.000004207               0.000077865               0.999999999               0.000003956               0.000080390               0.999999999               0.000003101               0.000084556               0.999999999               0.000001809               0.000090201               0.999999999               0.000000253               0.000097305               0.999999999              -0.000001627               0.000105841               0.999999999              -0.000003661               0.000115596               0.999999999              -0.000005595               0.000126254               0.999999999              -0.000007391               0.000137825               0.999999999              -0.000009123               0.000150301               0.999999999              -0.000010975               0.000163676               0.999999999              -0.000012900               0.000177872               0.999999999              -0.000014907               0.000192885               0.999999999              -0.000017123               0.000208610               0.999999999              -0.000019386               0.000225077               0.999999999               0.000000347               0.000082431               0.999999999               0.000002881               0.000081294               0.999999999               0.000003603               0.000082034               0.999999999               0.000003529               0.000084538               0.999999999               0.000002890               0.000088543               0.999999999               0.000002018               0.000094034               0.999999999               0.000000887               0.000100872               0.999999999              -0.000000497               0.000108986               0.999999999              -0.000001989               0.000118248               0.999999999              -0.000003426               0.000128474               0.999999999              -0.000004759               0.000139667               0.999999999              -0.000005975               0.000151755               0.999999999              -0.000007204               0.000164699               0.999999999              -0.000008462               0.000178489               0.999999999              -0.000009701               0.000193012               0.999999999              -0.000010870               0.000208216               0.999999999              -0.000012002               0.000224067               0.999999999               0.000000180               0.000084643               0.999999999               0.000002028               0.000084276               0.999999999               0.000002659               0.000085273               0.999999999               0.000002643               0.000087827               0.999999999               0.000002267               0.000091843               0.999999999               0.000001727               0.000097186               0.999999999               0.000000938               0.000103806               0.999999999               0.000000087               0.000111650               0.999999999              -0.000000823               0.000120502               0.999999999              -0.000001786               0.000130421               0.999999999              -0.000002719               0.000141365               0.999999999              -0.000003546               0.000153178               0.999999999              -0.000004285               0.000165792               0.999999999              -0.000005013               0.000179227               0.999999999              -0.000005712               0.000193445               0.999999999              -0.000006271               0.000208354               0.999999999              -0.000006758               0.000223777               0.999999999               0.000000079               0.000085994               0.999999999               0.000001047               0.000086125               0.999999999               0.000001410               0.000087331               0.999999999               0.000001419               0.000089970               0.999999999               0.000001277               0.000093992               0.999999999               0.000000934               0.000099281               0.999999999               0.000000611               0.000105794               0.999999999               0.000000234               0.000113429               0.999999999              -0.000000234               0.000122072               0.999999999              -0.000000747               0.000131825               0.999999999              -0.000001228               0.000142563               0.999999999              -0.000001617               0.000154116               0.999999999              -0.000001960               0.000166518               0.999999999              -0.000002310               0.000179796               0.999999999              -0.000002619               0.000193824               0.999999999              -0.000002837               0.000208519               0.999999999              -0.000003028               0.000223713               0.999999999               0.000000000               0.000086424               0.999999999               0.000000000               0.000086734               0.999999999              -0.000000000               0.000088057               0.999999999              -0.000000000               0.000090734               0.999999999               0.000000000               0.000094720               0.999999999              -0.000000000               0.000100041               0.999999999              -0.000000000               0.000106521               0.999999999              -0.000000000               0.000114011               0.999999999              -0.000000000               0.000122627               0.999999999               0.000000000               0.000132335               0.999999999              -0.000000000               0.000142951               0.999999999               0.000000000               0.000154443               0.999999999               0.000000000               0.000166801               0.999999999              -0.000000000               0.000180004               0.999999999               0.000000000               0.000193954               0.999999999               0.000000000               0.000208564               0.999999999               0.000000000               0.000223680               0.999999999               0.000006024               0.000000000               0.999999999               0.000002583               0.000000000               0.999999999               0.000000905               0.000000000               0.999999999               0.000000079               0.000000000               0.999999999              -0.000000363               0.000000000               0.999999999              -0.000000522               0.000000000               0.999999999              -0.000000477              -0.000000000               0.999999999              -0.000000404               0.000000000               0.999999999              -0.000000379              -0.000000000               0.999999999              -0.000000445              -0.000000000               0.999999999              -0.000000602               0.000000000               0.999999999              -0.000000986               0.000000000               0.999999999              -0.000001794               0.000000000               0.999999999              -0.000003024               0.000000000               0.999999999              -0.000004676               0.000000000               0.999999999              -0.000006864               0.000000000               0.999999999              -0.000009629               0.000000000               0.999999999               0.000005916              -0.000008396               0.999999999               0.000002603              -0.000007747               0.999999999               0.000001010              -0.000007700               0.999999999               0.000000159              -0.000007957               0.999999999              -0.000000262              -0.000008396               0.999999999              -0.000000432              -0.000008897               0.999999999              -0.000000506              -0.000009560               0.999999999              -0.000000557              -0.000010404               0.999999999              -0.000000683              -0.000011374               0.999999999              -0.000000957              -0.000012364               0.999999999              -0.000001399              -0.000013440               0.999999999              -0.000002064              -0.000014821               0.999999999              -0.000003057              -0.000016375               0.999999999              -0.000004486              -0.000018130               0.999999999              -0.000006381              -0.000020141               0.999999999              -0.000008778              -0.000022382               0.999999999              -0.000011707              -0.000024930               0.999999999               0.000005730              -0.000016749               0.999999999               0.000002688              -0.000015375               0.999999999               0.000001231              -0.000015333               0.999999999               0.000000448              -0.000015874               0.999999999               0.000000020              -0.000016787               0.999999999              -0.000000280              -0.000017892               0.999999999              -0.000000587              -0.000019347               0.999999999              -0.000001011              -0.000021099               0.999999999              -0.000001649              -0.000023096               0.999999999              -0.000002432              -0.000025087               0.999999999              -0.000003413              -0.000027299               0.999999999              -0.000004722              -0.000030019               0.999999999              -0.000006405              -0.000033029               0.999999999              -0.000008474              -0.000036435               0.999999999              -0.000010948              -0.000040262               0.999999999              -0.000013889              -0.000044464               0.999999999              -0.000017276              -0.000049062               0.999999999               0.000005390              -0.000024928               0.999999999               0.000002790              -0.000022810               0.999999999               0.000001557              -0.000022776               0.999999999               0.000000880              -0.000023720               0.999999999               0.000000356              -0.000025200               0.999999999              -0.000000145              -0.000027031               0.999999999              -0.000000802              -0.000029451               0.999999999              -0.000001760              -0.000032269               0.999999999              -0.000002991              -0.000035384               0.999999999              -0.000004460              -0.000038443               0.999999999              -0.000006226              -0.000041843               0.999999999              -0.000008334              -0.000045897               0.999999999              -0.000010745              -0.000050356               0.999999999              -0.000013512              -0.000055351               0.999999999              -0.000016733              -0.000060871               0.999999999              -0.000020394              -0.000066874               0.999999999              -0.000024472              -0.000073355               0.999999999               0.000004901              -0.000032824               0.999999999               0.000002995              -0.000029992               0.999999999               0.000001996              -0.000030047               0.999999999               0.000001277              -0.000031441               0.999999999               0.000000633              -0.000033576               0.999999999              -0.000000150              -0.000036341               0.999999999              -0.000001313              -0.000039827               0.999999999              -0.000002804              -0.000043917               0.999999999              -0.000004680              -0.000048175               0.999999999              -0.000006841              -0.000052495               0.999999999              -0.000009345              -0.000057355               0.999999999              -0.000012227              -0.000062852               0.999999999              -0.000015522              -0.000068882               0.999999999              -0.000019316              -0.000075527               0.999999999              -0.000023534              -0.000082830               0.999999999              -0.000028212              -0.000090732               0.999999999              -0.000033325              -0.000099290               0.999999999               0.000004399              -0.000040404               0.999999999               0.000003247              -0.000036879               0.999999999               0.000002430              -0.000037118               0.999999999               0.000001660              -0.000039044               0.999999999               0.000000781              -0.000041934               0.999999999              -0.000000424              -0.000045737               0.999999999              -0.000002106              -0.000050502               0.999999999              -0.000004263              -0.000055808               0.999999999              -0.000006745              -0.000061471               0.999999999              -0.000009531              -0.000067285               0.999999999              -0.000012780              -0.000073869               0.999999999              -0.000016496              -0.000081224               0.999999999              -0.000020714              -0.000089265               0.999999999              -0.000025432              -0.000098001               0.999999999              -0.000030642              -0.000107484               0.999999999              -0.000036377              -0.000117748               0.999999999              -0.000042535              -0.000128752               0.999999999               0.000003841              -0.000047564               0.999999999               0.000003522              -0.000043455               0.999999999               0.000002868              -0.000043961               0.999999999               0.000001954              -0.000046505               0.999999999               0.000000762              -0.000050264               0.999999999              -0.000000964              -0.000055263               0.999999999              -0.000003313              -0.000061291               0.999999999              -0.000006069              -0.000068079               0.999999999              -0.000009181              -0.000075222               0.999999999              -0.000012619              -0.000082965               0.999999999              -0.000016476              -0.000091772               0.999999999              -0.000020862              -0.000101566               0.999999999              -0.000025847              -0.000112103               0.999999999              -0.000031442              -0.000123565               0.999999999              -0.000037600              -0.000135872               0.999999999              -0.000044259              -0.000149017               0.999999999              -0.000051356              -0.000162988               0.999999999               0.000003244              -0.000054211               0.999999999               0.000003843              -0.000049714               0.999999999               0.000003235              -0.000050559               0.999999999               0.000002138              -0.000053808               0.999999999               0.000000560              -0.000058596               0.999999999              -0.000001768              -0.000064902               0.999999999              -0.000004726              -0.000072402               0.999999999              -0.000008073              -0.000080777               0.999999999              -0.000011624              -0.000090013               0.999999999              -0.000015478              -0.000100187               0.999999999              -0.000019926              -0.000111693               0.999999999              -0.000025051              -0.000124316               0.999999999              -0.000030831              -0.000137841               0.999999999              -0.000037278              -0.000152436               0.999999999              -0.000044262              -0.000168021               0.999999999              -0.000051729              -0.000184391               0.999999999              -0.000059664              -0.000201417               0.999999999               0.000002632              -0.000060270               0.999999999               0.000004161              -0.000055637               0.999999999               0.000003527              -0.000056919               0.999999999               0.000002230              -0.000060947               0.999999999               0.000000199              -0.000066959               0.999999999              -0.000002732              -0.000074710               0.999999999              -0.000006164              -0.000083977               0.999999999              -0.000009837              -0.000094507               0.999999999              -0.000013675              -0.000106275               0.999999999              -0.000018093              -0.000119264               0.999999999              -0.000023242              -0.000133789               0.999999999              -0.000029078              -0.000149565               0.999999999              -0.000035577              -0.000166415               0.999999999              -0.000042711              -0.000184405               0.999999999              -0.000050343              -0.000203500               0.999999999              -0.000058432              -0.000223423               0.999999999              -0.000066940              -0.000244025               0.999999999               0.000001966              -0.000065979               0.999999999               0.000004297              -0.000061617               0.999999999               0.000004044              -0.000062341               0.999999999               0.000002969              -0.000065808               0.999999999               0.000001250              -0.000071183               0.999999999              -0.000001214              -0.000078285               0.999999999              -0.000004174              -0.000086923               0.999999999              -0.000007471              -0.000096934               0.999999999              -0.000010873              -0.000108077               0.999999999              -0.000014342              -0.000120396               0.999999999              -0.000018321              -0.000133956               0.999999999              -0.000022929              -0.000148717               0.999999999              -0.000027967              -0.000164443               0.999999999              -0.000033525              -0.000181208               0.999999999              -0.000039610              -0.000199012               0.999999999              -0.000046056              -0.000217886               0.999999999              -0.000052912              -0.000237747               0.999999999               0.000001395              -0.000071139               0.999999999               0.000004255              -0.000067340               0.999999999               0.000004383              -0.000067764               0.999999999               0.000003578              -0.000070792               0.999999999               0.000002189              -0.000075643               0.999999999               0.000000150              -0.000082120               0.999999999              -0.000002358              -0.000090150               0.999999999              -0.000005293              -0.000099579               0.999999999              -0.000008230              -0.000110272               0.999999999              -0.000011104              -0.000122010               0.999999999              -0.000014131              -0.000134748               0.999999999              -0.000017584              -0.000148556               0.999999999              -0.000021331              -0.000163396               0.999999999              -0.000025403              -0.000179130               0.999999999              -0.000029974              -0.000195677               0.999999999              -0.000034868              -0.000213212               0.999999999              -0.000040253              -0.000231748               0.999999999               0.000000928              -0.000075630               0.999999999               0.000004016              -0.000072634               0.999999999               0.000004464              -0.000073026               0.999999999               0.000003951              -0.000075729               0.999999999               0.000002834              -0.000080170               0.999999999               0.000001215              -0.000086146               0.999999999              -0.000000896              -0.000093628               0.999999999              -0.000003305              -0.000102551               0.999999999              -0.000005818              -0.000112791               0.999999999              -0.000008193              -0.000124026               0.999999999              -0.000010487              -0.000136122               0.999999999              -0.000012973              -0.000149174               0.999999999              -0.000015662              -0.000163201               0.999999999              -0.000018535              -0.000178023               0.999999999              -0.000021655              -0.000193662               0.999999999              -0.000025147              -0.000210101               0.999999999              -0.000028906              -0.000227416               0.999999999               0.000000597              -0.000079428               0.999999999               0.000003567              -0.000077363               0.999999999               0.000004207              -0.000077865               0.999999999               0.000003956              -0.000080390               0.999999999               0.000003101              -0.000084556               0.999999999               0.000001809              -0.000090201               0.999999999               0.000000253              -0.000097305               0.999999999              -0.000001627              -0.000105841               0.999999999              -0.000003661              -0.000115596               0.999999999              -0.000005595              -0.000126254               0.999999999              -0.000007391              -0.000137825               0.999999999              -0.000009123              -0.000150301               0.999999999              -0.000010975              -0.000163676               0.999999999              -0.000012900              -0.000177872               0.999999999              -0.000014907              -0.000192885               0.999999999              -0.000017123              -0.000208610               0.999999999              -0.000019386              -0.000225077               0.999999999               0.000000347              -0.000082431               0.999999999               0.000002881              -0.000081294               0.999999999               0.000003603              -0.000082034               0.999999999               0.000003529              -0.000084538               0.999999999               0.000002890              -0.000088543               0.999999999               0.000002018              -0.000094034               0.999999999               0.000000887              -0.000100872               0.999999999              -0.000000497              -0.000108986               0.999999999              -0.000001989              -0.000118248               0.999999999              -0.000003426              -0.000128474               0.999999999              -0.000004759              -0.000139667               0.999999999              -0.000005975              -0.000151755               0.999999999              -0.000007204              -0.000164699               0.999999999              -0.000008462              -0.000178489               0.999999999              -0.000009701              -0.000193012               0.999999999              -0.000010870              -0.000208216               0.999999999              -0.000012002              -0.000224067               0.999999999               0.000000180              -0.000084643               0.999999999               0.000002028              -0.000084276               0.999999999               0.000002659              -0.000085273               0.999999999               0.000002643              -0.000087827               0.999999999               0.000002267              -0.000091843               0.999999999               0.000001727              -0.000097186               0.999999999               0.000000938              -0.000103806               0.999999999               0.000000087              -0.000111650               0.999999999              -0.000000823              -0.000120502               0.999999999              -0.000001786              -0.000130421               0.999999999              -0.000002719              -0.000141365               0.999999999              -0.000003546              -0.000153178               0.999999999              -0.000004285              -0.000165792               0.999999999              -0.000005013              -0.000179227               0.999999999              -0.000005712              -0.000193445               0.999999999              -0.000006271              -0.000208354               0.999999999              -0.000006758              -0.000223777               0.999999999               0.000000079              -0.000085994               0.999999999               0.000001047              -0.000086125               0.999999999               0.000001410              -0.000087331               0.999999999               0.000001419              -0.000089970               0.999999999               0.000001277              -0.000093992               0.999999999               0.000000934              -0.000099281               0.999999999               0.000000611              -0.000105794               0.999999999               0.000000234              -0.000113429               0.999999999              -0.000000234              -0.000122072               0.999999999              -0.000000747              -0.000131825               0.999999999              -0.000001228              -0.000142563               0.999999999              -0.000001617              -0.000154116               0.999999999              -0.000001960              -0.000166518               0.999999999              -0.000002310              -0.000179796               0.999999999              -0.000002619              -0.000193824               0.999999999              -0.000002837              -0.000208519               0.999999999              -0.000003028              -0.000223713               0.999999999              -0.000000000              -0.000086424               0.999999999               0.000000000              -0.000086734               0.999999999              -0.000000000              -0.000088057               0.999999999               0.000000000              -0.000090734               0.999999999               0.000000000              -0.000094720               0.999999999              -0.000000000              -0.000100041               0.999999999              -0.000000000              -0.000106521               0.999999999               0.000000000              -0.000114011               0.999999999              -0.000000000              -0.000122627               0.999999999              -0.000000000              -0.000132335               0.999999999               0.000000000              -0.000142951               0.999999999              -0.000000000              -0.000154443               0.999999999              -0.000000000              -0.000166801               0.999999999              -0.000000000              -0.000180004               0.999999999              -0.000000000              -0.000193954               0.999999999               0.000000000              -0.000208564               0.999999999               0.000000000              -0.000223680               0.999999999              -0.000006024              -0.000000000               0.999999999              -0.000002583              -0.000000000               0.999999999              -0.000000905               0.000000000               0.999999999              -0.000000079               0.000000000               0.999999999               0.000000363               0.000000000               0.999999999               0.000000522              -0.000000000               0.999999999               0.000000477              -0.000000000               0.999999999               0.000000404              -0.000000000               0.999999999               0.000000379              -0.000000000               0.999999999               0.000000445              -0.000000000               0.999999999               0.000000602               0.000000000               0.999999999               0.000000986              -0.000000000               0.999999999               0.000001794              -0.000000000               0.999999999               0.000003024               0.000000000               0.999999999               0.000004676              -0.000000000               0.999999999               0.000006864              -0.000000000               0.999999999               0.000009629              -0.000000000               0.999999999              -0.000005916              -0.000008396               0.999999999              -0.000002603              -0.000007747               0.999999999              -0.000001010              -0.000007700               0.999999999              -0.000000159              -0.000007957               0.999999999               0.000000262              -0.000008396               0.999999999               0.000000432              -0.000008897               0.999999999               0.000000506              -0.000009560               0.999999999               0.000000557              -0.000010404               0.999999999               0.000000683              -0.000011374               0.999999999               0.000000957              -0.000012364               0.999999999               0.000001399              -0.000013440               0.999999999               0.000002064              -0.000014821               0.999999999               0.000003057              -0.000016375               0.999999999               0.000004486              -0.000018130               0.999999999               0.000006381              -0.000020141               0.999999999               0.000008778              -0.000022382               0.999999999               0.000011707              -0.000024930               0.999999999              -0.000005730              -0.000016749               0.999999999              -0.000002688              -0.000015375               0.999999999              -0.000001231              -0.000015333               0.999999999              -0.000000448              -0.000015874               0.999999999              -0.000000020              -0.000016787               0.999999999               0.000000280              -0.000017892               0.999999999               0.000000587              -0.000019347               0.999999999               0.000001011              -0.000021099               0.999999999               0.000001649              -0.000023096               0.999999999               0.000002432              -0.000025087               0.999999999               0.000003413              -0.000027299               0.999999999               0.000004722              -0.000030019               0.999999999               0.000006405              -0.000033029               0.999999999               0.000008474              -0.000036435               0.999999999               0.000010948              -0.000040262               0.999999999               0.000013889              -0.000044464               0.999999999               0.000017276              -0.000049062               0.999999999              -0.000005390              -0.000024928               0.999999999              -0.000002790              -0.000022810               0.999999999              -0.000001557              -0.000022776               0.999999999              -0.000000880              -0.000023720               0.999999999              -0.000000356              -0.000025200               0.999999999               0.000000145              -0.000027031               0.999999999               0.000000802              -0.000029451               0.999999999               0.000001760              -0.000032269               0.999999999               0.000002991              -0.000035384               0.999999999               0.000004460              -0.000038443               0.999999999               0.000006226              -0.000041843               0.999999999               0.000008334              -0.000045897               0.999999999               0.000010745              -0.000050356               0.999999999               0.000013512              -0.000055351               0.999999999               0.000016733              -0.000060871               0.999999999               0.000020394              -0.000066874               0.999999999               0.000024472              -0.000073355               0.999999999              -0.000004901              -0.000032824               0.999999999              -0.000002995              -0.000029992               0.999999999              -0.000001996              -0.000030047               0.999999999              -0.000001277              -0.000031441               0.999999999              -0.000000633              -0.000033576               0.999999999               0.000000150              -0.000036341               0.999999999               0.000001313              -0.000039827               0.999999999               0.000002804              -0.000043917               0.999999999               0.000004680              -0.000048175               0.999999999               0.000006841              -0.000052495               0.999999999               0.000009345              -0.000057355               0.999999999               0.000012227              -0.000062852               0.999999999               0.000015522              -0.000068882               0.999999999               0.000019316              -0.000075527               0.999999999               0.000023534              -0.000082830               0.999999999               0.000028212              -0.000090732               0.999999999               0.000033325              -0.000099290               0.999999999              -0.000004399              -0.000040404               0.999999999              -0.000003247              -0.000036879               0.999999999              -0.000002430              -0.000037118               0.999999999              -0.000001660              -0.000039044               0.999999999              -0.000000781              -0.000041934               0.999999999               0.000000424              -0.000045737               0.999999999               0.000002106              -0.000050502               0.999999999               0.000004263              -0.000055808               0.999999999               0.000006745              -0.000061471               0.999999999               0.000009531              -0.000067285               0.999999999               0.000012780              -0.000073869               0.999999999               0.000016496              -0.000081224               0.999999999               0.000020714              -0.000089265               0.999999999               0.000025432              -0.000098001               0.999999999               0.000030642              -0.000107484               0.999999999               0.000036377              -0.000117748               0.999999999               0.000042535              -0.000128752               0.999999999              -0.000003841              -0.000047564               0.999999999              -0.000003522              -0.000043455               0.999999999              -0.000002868              -0.000043961               0.999999999              -0.000001954              -0.000046505               0.999999999              -0.000000762              -0.000050264               0.999999999               0.000000964              -0.000055263               0.999999999               0.000003313              -0.000061291               0.999999999               0.000006069              -0.000068079               0.999999999               0.000009181              -0.000075222               0.999999999               0.000012619              -0.000082965               0.999999999               0.000016476              -0.000091772               0.999999999               0.000020862              -0.000101566               0.999999999               0.000025847              -0.000112103               0.999999999               0.000031442              -0.000123565               0.999999999               0.000037600              -0.000135872               0.999999999               0.000044259              -0.000149017               0.999999999               0.000051356              -0.000162988               0.999999999              -0.000003244              -0.000054211               0.999999999              -0.000003843              -0.000049714               0.999999999              -0.000003235              -0.000050559               0.999999999              -0.000002138              -0.000053808               0.999999999              -0.000000560              -0.000058596               0.999999999               0.000001768              -0.000064902               0.999999999               0.000004726              -0.000072402               0.999999999               0.000008073              -0.000080777               0.999999999               0.000011624              -0.000090013               0.999999999               0.000015478              -0.000100187               0.999999999               0.000019926              -0.000111693               0.999999999               0.000025051              -0.000124316               0.999999999               0.000030831              -0.000137841               0.999999999               0.000037278              -0.000152436               0.999999999               0.000044262              -0.000168021               0.999999999               0.000051729              -0.000184391               0.999999999               0.000059664              -0.000201417               0.999999999              -0.000002632              -0.000060270               0.999999999              -0.000004161              -0.000055637               0.999999999              -0.000003527              -0.000056919               0.999999999              -0.000002230              -0.000060947               0.999999999              -0.000000199              -0.000066959               0.999999999               0.000002732              -0.000074710               0.999999999               0.000006164              -0.000083977               0.999999999               0.000009837              -0.000094507               0.999999999               0.000013675              -0.000106275               0.999999999               0.000018093              -0.000119264               0.999999999               0.000023242              -0.000133789               0.999999999               0.000029078              -0.000149565               0.999999999               0.000035577              -0.000166415               0.999999999               0.000042711              -0.000184405               0.999999999               0.000050343              -0.000203500               0.999999999               0.000058432              -0.000223423               0.999999999               0.000066940              -0.000244025               0.999999999              -0.000001966              -0.000065979               0.999999999              -0.000004297              -0.000061617               0.999999999              -0.000004044              -0.000062341               0.999999999              -0.000002969              -0.000065808               0.999999999              -0.000001250              -0.000071183               0.999999999               0.000001214              -0.000078285               0.999999999               0.000004174              -0.000086923               0.999999999               0.000007471              -0.000096934               0.999999999               0.000010873              -0.000108077               0.999999999               0.000014342              -0.000120396               0.999999999               0.000018321              -0.000133956               0.999999999               0.000022929              -0.000148717               0.999999999               0.000027967              -0.000164443               0.999999999               0.000033525              -0.000181208               0.999999999               0.000039610              -0.000199012               0.999999999               0.000046056              -0.000217886               0.999999999               0.000052912              -0.000237747               0.999999999              -0.000001395              -0.000071139               0.999999999              -0.000004255              -0.000067340               0.999999999              -0.000004383              -0.000067764               0.999999999              -0.000003578              -0.000070792               0.999999999              -0.000002189              -0.000075643               0.999999999              -0.000000150              -0.000082120               0.999999999               0.000002358              -0.000090150               0.999999999               0.000005293              -0.000099579               0.999999999               0.000008230              -0.000110272               0.999999999               0.000011104              -0.000122010               0.999999999               0.000014131              -0.000134748               0.999999999               0.000017584              -0.000148556               0.999999999               0.000021331              -0.000163396               0.999999999               0.000025403              -0.000179130               0.999999999               0.000029974              -0.000195677               0.999999999               0.000034868              -0.000213212               0.999999999               0.000040253              -0.000231748               0.999999999              -0.000000928              -0.000075630               0.999999999              -0.000004016              -0.000072634               0.999999999              -0.000004464              -0.000073026               0.999999999              -0.000003951              -0.000075729               0.999999999              -0.000002834              -0.000080170               0.999999999              -0.000001215              -0.000086146               0.999999999               0.000000896              -0.000093628               0.999999999               0.000003305              -0.000102551               0.999999999               0.000005818              -0.000112791               0.999999999               0.000008193              -0.000124026               0.999999999               0.000010487              -0.000136122               0.999999999               0.000012973              -0.000149174               0.999999999               0.000015662              -0.000163201               0.999999999               0.000018535              -0.000178023               0.999999999               0.000021655              -0.000193662               0.999999999               0.000025147              -0.000210101               0.999999999               0.000028906              -0.000227416               0.999999999              -0.000000597              -0.000079428               0.999999999              -0.000003567              -0.000077363               0.999999999              -0.000004207              -0.000077865               0.999999999              -0.000003956              -0.000080390               0.999999999              -0.000003101              -0.000084556               0.999999999              -0.000001809              -0.000090201               0.999999999              -0.000000253              -0.000097305               0.999999999               0.000001627              -0.000105841               0.999999999               0.000003661              -0.000115596               0.999999999               0.000005595              -0.000126254               0.999999999               0.000007391              -0.000137825               0.999999999               0.000009123              -0.000150301               0.999999999               0.000010975              -0.000163676               0.999999999               0.000012900              -0.000177872               0.999999999               0.000014907              -0.000192885               0.999999999               0.000017123              -0.000208610               0.999999999               0.000019386              -0.000225077               0.999999999              -0.000000347              -0.000082431               0.999999999              -0.000002881              -0.000081294               0.999999999              -0.000003603              -0.000082034               0.999999999              -0.000003529              -0.000084538               0.999999999              -0.000002890              -0.000088543               0.999999999              -0.000002018              -0.000094034               0.999999999              -0.000000887              -0.000100872               0.999999999               0.000000497              -0.000108986               0.999999999               0.000001989              -0.000118248               0.999999999               0.000003426              -0.000128474               0.999999999               0.000004759              -0.000139667               0.999999999               0.000005975              -0.000151755               0.999999999               0.000007204              -0.000164699               0.999999999               0.000008462              -0.000178489               0.999999999               0.000009701              -0.000193012               0.999999999               0.000010870              -0.000208216               0.999999999               0.000012002              -0.000224067               0.999999999              -0.000000180              -0.000084643               0.999999999              -0.000002028              -0.000084276               0.999999999              -0.000002659              -0.000085273               0.999999999              -0.000002643              -0.000087827               0.999999999              -0.000002267              -0.000091843               0.999999999              -0.000001727              -0.000097186               0.999999999              -0.000000938              -0.000103806               0.999999999              -0.000000087              -0.000111650               0.999999999               0.000000823              -0.000120502               0.999999999               0.000001786              -0.000130421               0.999999999               0.000002719              -0.000141365               0.999999999               0.000003546              -0.000153178               0.999999999               0.000004285              -0.000165792               0.999999999               0.000005013              -0.000179227               0.999999999               0.000005712              -0.000193445               0.999999999               0.000006271              -0.000208354               0.999999999               0.000006758              -0.000223777               0.999999999              -0.000000079              -0.000085994               0.999999999              -0.000001047              -0.000086125               0.999999999              -0.000001410              -0.000087331               0.999999999              -0.000001419              -0.000089970               0.999999999              -0.000001277              -0.000093992               0.999999999              -0.000000934              -0.000099281               0.999999999              -0.000000611              -0.000105794               0.999999999              -0.000000234              -0.000113429               0.999999999               0.000000234              -0.000122072               0.999999999               0.000000747              -0.000131825               0.999999999               0.000001228              -0.000142563               0.999999999               0.000001617              -0.000154116               0.999999999               0.000001960              -0.000166518               0.999999999               0.000002310              -0.000179796               0.999999999               0.000002619              -0.000193824               0.999999999               0.000002837              -0.000208519               0.999999999               0.000003028              -0.000223713               0.999999999              -0.000000000              -0.000086424               0.999999999               0.000000000              -0.000086734               0.999999999              -0.000000000              -0.000088057               0.999999999               0.000000000              -0.000090734               0.999999999               0.000000000              -0.000094720               0.999999999              -0.000000000              -0.000100041               0.999999999              -0.000000000              -0.000106521               0.999999999               0.000000000              -0.000114011               0.999999999              -0.000000000              -0.000122627               0.999999999              -0.000000000              -0.000132335               0.999999999               0.000000000              -0.000142951               0.999999999              -0.000000000              -0.000154443               0.999999999              -0.000000000              -0.000166801               0.999999999              -0.000000000              -0.000180004               0.999999999              -0.000000000              -0.000193954               0.999999999               0.000000000              -0.000208564               0.999999999               0.000000000              -0.000223680               0.999999999              -0.000006024              -0.000000000               0.999999999              -0.000002583              -0.000000000               0.999999999              -0.000000905               0.000000000               0.999999999              -0.000000079               0.000000000               0.999999999               0.000000363               0.000000000               0.999999999               0.000000522              -0.000000000               0.999999999               0.000000477              -0.000000000               0.999999999               0.000000404              -0.000000000               0.999999999               0.000000379              -0.000000000               0.999999999               0.000000445              -0.000000000               0.999999999               0.000000602               0.000000000               0.999999999               0.000000986              -0.000000000               0.999999999               0.000001794              -0.000000000               0.999999999               0.000003024               0.000000000               0.999999999               0.000004676              -0.000000000               0.999999999               0.000006864              -0.000000000               0.999999999               0.000009629              -0.000000000               0.999999999              -0.000005916               0.000008396               0.999999999              -0.000002603               0.000007747               0.999999999              -0.000001010               0.000007700               0.999999999              -0.000000159               0.000007957               0.999999999               0.000000262               0.000008396               0.999999999               0.000000432               0.000008897               0.999999999               0.000000506               0.000009560               0.999999999               0.000000557               0.000010404               0.999999999               0.000000683               0.000011374               0.999999999               0.000000957               0.000012364               0.999999999               0.000001399               0.000013440               0.999999999               0.000002064               0.000014821               0.999999999               0.000003057               0.000016375               0.999999999               0.000004486               0.000018130               0.999999999               0.000006381               0.000020141               0.999999999               0.000008778               0.000022382               0.999999999               0.000011707               0.000024930               0.999999999              -0.000005730               0.000016749               0.999999999              -0.000002688               0.000015375               0.999999999              -0.000001231               0.000015333               0.999999999              -0.000000448               0.000015874               0.999999999              -0.000000020               0.000016787               0.999999999               0.000000280               0.000017892               0.999999999               0.000000587               0.000019347               0.999999999               0.000001011               0.000021099               0.999999999               0.000001649               0.000023096               0.999999999               0.000002432               0.000025087               0.999999999               0.000003413               0.000027299               0.999999999               0.000004722               0.000030019               0.999999999               0.000006405               0.000033029               0.999999999               0.000008474               0.000036435               0.999999999               0.000010948               0.000040262               0.999999999               0.000013889               0.000044464               0.999999999               0.000017276               0.000049062               0.999999999              -0.000005390               0.000024928               0.999999999              -0.000002790               0.000022810               0.999999999              -0.000001557               0.000022776               0.999999999              -0.000000880               0.000023720               0.999999999              -0.000000356               0.000025200               0.999999999               0.000000145               0.000027031               0.999999999               0.000000802               0.000029451               0.999999999               0.000001760               0.000032269               0.999999999               0.000002991               0.000035384               0.999999999               0.000004460               0.000038443               0.999999999               0.000006226               0.000041843               0.999999999               0.000008334               0.000045897               0.999999999               0.000010745               0.000050356               0.999999999               0.000013512               0.000055351               0.999999999               0.000016733               0.000060871               0.999999999               0.000020394               0.000066874               0.999999999               0.000024472               0.000073355               0.999999999              -0.000004901               0.000032824               0.999999999              -0.000002995               0.000029992               0.999999999              -0.000001996               0.000030047               0.999999999              -0.000001277               0.000031441               0.999999999              -0.000000633               0.000033576               0.999999999               0.000000150               0.000036341               0.999999999               0.000001313               0.000039827               0.999999999               0.000002804               0.000043917               0.999999999               0.000004680               0.000048175               0.999999999               0.000006841               0.000052495               0.999999999               0.000009345               0.000057355               0.999999999               0.000012227               0.000062852               0.999999999               0.000015522               0.000068882               0.999999999               0.000019316               0.000075527               0.999999999               0.000023534               0.000082830               0.999999999               0.000028212               0.000090732               0.999999999               0.000033325               0.000099290               0.999999999              -0.000004399               0.000040404               0.999999999              -0.000003247               0.000036879               0.999999999              -0.000002430               0.000037118               0.999999999              -0.000001660               0.000039044               0.999999999              -0.000000781               0.000041934               0.999999999               0.000000424               0.000045737               0.999999999               0.000002106               0.000050502               0.999999999               0.000004263               0.000055808               0.999999999               0.000006745               0.000061471               0.999999999               0.000009531               0.000067285               0.999999999               0.000012780               0.000073869               0.999999999               0.000016496               0.000081224               0.999999999               0.000020714               0.000089265               0.999999999               0.000025432               0.000098001               0.999999999               0.000030642               0.000107484               0.999999999               0.000036377               0.000117748               0.999999999               0.000042535               0.000128752               0.999999999              -0.000003841               0.000047564               0.999999999              -0.000003522               0.000043455               0.999999999              -0.000002868               0.000043961               0.999999999              -0.000001954               0.000046505               0.999999999              -0.000000762               0.000050264               0.999999999               0.000000964               0.000055263               0.999999999               0.000003313               0.000061291               0.999999999               0.000006069               0.000068079               0.999999999               0.000009181               0.000075222               0.999999999               0.000012619               0.000082965               0.999999999               0.000016476               0.000091772               0.999999999               0.000020862               0.000101566               0.999999999               0.000025847               0.000112103               0.999999999               0.000031442               0.000123565               0.999999999               0.000037600               0.000135872               0.999999999               0.000044259               0.000149017               0.999999999               0.000051356               0.000162988               0.999999999              -0.000003244               0.000054211               0.999999999              -0.000003843               0.000049714               0.999999999              -0.000003235               0.000050559               0.999999999              -0.000002138               0.000053808               0.999999999              -0.000000560               0.000058596               0.999999999               0.000001768               0.000064902               0.999999999               0.000004726               0.000072402               0.999999999               0.000008073               0.000080777               0.999999999               0.000011624               0.000090013               0.999999999               0.000015478               0.000100187               0.999999999               0.000019926               0.000111693               0.999999999               0.000025051               0.000124316               0.999999999               0.000030831               0.000137841               0.999999999               0.000037278               0.000152436               0.999999999               0.000044262               0.000168021               0.999999999               0.000051729               0.000184391               0.999999999               0.000059664               0.000201417               0.999999999              -0.000002632               0.000060270               0.999999999              -0.000004161               0.000055637               0.999999999              -0.000003527               0.000056919               0.999999999              -0.000002230               0.000060947               0.999999999              -0.000000199               0.000066959               0.999999999               0.000002732               0.000074710               0.999999999               0.000006164               0.000083977               0.999999999               0.000009837               0.000094507               0.999999999               0.000013675               0.000106275               0.999999999               0.000018093               0.000119264               0.999999999               0.000023242               0.000133789               0.999999999               0.000029078               0.000149565               0.999999999               0.000035577               0.000166415               0.999999999               0.000042711               0.000184405               0.999999999               0.000050343               0.000203500               0.999999999               0.000058432               0.000223423               0.999999999               0.000066940               0.000244025               0.999999999              -0.000001966               0.000065979               0.999999999              -0.000004297               0.000061617               0.999999999              -0.000004044               0.000062341               0.999999999              -0.000002969               0.000065808               0.999999999              -0.000001250               0.000071183               0.999999999               0.000001214               0.000078285               0.999999999               0.000004174               0.000086923               0.999999999               0.000007471               0.000096934               0.999999999               0.000010873               0.000108077               0.999999999               0.000014342               0.000120396               0.999999999               0.000018321               0.000133956               0.999999999               0.000022929               0.000148717               0.999999999               0.000027967               0.000164443               0.999999999               0.000033525               0.000181208               0.999999999               0.000039610               0.000199012               0.999999999               0.000046056               0.000217886               0.999999999               0.000052912               0.000237747               0.999999999              -0.000001395               0.000071139               0.999999999              -0.000004255               0.000067340               0.999999999              -0.000004383               0.000067764               0.999999999              -0.000003578               0.000070792               0.999999999              -0.000002189               0.000075643               0.999999999              -0.000000150               0.000082120               0.999999999               0.000002358               0.000090150               0.999999999               0.000005293               0.000099579               0.999999999               0.000008230               0.000110272               0.999999999               0.000011104               0.000122010               0.999999999               0.000014131               0.000134748               0.999999999               0.000017584               0.000148556               0.999999999               0.000021331               0.000163396               0.999999999               0.000025403               0.000179130               0.999999999               0.000029974               0.000195677               0.999999999               0.000034868               0.000213212               0.999999999               0.000040253               0.000231748               0.999999999              -0.000000928               0.000075630               0.999999999              -0.000004016               0.000072634               0.999999999              -0.000004464               0.000073026               0.999999999              -0.000003951               0.000075729               0.999999999              -0.000002834               0.000080170               0.999999999              -0.000001215               0.000086146               0.999999999               0.000000896               0.000093628               0.999999999               0.000003305               0.000102551               0.999999999               0.000005818               0.000112791               0.999999999               0.000008193               0.000124026               0.999999999               0.000010487               0.000136122               0.999999999               0.000012973               0.000149174               0.999999999               0.000015662               0.000163201               0.999999999               0.000018535               0.000178023               0.999999999               0.000021655               0.000193662               0.999999999               0.000025147               0.000210101               0.999999999               0.000028906               0.000227416               0.999999999              -0.000000597               0.000079428               0.999999999              -0.000003567               0.000077363               0.999999999              -0.000004207               0.000077865               0.999999999              -0.000003956               0.000080390               0.999999999              -0.000003101               0.000084556               0.999999999              -0.000001809               0.000090201               0.999999999              -0.000000253               0.000097305               0.999999999               0.000001627               0.000105841               0.999999999               0.000003661               0.000115596               0.999999999               0.000005595               0.000126254               0.999999999               0.000007391               0.000137825               0.999999999               0.000009123               0.000150301               0.999999999               0.000010975               0.000163676               0.999999999               0.000012900               0.000177872               0.999999999               0.000014907               0.000192885               0.999999999               0.000017123               0.000208610               0.999999999               0.000019386               0.000225077               0.999999999              -0.000000347               0.000082431               0.999999999              -0.000002881               0.000081294               0.999999999              -0.000003603               0.000082034               0.999999999              -0.000003529               0.000084538               0.999999999              -0.000002890               0.000088543               0.999999999              -0.000002018               0.000094034               0.999999999              -0.000000887               0.000100872               0.999999999               0.000000497               0.000108986               0.999999999               0.000001989               0.000118248               0.999999999               0.000003426               0.000128474               0.999999999               0.000004759               0.000139667               0.999999999               0.000005975               0.000151755               0.999999999               0.000007204               0.000164699               0.999999999               0.000008462               0.000178489               0.999999999               0.000009701               0.000193012               0.999999999               0.000010870               0.000208216               0.999999999               0.000012002               0.000224067               0.999999999              -0.000000180               0.000084643               0.999999999              -0.000002028               0.000084276               0.999999999              -0.000002659               0.000085273               0.999999999              -0.000002643               0.000087827               0.999999999              -0.000002267               0.000091843               0.999999999              -0.000001727               0.000097186               0.999999999              -0.000000938               0.000103806               0.999999999              -0.000000087               0.000111650               0.999999999               0.000000823               0.000120502               0.999999999               0.000001786               0.000130421               0.999999999               0.000002719               0.000141365               0.999999999               0.000003546               0.000153178               0.999999999               0.000004285               0.000165792               0.999999999               0.000005013               0.000179227               0.999999999               0.000005712               0.000193445               0.999999999               0.000006271               0.000208354               0.999999999               0.000006758               0.000223777               0.999999999              -0.000000079               0.000085994               0.999999999              -0.000001047               0.000086125               0.999999999              -0.000001410               0.000087331               0.999999999              -0.000001419               0.000089970               0.999999999              -0.000001277               0.000093992               0.999999999              -0.000000934               0.000099281               0.999999999              -0.000000611               0.000105794               0.999999999              -0.000000234               0.000113429               0.999999999               0.000000234               0.000122072               0.999999999               0.000000747               0.000131825               0.999999999               0.000001228               0.000142563               0.999999999               0.000001617               0.000154116               0.999999999               0.000001960               0.000166518               0.999999999               0.000002310               0.000179796               0.999999999               0.000002619               0.000193824               0.999999999               0.000002837               0.000208519               0.999999999               0.000003028               0.000223713               0.999999999               0.000000000               0.000086424               0.999999999               0.000000000               0.000086734               0.999999999              -0.000000000               0.000088057               0.999999999              -0.000000000               0.000090734               0.999999999               0.000000000               0.000094720               0.999999999              -0.000000000               0.000100041               0.999999999              -0.000000000               0.000106521               0.999999999              -0.000000000               0.000114011               0.999999999              -0.000000000               0.000122627               0.999999999               0.000000000               0.000132335               0.999999999              -0.000000000               0.000142951               0.999999999               0.000000000               0.000154443               0.999999999               0.000000000               0.000166801               0.999999999              -0.000000000               0.000180004               0.999999999               0.000000000               0.000193954               0.999999999               0.000000000               0.000208564               0.999999999               0.000000000               0.000223680               0.999999999 </DataArray>
<DataArray type="Float64"                                    Name="defo"                                                      NumberOfComponents=" 3" format="ascii">
              0.000006024               0.000000000               0.999999999               0.000002583               0.000000000               0.999999999               0.000000905               0.000000000               0.999999999               0.000000079               0.000000000               0.999999999              -0.000000363               0.000000000               0.999999999              -0.000000522               0.000000000               0.999999999              -0.000000477              -0.000000000               0.999999999              -0.000000404               0.000000000               0.999999999              -0.000000379              -0.000000000               0.999999999              -0.000000445              -0.000000000               0.999999999              -0.000000602               0.000000000               0.999999999              -0.000000986               0.000000000               0.999999999              -0.000001794               0.000000000               0.999999999              -0.000003024               0.000000000               0.999999999              -0.000004676               0.000000000               0.999999999              -0.000006864               0.000000000               0.999999999              -0.000009629               0.000000000               0.999999999               0.000005916               0.000008396               0.999999999               0.000002603               0.000007747               0.999999999               0.000001010               0.000007700               0.999999999               0.000000159               0.000007957               0.999999999              -0.000000262               0.000008396               0.999999999              -0.000000432               0.000008897               0.999999999              -0.000000506               0.000009560               0.999999999              -0.000000557               0.000010404               0.999999999              -0.000000683               0.000011374               0.999999999              -0.000000957               0.000012364               0.999999999              -0.000001399               0.000013440               0.999999999              -0.000002064               0.000014821               0.999999999              -0.000003057               0.000016375               0.999999999              -0.000004486               0.000018130               0.999999999              -0.000006381               0.000020141               0.999999999              -0.000008778               0.000022382               0.999999999              -0.000011707               0.000024930               0.999999999               0.000005730               0.000016749               0.999999999               0.000002688               0.000015375               0.999999999               0.000001231               0.000015333               0.999999999               0.000000448               0.000015874               0.999999999               0.000000020               0.000016787               0.999999999              -0.000000280               0.000017892               0.999999999              -0.000000587               0.000019347               0.999999999              -0.000001011               0.000021099               0.999999999              -0.000001649               0.000023096               0.999999999              -0.000002432               0.000025087               0.999999999              -0.000003413               0.000027299               0.999999999              -0.000004722               0.000030019               0.999999999              -0.000006405               0.000033029               0.999999999              -0.000008474               0.000036435               0.999999999              -0.000010948               0.000040262               0.999999999              -0.000013889               0.000044464               0.999999999              -0.000017276               0.000049062               0.999999999               0.000005390               0.000024928               0.999999999               0.000002790               0.000022810               0.999999999               0.000001557               0.000022776               0.999999999               0.000000880               0.000023720               0.999999999               0.000000356               0.000025200               0.999999999              -0.000000145               0.000027031               0.999999999              -0.000000802               0.000029451               0.999999999              -0.000001760               0.000032269               0.999999999              -0.000002991               0.000035384               0.999999999              -0.000004460               0.000038443               0.999999999              -0.000006226               0.000041843               0.999999999              -0.000008334               0.000045897               0.999999999              -0.000010745               0.000050356               0.999999999              -0.000013512               0.000055351               0.999999999              -0.000016733               0.000060871               0.999999999              -0.000020394               0.000066874               0.999999999              -0.000024472               0.000073355               0.999999999               0.000004901               0.000032824               0.999999999               0.000002995               0.000029992               0.999999999               0.000001996               0.000030047               0.999999999               0.000001277               0.000031441               0.999999999               0.000000633               0.000033576               0.999999999              -0.000000150               0.000036341               0.999999999              -0.000001313               0.000039827               0.999999999              -0.000002804               0.000043917               0.999999999              -0.000004680               0.000048175               0.999999999              -0.000006841               0.000052495               0.999999999              -0.000009345               0.000057355               0.999999999              -0.000012227               0.000062852               0.999999999              -0.000015522               0.000068882               0.999999999              -0.000019316               0.000075527               0.999999999              -0.000023534               0.000082830               0.999999999              -0.000028212               0.000090732               0.999999999              -0.000033325               0.000099290               0.999999999               0.000004399               0.000040404               0.999999999               0.000003247               0.000036879               0.999999999               0.000002430               0.000037118               0.999999999               0.000001660               0.000039044               0.999999999               0.000000781               0.000041934               0.999999999              -0.000000424               0.000045737               0.999999999              -0.000002106               0.000050502               0.999999999              -0.000004263               0.000055808               0.999999999              -0.000006745               0.000061471               0.999999999              -0.000009531               0.000067285               0.999999999              -0.000012780               0.000073869               0.999999999              -0.000016496               0.000081224               0.999999999              -0.000020714               0.000089265               0.999999999              -0.000025432               0.000098001               0.999999999              -0.000030642               0.000107484               0.999999999              -0.000036377               0.000117748               0.999999999              -0.000042535               0.000128752               0.999999999               0.000003841               0.000047564               0.999999999               0.000003522               0.000043455               0.999999999               0.000002868               0.000043961               0.999999999               0.000001954               0.000046505               0.999999999               0.000000762               0.000050264               0.999999999              -0.000000964               0.000055263               0.999999999              -0.000003313               0.000061291               0.999999999              -0.000006069               0.000068079               0.999999999              -0.000009181               0.000075222               0.999999999              -0.000012619               0.000082965               0.999999999              -0.000016476               0.000091772               0.999999999              -0.000020862               0.000101566               0.999999999              -0.000025847               0.000112103               0.999999999              -0.000031442               0.000123565               0.999999999              -0.000037600               0.000135872               0.999999999              -0.000044259               0.000149017               0.999999999              -0.000051356               0.000162988               0.999999999               0.000003244               0.000054211               0.999999999               0.000003843               0.000049714               0.999999999               0.000003235               0.000050559               0.999999999               0.000002138               0.000053808               0.999999999               0.000000560               0.000058596               0.999999999              -0.000001768               0.000064902               0.999999999              -0.000004726               0.000072402               0.999999999              -0.000008073               0.000080777               0.999999999              -0.000011624               0.000090013               0.999999999              -0.000015478               0.000100187               0.999999999              -0.000019926               0.000111693               0.999999999              -0.000025051               0.000124316               0.999999999              -0.000030831               0.000137841               0.999999999              -0.000037278               0.000152436               0.999999999              -0.000044262               0.000168021               0.999999999              -0.000051729               0.000184391               0.999999999              -0.000059664               0.000201417               0.999999999               0.000002632               0.000060270               0.999999999               0.000004161               0.000055637               0.999999999               0.000003527               0.000056919               0.999999999               0.000002230               0.000060947               0.999999999               0.000000199               0.000066959               0.999999999              -0.000002732               0.000074710               0.999999999              -0.000006164               0.000083977               0.999999999              -0.000009837               0.000094507               0.999999999              -0.000013675               0.000106275               0.999999999              -0.000018093               0.000119264               0.999999999              -0.000023242               0.000133789               0.999999999              -0.000029078               0.000149565               0.999999999              -0.000035577               0.000166415               0.999999999              -0.000042711               0.000184405               0.999999999              -0.000050343               0.000203500               0.999999999              -0.000058432               0.000223423               0.999999999              -0.000066940               0.000244025               0.999999999               0.000001966               0.000065979               0.999999999               0.000004297               0.000061617               0.999999999               0.000004044               0.000062341               0.999999999               0.000002969               0.000065808               0.999999999               0.000001250               0.000071183               0.999999999              -0.000001214               0.000078285               0.999999999              -0.000004174               0.000086923               0.999999999              -0.000007471               0.000096934               0.999999999              -0.000010873               0.000108077               0.999999999              -0.000014342               0.000120396               0.999999999              -0.000018321               0.000133956               0.999999999              -0.000022929               0.000148717               0.999999999              -0.000027967               0.000164443               0.999999999              -0.000033525               0.000181208               0.999999999              -0.000039610               0.000199012               0.999999999              -0.000046056               0.000217886               0.999999999              -0.000052912               0.000237747               0.999999999               0.000001395               0.000071139               0.999999999               0.000004255               0.000067340               0.999999999               0.000004383               0.000067764               0.999999999               0.000003578               0.000070792               0.999999999               0.000002189               0.000075643               0.999999999               0.000000150               0.000082120               0.999999999              -0.000002358               0.000090150               0.999999999              -0.000005293               0.000099579               0.999999999              -0.000008230               0.000110272               0.999999999              -0.000011104               0.000122010               0.999999999              -0.000014131               0.000134748               0.999999999              -0.000017584               0.000148556               0.999999999              -0.000021331               0.000163396               0.999999999              -0.000025403               0.000179130               0.999999999              -0.000029974               0.000195677               0.999999999              -0.000034868               0.000213212               0.999999999              -0.000040253               0.000231748               0.999999999               0.000000928               0.000075630               0.999999999               0.000004016               0.000072634               0.999999999               0.000004464               0.000073026               0.999999999               0.000003951               0.000075729               0.999999999               0.000002834               0.000080170               0.999999999               0.000001215               0.000086146               0.999999999              -0.000000896               0.000093628               0.999999999              -0.000003305               0.000102551               0.999999999              -0.000005818               0.000112791               0.999999999              -0.000008193               0.000124026               0.999999999              -0.000010487               0.000136122               0.999999999              -0.000012973               0.000149174               0.999999999              -0.000015662               0.000163201               0.999999999              -0.000018535               0.000178023               0.999999999              -0.000021655               0.000193662               0.999999999              -0.000025147               0.000210101               0.999999999              -0.000028906               0.000227416               0.999999999               0.000000597               0.000079428               0.999999999               0.000003567               0.000077363               0.999999999               0.000004207               0.000077865               0.999999999               0.000003956               0.000080390               0.999999999               0.000003101               0.000084556               0.999999999               0.000001809               0.000090201               0.999999999               0.000000253               0.000097305               0.999999999              -0.000001627               0.000105841               0.999999999              -0.000003661               0.000115596               0.999999999              -0.000005595               0.000126254               0.999999999              -0.000007391               0.000137825               0.999999999              -0.000009123               0.000150301               0.999999999              -0.000010975               0.000163676               0.999999999              -0.000012900               0.000177872               0.999999999              -0.000014907               0.000192885               0.999999999              -0.000017123               0.000208610               0.999999999              -0.000019386               0.000225077               0.999999999               0.000000347               0.000082431               0.999999999               0.000002881               0.000081294               0.999999999               0.000003603               0.000082034               0.999999999               0.000003529               0.000084538               0.999999999               0.000002890               0.000088543               0.999999999               0.000002018               0.000094034               0.999999999               0.000000887               0.000100872               0.999999999              -0.000000497               0.000108986               0.999999999              -0.000001989               0.000118248               0.999999999              -0.000003426               0.000128474               0.999999999              -0.000004759               0.000139667               0.999999999              -0.000005975               0.000151755               0.999999999              -0.000007204               0.000164699               0.999999999              -0.000008462               0.000178489               0.999999999              -0.000009701               0.000193012               0.999999999              -0.000010870               0.000208216               0.999999999              -0.000012002               0.000224067               0.999999999               0.000000180               0.000084643               0.999999999               0.000002028               0.000084276               0.999999999               0.000002659               0.000085273               0.999999999               0.000002643               0.000087827               0.999999999               0.000002267               0.000091843               0.999999999               0.000001727               0.000097186               0.999999999               0.000000938               0.000103806               0.999999999               0.000000087               0.000111650               0.999999999              -0.000000823               0.000120502               0.999999999              -0.000001786               0.000130421               0.999999999              -0.000002719               0.000141365               0.999999999              -0.000003546               0.000153178               0.999999999              -0.000004285               0.000165792               0.999999999              -0.000005013               0.000179227               0.999999999              -0.000005712               0.000193445               0.999999999              -0.000006271               0.000208354               0.999999999              -0.000006758               0.000223777               0.999999999               0.000000079               0.000085994               0.999999999               0.000001047               0.000086125               0.999999999               0.000001410               0.000087331               0.999999999               0.000001419               0.000089970               0.999999999               0.000001277               0.000093992               0.999999999               0.000000934               0.000099281               0.999999999               0.000000611               0.000105794               0.999999999               0.000000234               0.000113429               0.999999999              -0.000000234               0.000122072               0.999999999              -0.000000747               0.000131825               0.999999999              -0.000001228               0.000142563               0.999999999              -0.000001617               0.000154116               0.999999999              -0.000001960               0.000166518               0.999999999              -0.000002310               0.000179796               0.999999999              -0.000002619               0.000193824               0.999999999              -0.000002837               0.000208519               0.999999999              -0.000003028               0.000223713               0.999999999               0.000000000               0.000086424               0.999999999               0.000000000               0.000086734               0.999999999              -0.000000000               0.000088057               0.999999999              -0.000000000               0.000090734               0.999999999               0.000000000               0.000094720               0.999999999              -0.000000000               0.000100041               0.999999999              -0.000000000               0.000106521               0.999999999              -0.000000000               0.000114011               0.999999999              -0.000000000               0.000122627               0.999999999               0.000000000               0.000132335               0.999999999              -0.000000000               0.000142951               0.999999999               0.000000000               0.000154443               0.999999999               0.000000000               0.000166801               0.999999999              -0.000000000               0.000180004               0.999999999               0.000000000               0.000193954               0.999999999               0.000000000               0.000208564               0.999999999               0.000000000               0.000223680               0.999999999               0.000006024               0.000000000               0.999999999               0.000002583               0.000000000               0.999999999               0.000000905               0.000000000               0.999999999               0.000000079               0.000000000               0.999999999              -0.000000363               0.000000000               0.999999999              -0.000000522               0.000000000               0.999999999              -0.000000477              -0.000000000               0.999999999              -0.000000404               0.000000000               0.999999999              -0.000000379              -0.000000000               0.999999999              -0.000000445              -0.000000000               0.999999999              -0.000000602               0.000000000               0.999999999              -0.000000986               0.000000000               0.999999999              -0.000001794               0.000000000               0.999999999              -0.000003024               0.000000000               0.999999999              -0.000004676               0.000000000               0.999999999              -0.000006864               0.000000000               0.999999999              -0.000009629               0.000000000               0.999999999               0.000005916              -0.000008396               0.999999999               0.000002603              -0.000007747               0.999999999               0.000001010              -0.000007700               0.999999999               0.000000159              -0.000007957               0.999999999              -0.000000262              -0.000008396               0.999999999              -0.000000432              -0.000008897               0.999999999              -0.000000506              -0.000009560               0.999999999              -0.000000557              -0.000010404               0.999999999              -0.000000683              -0.000011374               0.999999999              -0.000000957              -0.000012364               0.999999999              -0.000001399              -0.000013440               0.999999999              -0.000002064              -0.000014821               0.999999999              -0.000003057              -0.000016375               0.999999999              -0.000004486              -0.000018130               0.999999999              -0.000006381              -0.000020141               0.999999999              -0.000008778              -0.000022382               0.999999999              -0.000011707              -0.000024930               0.999999999               0.000005730              -0.000016749               0.999999999               0.000002688              -0.000015375               0.999999999               0.000001231              -0.000015333               0.999999999               0.000000448              -0.000015874               0.999999999               0.000000020              -0.000016787               0.999999999              -0.000000280              -0.000017892               0.999999999              -0.000000587              -0.000019347               0.999999999              -0.000001011              -0.000021099               0.999999999              -0.000001649              -0.000023096               0.999999999              -0.000002432              -0.000025087               0.999999999              -0.000003413              -0.000027299               0.999999999              -0.000004722              -0.000030019               0.999999999              -0.000006405              -0.000033029               0.999999999              -0.000008474              -0.000036435               0.999999999              -0.000010948              -0.000040262               0.999999999              -0.000013889              -0.000044464               0.999999999              -0.000017276              -0.000049062               0.999999999               0.000005390              -0.000024928               0.999999999               0.000002790              -0.000022810               0.999999999               0.000001557              -0.000022776               0.999999999               0.000000880              -0.000023720               0.999999999               0.000000356              -0.000025200               0.999999999              -0.000000145              -0.000027031               0.999999999              -0.000000802              -0.000029451               0.999999999              -0.000001760              -0.000032269               0.999999999              -0.000002991              -0.000035384               0.999999999              -0.000004460              -0.000038443               0.999999999              -0.000006226              -0.000041843               0.999999999              -0.000008334              -0.000045897               0.999999999              -0.000010745              -0.000050356               0.999999999              -0.000013512              -0.000055351               0.999999999              -0.000016733              -0.000060871               0.999999999              -0.000020394              -0.000066874               0.999999999              -0.000024472              -0.000073355               0.999999999               0.000004901              -0.000032824               0.999999999               0.000002995              -0.000029992               0.999999999               0.000001996              -0.000030047               0.999999999               0.000001277              -0.000031441               0.999999999               0.000000633              -0.000033576               0.999999999              -0.000000150              -0.000036341               0.999999999              -0.000001313              -0.000039827               0.999999999              -0.000002804              -0.000043917               0.999999999              -0.000004680              -0.000048175               0.999999999              -0.000006841              -0.000052495               0.999999999              -0.000009345              -0.000057355               0.999999999              -0.000012227              -0.000062852               0.999999999              -0.000015522              -0.000068882               0.999999999              -0.000019316              -0.000075527               0.999999999              -0.000023534              -0.000082830               0.999999999              -0.000028212              -0.000090732               0.999999999              -0.000033325              -0.000099290               0.999999999               0.000004399              -0.000040404               0.999999999               0.000003247              -0.000036879               0.999999999               0.000002430              -0.000037118               0.999999999               0.000001660              -0.000039044               0.999999999               0.000000781              -0.000041934               0.999999999              -0.000000424              -0.000045737               0.999999999              -0.000002106              -0.000050502               0.999999999              -0.000004263              -0.000055808               0.999999999              -0.000006745              -0.000061471               0.999999999              -0.000009531              -0.000067285               0.999999999              -0.000012780              -0.000073869               0.999999999              -0.000016496              -0.000081224               0.999999999              -0.000020714              -0.000089265               0.999999999              -0.000025432              -0.000098001               0.999999999              -0.000030642              -0.000107484               0.999999999              -0.000036377              -0.000117748               0.999999999              -0.000042535              -0.000128752               0.999999999               0.000003841              -0.000047564               0.999999999               0.000003522              -0.000043455               0.999999999               0.000002868              -0.000043961               0.999999999               0.000001954              -0.000046505               0.999999999               0.000000762              -0.000050264               0.999999999              -0.000000964              -0.000055263               0.999999999              -0.000003313              -0.000061291               0.999999999              -0.000006069              -0.000068079               0.999999999              -0.000009181              -0.000075222               0.999999999              -0.000012619              -0.000082965               0.999999999              -0.000016476              -0.000091772               0.999999999              -0.000020862              -0.000101566               0.999999999              -0.000025847              -0.000112103               0.999999999              -0.000031442              -0.000123565               0.999999999              -0.000037600              -0.000135872               0.999999999              -0.000044259              -0.000149017               0.999999999              -0.000051356              -0.000162988               0.999999999               0.000003244              -0.000054211               0.999999999               0.000003843              -0.000049714               0.999999999               0.000003235              -0.000050559               0.999999999               0.000002138              -0.000053808               0.999999999               0.000000560              -0.000058596               0.999999999              -0.000001768              -0.000064902               0.999999999              -0.000004726              -0.000072402               0.999999999              -0.000008073              -0.000080777               0.999999999              -0.000011624              -0.000090013               0.999999999              -0.000015478              -0.000100187               0.999999999              -0.000019926              -0.000111693               0.999999999              -0.000025051              -0.000124316               0.999999999              -0.000030831              -0.000137841               0.999999999              -0.000037278              -0.000152436               0.999999999              -0.000044262              -0.000168021               0.999999999              -0.000051729              -0.000184391               0.999999999              -0.000059664              -0.000201417               0.999999999               0.000002632              -0.000060270               0.999999999               0.000004161              -0.000055637               0.999999999               0.000003527              -0.000056919               0.999999999               0.000002230              -0.000060947               0.999999999               0.000000199              -0.000066959               0.999999999              -0.000002732              -0.000074710               0.999999999              -0.000006164              -0.000083977               0.999999999              -0.000009837              -0.000094507               0.999999999              -0.000013675              -0.000106275               0.999999999              -0.000018093              -0.000119264               0.999999999              -0.000023242              -0.000133789               0.999999999              -0.000029078              -0.000149565               0.999999999              -0.000035577              -0.000166415               0.999999999              -0.000042711              -0.000184405               0.999999999              -0.000050343              -0.000203500               0.999999999              -0.000058432              -0.000223423               0.999999999              -0.000066940              -0.000244025               0.999999999               0.000001966              -0.000065979               0.999999999               0.000004297              -0.000061617               0.999999999               0.000004044              -0.000062341               0.999999999               0.000002969              -0.000065808               0.999999999               0.000001250              -0.000071183               0.999999999              -0.000001214              -0.000078285               0.999999999              -0.000004174              -0.000086923               0.999999999              -0.000007471              -0.000096934               0.999999999              -0.000010873              -0.000108077               0.999999999              -0.000014342              -0.000120396               0.999999999              -0.000018321              -0.000133956               0.999999999              -0.000022929              -0.000148717               0.999999999              -0.000027967              -0.000164443               0.999999999              -0.000033525              -0.000181208               0.999999999              -0.000039610              -0.000199012               0.999999999              -0.000046056              -0.000217886               0.999999999              -0.000052912              -0.000237747               0.999999999               0.000001395              -0.000071139               0.999999999               0.000004255              -0.000067340               0.999999999               0.000004383              -0.000067764               0.999999999               0.000003578              -0.000070792               0.999999999               0.000002189              -0.000075643               0.999999999               0.000000150              -0.000082120               0.999999999              -0.000002358              -0.000090150               0.999999999              -0.000005293              -0.000099579               0.999999999              -0.000008230              -0.000110272               0.999999999              -0.000011104              -0.000122010               0.999999999              -0.000014131              -0.000134748               0.999999999              -0.000017584              -0.000148556               0.999999999              -0.000021331              -0.000163396               0.999999999              -0.000025403              -0.000179130               0.999999999              -0.000029974              -0.000195677               0.999999999              -0.000034868              -0.000213212               0.999999999              -0.000040253              -0.000231748               0.999999999               0.000000928              -0.000075630               0.999999999               0.000004016              -0.000072634               0.999999999               0.000004464              -0.000073026               0.999999999               0.000003951              -0.000075729               0.999999999               0.000002834              -0.000080170               0.999999999               0.000001215              -0.000086146               0.999999999              -0.000000896              -0.000093628               0.999999999              -0.000003305              -0.000102551               0.999999999              -0.000005818              -0.000112791               0.999999999              -0.000008193              -0.000124026               0.999999999              -0.000010487              -0.000136122               0.999999999              -0.000012973              -0.000149174               0.999999999              -0.000015662              -0.000163201               0.999999999              -0.000018535              -0.000178023               0.999999999              -0.000021655              -0.000193662               0.999999999              -0.000025147              -0.000210101               0.999999999              -0.000028906              -0.000227416               0.999999999               0.000000597              -0.000079428               0.999999999               0.000003567              -0.000077363               0.999999999               0.000004207              -0.000077865               0.999999999               0.000003956              -0.000080390               0.999999999               0.000003101              -0.000084556               0.999999999               0.000001809              -0.000090201               0.999999999               0.000000253              -0.000097305               0.999999999              -0.000001627              -0.000105841               0.999999999              -0.000003661              -0.000115596               0.999999999              -0.000005595              -0.000126254               0.999999999              -0.000007391              -0.000137825               0.999999999              -0.000009123              -0.000150301               0.999999999              -0.000010975              -0.000163676               0.999999999              -0.000012900              -0.000177872               0.999999999              -0.000014907              -0.000192885               0.999999999              -0.000017123              -0.000208610               0.999999999              -0.000019386              -0.000225077               0.999999999               0.000000347              -0.000082431               0.999999999               0.000002881              -0.000081294               0.999999999               0.000003603              -0.000082034               0.999999999               0.000003529              -0.000084538               0.999999999               0.000002890              -0.000088543               0.999999999               0.000002018              -0.000094034               0.999999999               0.000000887              -0.000100872               0.999999999              -0.000000497              -0.000108986               0.999999999              -0.000001989              -0.000118248               0.999999999              -0.000003426              -0.000128474               0.999999999              -0.000004759              -0.000139667               0.999999999              -0.000005975              -0.000151755               0.999999999              -0.000007204              -0.000164699               0.999999999              -0.000008462              -0.000178489               0.999999999              -0.000009701              -0.000193012               0.999999999              -0.000010870              -0.000208216               0.999999999              -0.000012002              -0.000224067               0.999999999               0.000000180              -0.000084643               0.999999999               0.000002028              -0.000084276               0.999999999               0.000002659              -0.000085273               0.999999999               0.000002643              -0.000087827               0.999999999               0.000002267              -0.000091843               0.999999999               0.000001727              -0.000097186               0.999999999               0.000000938              -0.000103806               0.999999999               0.000000087              -0.000111650               0.999999999              -0.000000823              -0.000120502               0.999999999              -0.000001786              -0.000130421               0.999999999              -0.000002719              -0.000141365               0.999999999              -0.000003546              -0.000153178               0.999999999              -0.000004285              -0.000165792               0.999999999              -0.000005013              -0.000179227               0.999999999              -0.000005712              -0.000193445               0.999999999              -0.000006271              -0.000208354               0.999999999              -0.000006758              -0.000223777               0.999999999               0.000000079              -0.000085994               0.999999999               0.000001047              -0.000086125               0.999999999               0.000001410              -0.000087331               0.999999999               0.000001419              -0.000089970               0.999999999               0.000001277              -0.000093992               0.999999999               0.000000934              -0.000099281               0.999999999               0.000000611              -0.000105794               0.999999999               0.000000234              -0.000113429               0.999999999              -0.000000234              -0.000122072               0.999999999              -0.000000747              -0.000131825               0.999999999              -0.000001228              -0.000142563               0.999999999              -0.000001617              -0.000154116               0.999999999              -0.000001960              -0.000166518               0.999999999              -0.000002310              -0.000179796               0.999999999              -0.000002619              -0.000193824               0.999999999              -0.000002837              -0.000208519               0.999999999              -0.000003028              -0.000223713               0.999999999              -0.000000000              -0.000086424               0.999999999               0.000000000              -0.000086734               0.999999999              -0.000000000              -0.000088057               0.999999999               0.000000000              -0.000090734               0.999999999               0.000000000              -0.000094720               0.999999999              -0.000000000              -0.000100041               0.999999999              -0.000000000              -0.000106521               0.999999999               0.000000000              -0.000114011               0.999999999              -0.000000000              -0.000122627               0.999999999              -0.000000000              -0.000132335               0.999999999               0.000000000              -0.000142951               0.999999999              -0.000000000              -0.000154443               0.999999999              -0.000000000              -0.000166801               0.999999999              -0.000000000              -0.000180004               0.999999999              -0.000000000              -0.000193954               0.999999999               0.000000000              -0.000208564               0.999999999               0.000000000              -0.000223680               0.999999999              -0.000006024              -0.000000000               0.999999999              -0.000002583              -0.000000000               0.999999999              -0.000000905               0.000000000               0.999999999              -0.000000079               0.000000000               0.999999999               0.000000363               0.000000000               0.999999999               0.000000522              -0.000000000               0.999999999               0.000000477              -0.000000000               0.999999999               0.000000404              -0.000000000               0.999999999               0.000000379              -0.000000000               0.999999999               0.000000445              -0.000000000               0.999999999               0.000000602               0.000000000               0.999999999               0.000000986              -0.000000000               0.999999999               0.000001794              -0.000000000               0.999999999               0.000003024               0.000000000               0.999999999               0.000004676              -0.000000000               0.999999999               0.000006864              -0.000000000               0.999999999               0.000009629              -0.000000000               0.999999999              -0.000005916              -0.000008396               0.999999999              -0.000002603              -0.000007747               0.999999999              -0.000001010              -0.000007700               0.999999999              -0.000000159              -0.000007957               0.999999999               0.000000262              -0.000008396               0.999999999               0.000000432              -0.000008897               0.999999999               0.000000506              -0.000009560               0.999999999               0.000000557              -0.000010404               0.999999999               0.000000683              -0.000011374               0.999999999               0.000000957              -0.000012364               0.999999999               0.000001399              -0.000013440               0.999999999               0.000002064              -0.000014821               0.999999999               0.000003057              -0.000016375               0.999999999               0.000004486              -0.000018130               0.999999999               0.000006381              -0.000020141               0.999999999               0.000008778              -0.000022382               0.999999999               0.000011707              -0.000024930               0.999999999              -0.000005730              -0.000016749               0.999999999              -0.000002688              -0.000015375               0.999999999              -0.000001231              -0.000015333               0.999999999              -0.000000448              -0.000015874               0.999999999              -0.000000020              -0.000016787               0.999999999               0.000000280              -0.000017892               0.999999999               0.000000587              -0.000019347               0.999999999               0.000001011              -0.000021099               0.999999999               0.000001649              -0.000023096               0.999999999               0.000002432              -0.000025087               0.999999999               0.000003413              -0.000027299               0.999999999               0.000004722              -0.000030019               0.999999999               0.000006405              -0.000033029               0.999999999               0.000008474              -0.000036435               0.999999999               0.000010948              -0.000040262               0.999999999               0.000013889              -0.000044464               0.999999999               0.000017276              -0.000049062               0.999999999              -0.000005390              -0.000024928               0.999999999              -0.000002790              -0.000022810               0.999999999              -0.000001557              -0.000022776               0.999999999              -0.000000880              -0.000023720               0.999999999              -0.000000356              -0.000025200               0.999999999               0.000000145              -0.000027031               0.999999999               0.000000802              -0.000029451               0.999999999               0.000001760              -0.000032269               0.999999999               0.000002991              -0.000035384               0.999999999               0.000004460              -0.000038443               0.999999999               0.000006226              -0.000041843               0.999999999               0.000008334              -0.000045897               0.999999999               0.000010745              -0.000050356               0.999999999               0.000013512              -0.000055351               0.999999999               0.000016733              -0.000060871               0.999999999               0.000020394              -0.000066874               0.999999999               0.000024472              -0.000073355               0.999999999              -0.000004901              -0.000032824               0.999999999              -0.000002995              -0.000029992               0.999999999              -0.000001996              -0.000030047               0.999999999              -0.000001277              -0.000031441               0.999999999              -0.000000633              -0.000033576               0.999999999               0.000000150              -0.000036341               0.999999999               0.000001313              -0.000039827               0.999999999               0.000002804              -0.000043917               0.999999999               0.000004680              -0.000048175               0.999999999               0.000006841              -0.000052495               0.999999999               0.000009345              -0.000057355               0.999999999               0.000012227              -0.000062852               0.999999999               0.000015522              -0.000068882               0.999999999               0.000019316              -0.000075527               0.999999999               0.000023534              -0.000082830               0.999999999               0.000028212              -0.000090732               0.999999999               0.000033325              -0.000099290               0.999999999              -0.000004399              -0.000040404               0.999999999              -0.000003247              -0.000036879               0.999999999              -0.000002430              -0.000037118               0.999999999              -0.000001660              -0.000039044               0.999999999              -0.000000781              -0.000041934               0.999999999               0.000000424              -0.000045737               0.999999999               0.000002106              -0.000050502               0.999999999               0.000004263              -0.000055808               0.999999999               0.000006745              -0.000061471               0.999999999               0.000009531              -0.000067285               0.999999999               0.000012780              -0.000073869               0.999999999               0.000016496              -0.000081224               0.999999999               0.000020714              -0.000089265               0.999999999               0.000025432              -0.000098001               0.999999999               0.000030642              -0.000107484               0.999999999               0.000036377              -0.000117748               0.999999999               0.000042535              -0.000128752               0.999999999              -0.000003841              -0.000047564               0.999999999              -0.000003522              -0.000043455               0.999999999              -0.000002868              -0.000043961               0.999999999              -0.000001954              -0.000046505               0.999999999              -0.000000762              -0.000050264               0.999999999               0.000000964              -0.000055263               0.999999999               0.000003313              -0.000061291               0.999999999               0.000006069              -0.000068079               0.999999999               0.000009181              -0.000075222               0.999999999               0.000012619              -0.000082965               0.999999999               0.000016476              -0.000091772               0.999999999               0.000020862              -0.000101566               0.999999999               0.000025847              -0.000112103               0.999999999               0.000031442              -0.000123565               0.999999999               0.000037600              -0.000135872               0.999999999               0.000044259              -0.000149017               0.999999999               0.000051356              -0.000162988               0.999999999              -0.000003244              -0.000054211               0.999999999              -0.000003843              -0.000049714               0.999999999              -0.000003235              -0.000050559               0.999999999              -0.000002138              -0.000053808               0.999999999              -0.000000560              -0.000058596               0.999999999               0.000001768              -0.000064902               0.999999999               0.000004726              -0.000072402               0.999999999               0.000008073              -0.000080777               0.999999999               0.000011624              -0.000090013               0.999999999               0.000015478              -0.000100187               0.999999999               0.000019926              -0.000111693               0.999999999               0.000025051              -0.000124316               0.999999999               0.000030831              -0.000137841               0.999999999               0.000037278              -0.000152436               0.999999999               0.000044262              -0.000168021               0.999999999               0.000051729              -0.000184391               0.999999999               0.000059664              -0.000201417               0.999999999              -0.000002632              -0.000060270               0.999999999              -0.000004161              -0.000055637               0.999999999              -0.000003527              -0.000056919               0.999999999              -0.000002230              -0.000060947               0.999999999              -0.000000199              -0.000066959               0.999999999               0.000002732              -0.000074710               0.999999999               0.000006164              -0.000083977               0.999999999               0.000009837              -0.000094507               0.999999999               0.000013675              -0.000106275               0.999999999               0.000018093              -0.000119264               0.999999999               0.000023242              -0.000133789               0.999999999               0.000029078              -0.000149565               0.999999999               0.000035577              -0.000166415               0.999999999               0.000042711              -0.000184405               0.999999999               0.000050343              -0.000203500               0.999999999               0.000058432              -0.000223423               0.999999999               0.000066940              -0.000244025               0.999999999              -0.000001966              -0.000065979               0.999999999              -0.000004297              -0.000061617               0.999999999              -0.000004044              -0.000062341               0.999999999              -0.000002969              -0.000065808               0.999999999              -0.000001250              -0.000071183               0.999999999               0.000001214              -0.000078285               0.999999999               0.000004174              -0.000086923               0.999999999               0.000007471              -0.000096934               0.999999999               0.000010873              -0.000108077               0.999999999               0.000014342              -0.000120396               0.999999999               0.000018321              -0.000133956               0.999999999               0.000022929              -0.000148717               0.999999999               0.000027967              -0.000164443               0.999999999               0.000033525              -0.000181208               0.999999999               0.000039610              -0.000199012               0.999999999               0.000046056              -0.000217886               0.999999999               0.000052912              -0.000237747               0.999999999              -0.000001395              -0.000071139               0.999999999              -0.000004255              -0.000067340               0.999999999              -0.000004383              -0.000067764               0.999999999              -0.000003578              -0.000070792               0.999999999              -0.000002189              -0.000075643               0.999999999              -0.000000150              -0.000082120               0.999999999               0.000002358              -0.000090150               0.999999999               0.000005293              -0.000099579               0.999999999               0.000008230              -0.000110272               0.999999999               0.000011104              -0.000122010               0.999999999               0.000014131              -0.000134748               0.999999999               0.000017584              -0.000148556               0.999999999               0.000021331              -0.000163396               0.999999999               0.000025403              -0.000179130               0.999999999               0.000029974              -0.000195677               0.999999999               0.000034868              -0.000213212               0.999999999               0.000040253              -0.000231748               0.999999999              -0.000000928              -0.000075630               0.999999999              -0.000004016              -0.000072634               0.999999999              -0.000004464              -0.000073026               0.999999999              -0.000003951              -0.000075729               0.999999999              -0.000002834              -0.000080170               0.999999999              -0.000001215              -0.000086146               0.999999999               0.000000896              -0.000093628               0.999999999               0.000003305              -0.000102551               0.999999999               0.000005818              -0.000112791               0.999999999               0.000008193              -0.000124026               0.999999999               0.000010487              -0.000136122               0.999999999               0.000012973              -0.000149174               0.999999999               0.000015662              -0.000163201               0.999999999               0.000018535              -0.000178023               0.999999999               0.000021655              -0.000193662               0.999999999               0.000025147              -0.000210101               0.999999999               0.000028906              -0.000227416               0.999999999              -0.000000597              -0.000079428               0.999999999              -0.000003567              -0.000077363               0.999999999              -0.000004207              -0.000077865               0.999999999              -0.000003956              -0.000080390               0.999999999              -0.000003101              -0.000084556               0.999999999              -0.000001809              -0.000090201               0.999999999              -0.000000253              -0.000097305               0.999999999               0.000001627              -0.000105841               0.999999999               0.000003661              -0.000115596               0.999999999               0.000005595              -0.000126254               0.999999999               0.000007391              -0.000137825               0.999999999               0.000009123              -0.000150301               0.999999999               0.000010975              -0.000163676               0.999999999               0.000012900              -0.000177872               0.999999999               0.000014907              -0.000192885               0.999999999               0.000017123              -0.000208610               0.999999999               0.000019386              -0.000225077               0.999999999              -0.000000347              -0.000082431               0.999999999              -0.000002881              -0.000081294               0.999999999              -0.000003603              -0.000082034               0.999999999              -0.000003529              -0.000084538               0.999999999              -0.000002890              -0.000088543               0.999999999              -0.000002018              -0.000094034               0.999999999              -0.000000887              -0.000100872               0.999999999               0.000000497              -0.000108986               0.999999999               0.000001989              -0.000118248               0.999999999               0.000003426              -0.000128474               0.999999999               0.000004759              -0.000139667               0.999999999               0.000005975              -0.000151755               0.999999999               0.000007204              -0.000164699               0.999999999               0.000008462              -0.000178489               0.999999999               0.000009701              -0.000193012               0.999999999               0.000010870              -0.000208216               0.999999999               0.000012002              -0.000224067               0.999999999              -0.000000180              -0.000084643               0.999999999              -0.000002028              -0.000084276               0.999999999              -0.000002659              -0.000085273               0.999999999              -0.000002643              -0.000087827               0.999999999              -0.000002267              -0.000091843               0.999999999              -0.000001727              -0.000097186               0.999999999              -0.000000938              -0.000103806               0.999999999              -0.000000087              -0.000111650               0.999999999               0.000000823              -0.000120502               0.999999999               0.000001786              -0.000130421               0.999999999               0.000002719              -0.000141365               0.999999999               0.000003546              -0.000153178               0.999999999               0.000004285              -0.000165792               0.999999999               0.000005013              -0.000179227               0.999999999               0.000005712              -0.000193445               0.999999999               0.000006271              -0.000208354               0.999999999               0.000006758              -0.000223777               0.999999999              -0.000000079              -0.000085994               0.999999999              -0.000001047              -0.000086125               0.999999999              -0.000001410              -0.000087331               0.999999999              -0.000001419              -0.000089970               0.999999999              -0.000001277              -0.000093992               0.999999999              -0.000000934              -0.000099281               0.999999999              -0.000000611              -0.000105794               0.999999999              -0.000000234              -0.000113429               0.999999999               0.000000234              -0.000122072               0.999999999               0.000000747              -0.000131825               0.999999999               0.000001228              -0.000142563               0.999999999               0.000001617              -0.000154116               0.999999999               0.000001960              -0.000166518               0.999999999               0.000002310              -0.000179796               0.999999999               0.000002619              -0.000193824               0.999999999               0.000002837              -0.000208519               0.999999999               0.000003028              -0.000223713               0.999999999              -0.000000000              -0.000086424               0.999999999               0.000000000              -0.000086734               0.999999999              -0.000000000              -0.000088057               0.999999999               0.000000000              -0.000090734               0.999999999               0.000000000              -0.000094720               0.999999999              -0.000000000              -0.000100041               0.999999999              -0.000000000              -0.000106521               0.999999999               0.000000000              -0.000114011               0.999999999              -0.000000000              -0.000122627               0.999999999              -0.000000000              -0.000132335               0.999999999               0.000000000              -0.000142951               0.999999999              -0.000000000              -0.000154443               0.999999999              -0.000000000              -0.000166801               0.999999999              -0.000000000              -0.000180004               0.999999999              -0.000000000              -0.000193954               0.999999999               0.000000000              -0.000208564               0.999999999               0.000000000              -0.000223680               0.999999999              -0.000006024              -0.000000000               0.999999999              -0.000002583              -0.000000000               0.999999999              -0.000000905               0.000000000               0.999999999              -0.000000079               0.000000000               0.999999999               0.000000363               0.000000000               0.999999999               0.000000522              -0.000000000               0.999999999               0.000000477              -0.000000000               0.999999999               0.000000404              -0.000000000               0.999999999               0.000000379              -0.000000000               0.999999999               0.000000445              -0.000000000               0.999999999               0.000000602               0.000000000               0.999999999               0.000000986              -0.000000000               0.999999999               0.000001794              -0.000000000               0.999999999               0.000003024               0.000000000               0.999999999               0.000004676              -0.000000000               0.999999999               0.000006864              -0.000000000               0.999999999               0.000009629              -0.000000000               0.999999999              -0.000005916               0.000008396               0.999999999              -0.000002603               0.000007747               0.999999999              -0.000001010               0.000007700               0.999999999              -0.000000159               0.000007957               0.999999999               0.000000262               0.000008396               0.999999999               0.000000432               0.000008897               0.999999999               0.000000506               0.000009560               0.999999999               0.000000557               0.000010404               0.999999999               0.000000683               0.000011374               0.999999999               0.000000957               0.000012364               0.999999999               0.000001399               0.000013440               0.999999999               0.000002064               0.000014821               0.999999999               0.000003057               0.000016375               0.999999999               0.000004486               0.000018130               0.999999999               0.000006381               0.000020141               0.999999999               0.000008778               0.000022382               0.999999999               0.000011707               0.000024930               0.999999999              -0.000005730               0.000016749               0.999999999              -0.000002688               0.000015375               0.999999999              -0.000001231               0.000015333               0.999999999              -0.000000448               0.000015874               0.999999999              -0.000000020               0.000016787               0.999999999               0.000000280               0.000017892               0.999999999               0.000000587               0.000019347               0.999999999               0.000001011               0.000021099               0.999999999               0.000001649               0.000023096               0.999999999               0.000002432               0.000025087               0.999999999               0.000003413               0.000027299               0.999999999               0.000004722               0.000030019               0.999999999               0.000006405               0.000033029               0.999999999               0.000008474               0.000036435               0.999999999               0.000010948               0.000040262               0.999999999               0.000013889               0.000044464               0.999999999               0.000017276               0.000049062               0.999999999              -0.000005390               0.000024928               0.999999999              -0.000002790               0.000022810               0.999999999              -0.000001557               0.000022776               0.999999999              -0.000000880               0.000023720               0.999999999              -0.000000356               0.000025200               0.999999999               0.000000145               0.000027031               0.999999999               0.000000802               0.000029451               0.999999999               0.000001760               0.000032269               0.999999999               0.000002991               0.000035384               0.999999999               0.000004460               0.000038443               0.999999999               0.000006226               0.000041843               0.999999999               0.000008334               0.000045897               0.999999999               0.000010745               0.000050356               0.999999999               0.000013512               0.000055351               0.999999999               0.000016733               0.000060871               0.999999999               0.000020394               0.000066874               0.999999999               0.000024472               0.000073355               0.999999999              -0.000004901               0.000032824               0.999999999              -0.000002995               0.000029992               0.999999999              -0.000001996               0.000030047               0.999999999              -0.000001277               0.000031441               0.999999999              -0.000000633               0.000033576               0.999999999               0.000000150               0.000036341               0.999999999               0.000001313               0.000039827               0.999999999               0.000002804               0.000043917               0.999999999               0.000004680               0.000048175               0.999999999               0.000006841               0.000052495               0.999999999               0.000009345               0.000057355               0.999999999               0.000012227               0.000062852               0.999999999               0.000015522               0.000068882               0.999999999               0.000019316               0.000075527               0.999999999               0.000023534               0.000082830               0.999999999               0.000028212               0.000090732               0.999999999               0.000033325               0.000099290               0.999999999              -0.000004399               0.000040404               0.999999999              -0.000003247               0.000036879               0.999999999              -0.000002430               0.000037118               0.999999999              -0.000001660               0.000039044               0.999999999              -0.000000781               0.000041934               0.999999999               0.000000424               0.000045737               0.999999999               0.000002106               0.000050502               0.999999999               0.000004263               0.000055808               0.999999999               0.000006745               0.000061471               0.999999999               0.000009531               0.000067285               0.999999999               0.000012780               0.000073869               0.999999999               0.000016496               0.000081224               0.999999999               0.000020714               0.000089265               0.999999999               0.000025432               0.000098001               0.999999999               0.000030642               0.000107484               0.999999999               0.000036377               0.000117748               0.999999999               0.000042535               0.000128752               0.999999999              -0.000003841               0.000047564               0.999999999              -0.000003522               0.000043455               0.999999999              -0.000002868               0.000043961               0.999999999              -0.000001954               0.000046505               0.999999999              -0.000000762               0.000050264               0.999999999               0.000000964               0.000055263               0.999999999               0.000003313               0.000061291               0.999999999               0.000006069               0.000068079               0.999999999               0.000009181               0.000075222               0.999999999               0.000012619               0.000082965               0.999999999               0.000016476               0.000091772               0.999999999               0.000020862               0.000101566               0.999999999               0.000025847               0.000112103               0.999999999               0.000031442               0.000123565               0.999999999               0.000037600               0.000135872               0.999999999               0.000044259               0.000149017               0.999999999               0.000051356               0.000162988               0.999999999              -0.000003244               0.000054211               0.999999999              -0.000003843               0.000049714               0.999999999              -0.000003235               0.000050559               0.999999999              -0.000002138               0.000053808               0.999999999              -0.000000560               0.000058596               0.999999999               0.000001768               0.000064902               0.999999999               0.000004726               0.000072402               0.999999999               0.000008073               0.000080777               0.999999999               0.000011624               0.000090013               0.999999999               0.000015478               0.000100187               0.999999999               0.000019926               0.000111693               0.999999999               0.000025051               0.000124316               0.999999999               0.000030831               0.000137841               0.999999999               0.000037278               0.000152436               0.999999999               0.000044262               0.000168021               0.999999999               0.000051729               0.000184391               0.999999999               0.000059664               0.000201417               0.999999999              -0.000002632               0.000060270               0.999999999              -0.000004161               0.000055637               0.999999999              -0.000003527               0.000056919               0.999999999              -0.000002230               0.000060947               0.999999999              -0.000000199               0.000066959               0.999999999               0.000002732               0.000074710               0.999999999               0.000006164               0.000083977               0.999999999               0.000009837               0.000094507               0.999999999               0.000013675               0.000106275               0.999999999               0.000018093               0.000119264               0.999999999               0.000023242               0.000133789               0.999999999               0.000029078               0.000149565               0.999999999               0.000035577               0.000166415               0.999999999               0.000042711               0.000184405               0.999999999               0.000050343               0.000203500               0.999999999               0.000058432               0.000223423               0.999999999               0.000066940               0.000244025               0.999999999              -0.000001966               0.000065979               0.999999999              -0.000004297               0.000061617               0.999999999              -0.000004044               0.000062341               0.999999999              -0.000002969               0.000065808               0.999999999              -0.000001250               0.000071183               0.999999999               0.000001214               0.000078285               0.999999999               0.000004174               0.000086923               0.999999999               0.000007471               0.000096934               0.999999999               0.000010873               0.000108077               0.999999999               0.000014342               0.000120396               0.999999999               0.000018321               0.000133956               0.999999999               0.000022929               0.000148717               0.999999999               0.000027967               0.000164443               0.999999999               0.000033525               0.000181208               0.999999999               0.000039610               0.000199012               0.999999999               0.000046056               0.000217886               0.999999999               0.000052912               0.000237747               0.999999999              -0.000001395               0.000071139               0.999999999              -0.000004255               0.000067340               0.999999999              -0.000004383               0.000067764               0.999999999              -0.000003578               0.000070792               0.999999999              -0.000002189               0.000075643               0.999999999              -0.000000150               0.000082120               0.999999999               0.000002358               0.000090150               0.999999999               0.000005293               0.000099579               0.999999999               0.000008230               0.000110272               0.999999999               0.000011104               0.000122010               0.999999999               0.000014131               0.000134748               0.999999999               0.000017584               0.000148556               0.999999999               0.000021331               0.000163396               0.999999999               0.000025403               0.000179130               0.999999999               0.000029974               0.000195677               0.999999999               0.000034868               0.000213212               0.999999999               0.000040253               0.000231748               0.999999999              -0.000000928               0.000075630               0.999999999              -0.000004016               0.000072634               0.999999999              -0.000004464               0.000073026               0.999999999              -0.000003951               0.000075729               0.999999999              -0.000002834               0.000080170               0.999999999              -0.000001215               0.000086146               0.999999999               0.000000896               0.000093628               0.999999999               0.000003305               0.000102551               0.999999999               0.000005818               0.000112791               0.999999999               0.000008193               0.000124026               0.999999999               0.000010487               0.000136122               0.999999999               0.000012973               0.000149174               0.999999999               0.000015662               0.000163201               0.999999999               0.000018535               0.000178023               0.999999999               0.000021655               0.000193662               0.999999999               0.000025147               0.000210101               0.999999999               0.000028906               0.000227416               0.999999999              -0.000000597               0.000079428               0.999999999              -0.000003567               0.000077363               0.999999999              -0.000004207               0.000077865               0.999999999              -0.000003956               0.000080390               0.999999999              -0.000003101               0.000084556               0.999999999              -0.000001809               0.000090201               0.999999999              -0.000000253               0.000097305               0.999999999               0.000001627               0.000105841               0.999999999               0.000003661               0.000115596               0.999999999               0.000005595               0.000126254               0.999999999               0.000007391               0.000137825               0.999999999               0.000009123               0.000150301               0.999999999               0.000010975               0.000163676               0.999999999               0.000012900               0.000177872               0.999999999               0.000014907               0.000192885               0.999999999               0.000017123               0.000208610               0.999999999               0.000019386               0.000225077               0.999999999              -0.000000347               0.000082431               0.999999999              -0.000002881               0.000081294               0.999999999              -0.000003603               0.000082034               0.999999999              -0.000003529               0.000084538               0.999999999              -0.000002890               0.000088543               0.999999999              -0.000002018               0.000094034               0.999999999              -0.000000887               0.000100872               0.999999999               0.000000497               0.000108986               0.999999999               0.000001989               0.000118248               0.999999999               0.000003426               0.000128474               0.999999999               0.000004759               0.000139667               0.999999999               0.000005975               0.000151755               0.999999999               0.000007204               0.000164699               0.999999999               0.000008462               0.000178489               0.999999999               0.000009701               0.000193012               0.999999999               0.000010870               0.000208216               0.999999999               0.000012002               0.000224067               0.999999999              -0.000000180               0.000084643               0.999999999              -0.000002028               0.000084276               0.999999999              -0.000002659               0.000085273               0.999999999              -0.000002643               0.000087827               0.999999999              -0.000002267               0.000091843               0.999999999              -0.000001727               0.000097186               0.999999999              -0.000000938               0.000103806               0.999999999              -0.000000087               0.000111650               0.999999999               0.000000823               0.000120502               0.999999999               0.000001786               0.000130421               0.999999999               0.000002719               0.000141365               0.999999999               0.000003546               0.000153178               0.999999999               0.000004285               0.000165792               0.999999999               0.000005013               0.000179227               0.999999999               0.000005712               0.000193445               0.999999999               0.000006271               0.000208354               0.999999999               0.000006758               0.000223777               0.999999999              -0.000000079               0.000085994               0.999999999              -0.000001047               0.000086125               0.999999999              -0.000001410               0.000087331               0.999999999              -0.000001419               0.000089970               0.999999999              -0.000001277               0.000093992               0.999999999              -0.000000934               0.000099281               0.999999999              -0.000000611               0.000105794               0.999999999              -0.000000234               0.000113429               0.999999999               0.000000234               0.000122072               0.999999999               0.000000747               0.000131825               0.999999999               0.000001228               0.000142563               0.999999999               0.000001617               0.000154116               0.999999999               0.000001960               0.000166518               0.999999999               0.000002310               0.000179796               0.999999999               0.000002619               0.000193824               0.999999999               0.000002837               0.000208519               0.999999999               0.000003028               0.000223713               0.999999999               0.000000000               0.000086424               0.999999999               0.000000000               0.000086734               0.999999999              -0.000000000               0.000088057               0.999999999              -0.000000000               0.000090734               0.999999999               0.000000000               0.000094720               0.999999999              -0.000000000               0.000100041               0.999999999              -0.000000000               0.000106521               0.999999999              -0.000000000               0.000114011               0.999999999              -0.000000000               0.000122627               0.999999999               0.000000000               0.000132335               0.999999999              -0.000000000               0.000142951               0.999999999               0.000000000               0.000154443               0.999999999               0.000000000               0.000166801               0.999999999              -0.000000000               0.000180004               0.999999999               0.000000000               0.000193954               0.999999999               0.000000000               0.000208564               0.999999999               0.000000000               0.000223680               0.999999999 </DataArray>
<DataArray type="Float64"                                    Name="stress"                                                      NumberOfComponents="10" format="ascii">
              0.000137232               0.001592139              -0.000000000              -0.000147555               0.000579893               0.000432338               0.000000000               0.000000000               0.000000000               0.000000000               0.000163337               0.001349264              -0.000000000              -0.000107406               0.000485552               0.000378146               0.000000000               0.000000000               0.000000000               0.000000000               0.000242875               0.001155091               0.000000000              -0.000053308               0.000402796               0.000349488               0.000000000               0.000000000               0.000000000               0.000000000               0.000275564               0.001045887               0.000000000              -0.000027399               0.000357759               0.000330360               0.000000000               0.000000000               0.000000000               0.000000000               0.000291992               0.000979395              -0.000000000              -0.000012927               0.000330771               0.000317844               0.000000000               0.000000000               0.000000000               0.000000000               0.000302898               0.000935924              -0.000000000              -0.000003404               0.000313106               0.000309702               0.000000000               0.000000000               0.000000000               0.000000000               0.000306189               0.000911674               0.000000000               0.000000862               0.000303601               0.000304463               0.000000000               0.000000000               0.000000000               0.000000000               0.000301575               0.000902240              -0.000000000               0.000000311               0.000300640               0.000300951               0.000000000               0.000000000               0.000000000               0.000000000               0.000291684               0.000900560              -0.000000000              -0.000003188               0.000301246               0.000298058               0.000000000               0.000000000               0.000000000               0.000000000               0.000279183               0.000900944               0.000000000              -0.000007924               0.000302953               0.000295029               0.000000000               0.000000000               0.000000000               0.000000000               0.000261402               0.000905743               0.000000000              -0.000015192               0.000306975               0.000291783               0.000000000               0.000000000               0.000000000               0.000000000               0.000230107               0.000918576              -0.000000000              -0.000028532               0.000315700               0.000287168               0.000000000               0.000000000               0.000000000               0.000000000               0.000188608               0.000935753              -0.000000000              -0.000046241               0.000327328               0.000281087               0.000000000               0.000000000               0.000000000               0.000000000               0.000146670               0.000959457              -0.000000000              -0.000064931               0.000341459               0.000276529               0.000000000               0.000000000               0.000000000               0.000000000               0.000100978               0.000989252               0.000000000              -0.000085789               0.000358344               0.000272554               0.000000000               0.000000000               0.000000000               0.000000000               0.000049524               0.001023523              -0.000000000              -0.000109369               0.000377627               0.000268259               0.000000000               0.000000000               0.000000000               0.000000000               0.000027669               0.001053930              -0.000000000              -0.000121365               0.000391761               0.000270396               0.000000000               0.000000000               0.000000000               0.000000000               0.000149767               0.001571489              -0.000123552              -0.000140273               0.000570582               0.000430309               0.000000000               0.000000000               0.000000000               0.000000000               0.000169970               0.001332341              -0.000084034              -0.000102804               0.000478377               0.000375573               0.000000000               0.000000000               0.000000000               0.000000000               0.000241867               0.001145321              -0.000043779              -0.000052465               0.000399258               0.000346793               0.000000000               0.000000000               0.000000000               0.000000000               0.000271874               0.001040476              -0.000025491              -0.000028107               0.000356191               0.000328084               0.000000000               0.000000000               0.000000000               0.000000000               0.000288088               0.000977734              -0.000017001              -0.000014184               0.000330636               0.000316452               0.000000000               0.000000000               0.000000000               0.000000000               0.000295170               0.000938097              -0.000012759              -0.000006573               0.000314887               0.000308314               0.000000000               0.000000000               0.000000000               0.000000000               0.000296156               0.000917952              -0.000010157              -0.000003685               0.000307209               0.000303524               0.000000000               0.000000000               0.000000000               0.000000000               0.000291122               0.000910651              -0.000010583              -0.000004661               0.000305101               0.000300440               0.000000000               0.000000000               0.000000000               0.000000000               0.000280610               0.000909660              -0.000015655              -0.000008479               0.000306043               0.000297565               0.000000000               0.000000000               0.000000000               0.000000000               0.000266277               0.000909339              -0.000021152              -0.000013813               0.000307714               0.000293901               0.000000000               0.000000000               0.000000000               0.000000000               0.000247547               0.000914103              -0.000020988              -0.000021433               0.000311842               0.000290410               0.000000000               0.000000000               0.000000000               0.000000000               0.000220222               0.000926506              -0.000019777              -0.000033230               0.000319909               0.000286679               0.000000000               0.000000000               0.000000000               0.000000000               0.000182965               0.000941969              -0.000019534              -0.000049134               0.000330364               0.000281230               0.000000000               0.000000000               0.000000000               0.000000000               0.000141283               0.000962254              -0.000016837              -0.000067300               0.000343182               0.000275881               0.000000000               0.000000000               0.000000000               0.000000000               0.000096256               0.000987295              -0.000013205              -0.000087316               0.000358200               0.000270885               0.000000000               0.000000000               0.000000000               0.000000000               0.000047451               0.001015493              -0.000007992              -0.000109142               0.000374875               0.000265733               0.000000000               0.000000000               0.000000000               0.000000000               0.000026238               0.001039796              -0.000005164              -0.000120135               0.000386640               0.000266505               0.000000000               0.000000000               0.000000000               0.000000000               0.000177777               0.001504309              -0.000236524              -0.000121372               0.000541889               0.000420517               0.000000000               0.000000000               0.000000000               0.000000000               0.000183213               0.001281370              -0.000161233              -0.000091466               0.000457608               0.000366142               0.000000000               0.000000000               0.000000000               0.000000000               0.000240245               0.001115686              -0.000084257              -0.000049369               0.000388348               0.000338979               0.000000000               0.000000000               0.000000000               0.000000000               0.000263323               0.001025903              -0.000049186              -0.000029492               0.000351795               0.000322303               0.000000000               0.000000000               0.000000000               0.000000000               0.000273878               0.000973194              -0.000034052              -0.000018945               0.000330710               0.000311765               0.000000000               0.000000000               0.000000000               0.000000000               0.000275422               0.000943932              -0.000025679              -0.000014708               0.000319544               0.000304835               0.000000000               0.000000000               0.000000000               0.000000000               0.000271020               0.000933792              -0.000020622              -0.000015091               0.000316291               0.000301200               0.000000000               0.000000000               0.000000000               0.000000000               0.000260569               0.000931816              -0.000021823              -0.000018763               0.000316857               0.000298093               0.000000000               0.000000000               0.000000000               0.000000000               0.000249705               0.000933434              -0.000030649              -0.000023040               0.000318821               0.000295782               0.000000000               0.000000000               0.000000000               0.000000000               0.000237624               0.000934373              -0.000038880              -0.000027688               0.000320684               0.000292996               0.000000000               0.000000000               0.000000000               0.000000000               0.000217811               0.000939084              -0.000036404              -0.000035706               0.000324927               0.000289221               0.000000000               0.000000000               0.000000000               0.000000000               0.000190776               0.000948613              -0.000032774              -0.000047035               0.000331879               0.000284844               0.000000000               0.000000000               0.000000000               0.000000000               0.000159022               0.000961040              -0.000030271              -0.000060497               0.000340509               0.000280012               0.000000000               0.000000000               0.000000000               0.000000000               0.000123243               0.000976975              -0.000023877              -0.000075906               0.000350957               0.000275051               0.000000000               0.000000000               0.000000000               0.000000000               0.000082647               0.000994568              -0.000016960              -0.000093328               0.000362629               0.000269301               0.000000000               0.000000000               0.000000000               0.000000000               0.000039727               0.001013352              -0.000009226              -0.000111771               0.000375038               0.000263267               0.000000000               0.000000000               0.000000000               0.000000000               0.000021439               0.001029417              -0.000005912              -0.000120637               0.000383348               0.000262711               0.000000000               0.000000000               0.000000000               0.000000000               0.000217728               0.001395313              -0.000329987              -0.000092766               0.000496022               0.000403256               0.000000000               0.000000000               0.000000000               0.000000000               0.000201213               0.001204347              -0.000224239              -0.000075088               0.000426475               0.000351386               0.000000000               0.000000000               0.000000000               0.000000000               0.000237452               0.001073586              -0.000117160              -0.000045154               0.000372910               0.000327756               0.000000000               0.000000000               0.000000000               0.000000000               0.000250757               0.001004396              -0.000071481              -0.000031516               0.000345300               0.000313785               0.000000000               0.000000000               0.000000000               0.000000000               0.000253684               0.000966121              -0.000051273              -0.000025634               0.000330582               0.000304948               0.000000000               0.000000000               0.000000000               0.000000000               0.000250107               0.000952045              -0.000038735              -0.000025215               0.000325750               0.000300535               0.000000000               0.000000000               0.000000000               0.000000000               0.000239107               0.000952681              -0.000031734              -0.000029420               0.000327364               0.000297944               0.000000000               0.000000000               0.000000000               0.000000000               0.000224753               0.000959216              -0.000033287              -0.000035620               0.000331609               0.000295989               0.000000000               0.000000000               0.000000000               0.000000000               0.000211901               0.000963086              -0.000043663              -0.000040923               0.000334667               0.000293744               0.000000000               0.000000000               0.000000000               0.000000000               0.000198448               0.000968330              -0.000051647              -0.000046623               0.000338314               0.000291691               0.000000000               0.000000000               0.000000000               0.000000000               0.000179609               0.000978854              -0.000046303              -0.000055003               0.000344616               0.000289612               0.000000000               0.000000000               0.000000000               0.000000000               0.000157634               0.000990786              -0.000039220              -0.000064735               0.000351837               0.000287102               0.000000000               0.000000000               0.000000000               0.000000000               0.000133054               0.001004657              -0.000033510              -0.000075687               0.000360111               0.000284425               0.000000000               0.000000000               0.000000000               0.000000000               0.000102031               0.001019145              -0.000025064              -0.000089131               0.000369422               0.000280291               0.000000000               0.000000000               0.000000000               0.000000000               0.000066637               0.001034436              -0.000016861              -0.000104315               0.000379580               0.000275265               0.000000000               0.000000000               0.000000000               0.000000000               0.000031672               0.001051860              -0.000008587              -0.000119605               0.000390485               0.000270880               0.000000000               0.000000000               0.000000000               0.000000000               0.000018563               0.001067795              -0.000006224              -0.000126513               0.000398099               0.000271586               0.000000000               0.000000000               0.000000000               0.000000000               0.000264173               0.001262054              -0.000392614              -0.000058692               0.000440245               0.000381552               0.000000000               0.000000000               0.000000000               0.000000000               0.000221123               0.001112619              -0.000268369              -0.000056157               0.000389588               0.000333432               0.000000000               0.000000000               0.000000000               0.000000000               0.000229342               0.001026373              -0.000143815              -0.000042293               0.000356219               0.000313925               0.000000000               0.000000000               0.000000000               0.000000000               0.000233996               0.000980134              -0.000091913              -0.000034768               0.000338297               0.000303529               0.000000000               0.000000000               0.000000000               0.000000000               0.000233239               0.000959175              -0.000066959              -0.000032432               0.000330532               0.000298100               0.000000000               0.000000000               0.000000000               0.000000000               0.000223339               0.000960434              -0.000051866              -0.000036302               0.000332242               0.000295940               0.000000000               0.000000000               0.000000000               0.000000000               0.000209235               0.000972562              -0.000043349              -0.000043107               0.000338553               0.000295446               0.000000000               0.000000000               0.000000000               0.000000000               0.000194673               0.000984348              -0.000045382              -0.000050041               0.000344793               0.000294752               0.000000000               0.000000000               0.000000000               0.000000000               0.000181016               0.000994701              -0.000055976              -0.000056457               0.000350383               0.000293926               0.000000000               0.000000000               0.000000000               0.000000000               0.000167334               0.001010606              -0.000059300              -0.000063575               0.000358057               0.000294482               0.000000000               0.000000000               0.000000000               0.000000000               0.000150033               0.001033746              -0.000051571              -0.000072956               0.000368897               0.000295941               0.000000000               0.000000000               0.000000000               0.000000000               0.000129514               0.001056799              -0.000044170              -0.000083532               0.000380107               0.000296575               0.000000000               0.000000000               0.000000000               0.000000000               0.000104155               0.001079929              -0.000038170              -0.000095933               0.000391950               0.000296018               0.000000000               0.000000000               0.000000000               0.000000000               0.000076557               0.001102873              -0.000029619              -0.000109150               0.000404004               0.000294854               0.000000000               0.000000000               0.000000000               0.000000000               0.000048448               0.001126738              -0.000020479              -0.000122674               0.000416467               0.000293793               0.000000000               0.000000000               0.000000000               0.000000000               0.000020765               0.001152917              -0.000011203              -0.000136328               0.000429744               0.000293417               0.000000000               0.000000000               0.000000000               0.000000000               0.000012811               0.001174523              -0.000008922              -0.000142011               0.000438841               0.000296830               0.000000000               0.000000000               0.000000000               0.000000000               0.000302199               0.001113395              -0.000426805              -0.000025850               0.000379745               0.000353895               0.000000000               0.000000000               0.000000000               0.000000000               0.000236662               0.001013385              -0.000296083              -0.000037925               0.000350433               0.000312508               0.000000000               0.000000000               0.000000000               0.000000000               0.000219440               0.000977610              -0.000163897              -0.000039911               0.000339171               0.000299259               0.000000000               0.000000000               0.000000000               0.000000000               0.000216087               0.000957209              -0.000108975              -0.000038618               0.000331939               0.000293321               0.000000000               0.000000000               0.000000000               0.000000000               0.000211398               0.000955034              -0.000081436              -0.000040105               0.000331710               0.000291605               0.000000000               0.000000000               0.000000000               0.000000000               0.000199975               0.000971397              -0.000064219              -0.000046434               0.000339274               0.000292840               0.000000000               0.000000000               0.000000000               0.000000000               0.000185242               0.000991965              -0.000055975              -0.000054530               0.000348828               0.000294298               0.000000000               0.000000000               0.000000000               0.000000000               0.000174104               0.001011417              -0.000057589              -0.000061138               0.000357515               0.000296377               0.000000000               0.000000000               0.000000000               0.000000000               0.000166655               0.001034141              -0.000064680              -0.000066772               0.000366968               0.000300196               0.000000000               0.000000000               0.000000000               0.000000000               0.000155008               0.001068143              -0.000063717              -0.000075390               0.000381174               0.000305784               0.000000000               0.000000000               0.000000000               0.000000000               0.000136359               0.001110377              -0.000053134              -0.000087662               0.000399343               0.000311680               0.000000000               0.000000000               0.000000000               0.000000000               0.000114356               0.001153831              -0.000045500              -0.000101345               0.000418388               0.000317043               0.000000000               0.000000000               0.000000000               0.000000000               0.000089144               0.001195532              -0.000039169              -0.000116012               0.000437177               0.000321165               0.000000000               0.000000000               0.000000000               0.000000000               0.000064326               0.001237649              -0.000031052              -0.000130584               0.000456073               0.000325490               0.000000000               0.000000000               0.000000000               0.000000000               0.000038929               0.001278379              -0.000021485              -0.000145199               0.000474522               0.000329323               0.000000000               0.000000000               0.000000000               0.000000000               0.000015725               0.001318770              -0.000010995              -0.000158949               0.000492569               0.000333619               0.000000000               0.000000000               0.000000000               0.000000000               0.000011548               0.001348388              -0.000008865              -0.000164218               0.000504198               0.000339980               0.000000000               0.000000000               0.000000000               0.000000000               0.000330267               0.000959637              -0.000434196               0.000003895               0.000318577               0.000322472               0.000000000               0.000000000               0.000000000               0.000000000               0.000246390               0.000914585              -0.000307398              -0.000021927               0.000312168               0.000290240               0.000000000               0.000000000               0.000000000               0.000000000               0.000208698               0.000931009              -0.000177823              -0.000038114               0.000323038               0.000284924               0.000000000               0.000000000               0.000000000               0.000000000               0.000200030               0.000937797              -0.000123269              -0.000042213               0.000326667               0.000284454               0.000000000               0.000000000               0.000000000               0.000000000               0.000192219               0.000956961              -0.000094323              -0.000047538               0.000334830               0.000287292               0.000000000               0.000000000               0.000000000               0.000000000               0.000179228               0.000988036              -0.000076905              -0.000056294               0.000348107               0.000291813               0.000000000               0.000000000               0.000000000               0.000000000               0.000169426               0.001019480              -0.000067527              -0.000063900               0.000361123               0.000297223               0.000000000               0.000000000               0.000000000               0.000000000               0.000166080               0.001054109              -0.000066339              -0.000069484               0.000374527               0.000305044               0.000000000               0.000000000               0.000000000               0.000000000               0.000163903               0.001099285              -0.000067706              -0.000075947               0.000391740               0.000315793               0.000000000               0.000000000               0.000000000               0.000000000               0.000157023               0.001160004              -0.000059839              -0.000086117               0.000415370               0.000329253               0.000000000               0.000000000               0.000000000               0.000000000               0.000140509               0.001225647              -0.000046909              -0.000100515               0.000442050               0.000341535               0.000000000               0.000000000               0.000000000               0.000000000               0.000116858               0.001287529              -0.000040459              -0.000117119               0.000468212               0.000351093               0.000000000               0.000000000               0.000000000               0.000000000               0.000089306               0.001345282              -0.000034590              -0.000134670               0.000493313               0.000358643               0.000000000               0.000000000               0.000000000               0.000000000               0.000064237               0.001403395              -0.000026672              -0.000151335               0.000518239               0.000366904               0.000000000               0.000000000               0.000000000               0.000000000               0.000041964               0.001459366              -0.000018840              -0.000166684               0.000542012               0.000375328               0.000000000               0.000000000               0.000000000               0.000000000               0.000020813               0.001508782              -0.000009165              -0.000180793               0.000563187               0.000382394               0.000000000               0.000000000               0.000000000               0.000000000               0.000016130               0.001540574              -0.000007135              -0.000186523               0.000575694               0.000389171               0.000000000               0.000000000               0.000000000               0.000000000               0.000347924               0.000813508              -0.000416409               0.000028782               0.000261572               0.000290355               0.000000000               0.000000000               0.000000000               0.000000000               0.000250289               0.000822875              -0.000305061              -0.000009002               0.000277289               0.000268288               0.000000000               0.000000000               0.000000000               0.000000000               0.000198922               0.000890452              -0.000187643              -0.000036711               0.000309051               0.000272340               0.000000000               0.000000000               0.000000000               0.000000000               0.000187557               0.000925228              -0.000133947              -0.000045320               0.000323513               0.000278193               0.000000000               0.000000000               0.000000000               0.000000000               0.000177481               0.000967750              -0.000105462              -0.000054413               0.000340718               0.000286305               0.000000000               0.000000000               0.000000000               0.000000000               0.000166478               0.001016023              -0.000087151              -0.000064573               0.000360195               0.000295622               0.000000000               0.000000000               0.000000000               0.000000000               0.000163079               0.001068284              -0.000075423              -0.000072381               0.000380218               0.000307837               0.000000000               0.000000000               0.000000000               0.000000000               0.000169623               0.001130218              -0.000067670              -0.000077669               0.000402625               0.000324957               0.000000000               0.000000000               0.000000000               0.000000000               0.000174958               0.001206779              -0.000061804              -0.000085238               0.000430668               0.000345430               0.000000000               0.000000000               0.000000000               0.000000000               0.000167373               0.001288879              -0.000051297              -0.000098345               0.000462404               0.000364059               0.000000000               0.000000000               0.000000000               0.000000000               0.000148182               0.001368220              -0.000039797              -0.000115459               0.000494555               0.000379096               0.000000000               0.000000000               0.000000000               0.000000000               0.000123886               0.001440433              -0.000035081              -0.000133597               0.000524672               0.000391075               0.000000000               0.000000000               0.000000000               0.000000000               0.000096140               0.001508079              -0.000029486              -0.000152457               0.000553507               0.000401050               0.000000000               0.000000000               0.000000000               0.000000000               0.000070401               0.001572475              -0.000019728              -0.000170159               0.000580873               0.000410714               0.000000000               0.000000000               0.000000000               0.000000000               0.000048886               0.001633686              -0.000012029              -0.000185878               0.000606516               0.000420638               0.000000000               0.000000000               0.000000000               0.000000000               0.000025843               0.001686401              -0.000006418              -0.000201108               0.000629164               0.000428056               0.000000000               0.000000000               0.000000000               0.000000000               0.000017909               0.001719010              -0.000006856              -0.000208160               0.000642384               0.000434225               0.000000000               0.000000000               0.000000000               0.000000000               0.000356151               0.000685640              -0.000383543               0.000047851               0.000212594               0.000260445               0.000000000               0.000000000               0.000000000               0.000000000               0.000254591               0.000742243              -0.000296308               0.000002691               0.000246515               0.000249206               0.000000000               0.000000000               0.000000000               0.000000000               0.000193982               0.000855322              -0.000197349              -0.000034172               0.000296495               0.000262323               0.000000000               0.000000000               0.000000000               0.000000000               0.000181365               0.000917416              -0.000144892              -0.000046665               0.000321357               0.000274692               0.000000000               0.000000000               0.000000000               0.000000000               0.000170389               0.000980394              -0.000116409              -0.000058653               0.000346346               0.000287693               0.000000000               0.000000000               0.000000000               0.000000000               0.000163719               0.001049476              -0.000095882              -0.000069790               0.000373085               0.000303295               0.000000000               0.000000000               0.000000000               0.000000000               0.000169868               0.001126522              -0.000078840              -0.000077115               0.000401208               0.000324094               0.000000000               0.000000000               0.000000000               0.000000000               0.000186241               0.001214017              -0.000065792              -0.000081912               0.000431972               0.000350060               0.000000000               0.000000000               0.000000000               0.000000000               0.000194622               0.001304751              -0.000056003              -0.000090111               0.000464949               0.000374839               0.000000000               0.000000000               0.000000000               0.000000000               0.000185260               0.001399096              -0.000047003              -0.000105414               0.000501499               0.000396085               0.000000000               0.000000000               0.000000000               0.000000000               0.000166735               0.001487706              -0.000037926              -0.000123437               0.000537043               0.000413605               0.000000000               0.000000000               0.000000000               0.000000000               0.000143475               0.001562748              -0.000031749              -0.000141540               0.000568091               0.000426551               0.000000000               0.000000000               0.000000000               0.000000000               0.000115971               0.001632043              -0.000024101              -0.000160516               0.000597514               0.000436998               0.000000000               0.000000000               0.000000000               0.000000000               0.000090545               0.001701027              -0.000013688              -0.000178673               0.000626561               0.000447888               0.000000000               0.000000000               0.000000000               0.000000000               0.000068989               0.001765782              -0.000004766              -0.000194851               0.000653539               0.000458687               0.000000000               0.000000000               0.000000000               0.000000000               0.000047614               0.001826313              -0.000000170              -0.000210433               0.000678909               0.000468476               0.000000000               0.000000000               0.000000000               0.000000000               0.000035891               0.001860350               0.000000230              -0.000219084               0.000693139               0.000474054               0.000000000               0.000000000               0.000000000               0.000000000               0.000350179               0.000555760              -0.000342942               0.000061846               0.000164636               0.000226482               0.000000000               0.000000000               0.000000000               0.000000000               0.000257013               0.000643736              -0.000285560               0.000015912               0.000209272               0.000225185               0.000000000               0.000000000               0.000000000               0.000000000               0.000195005               0.000792084              -0.000211945              -0.000025884               0.000272653               0.000246769               0.000000000               0.000000000               0.000000000               0.000000000               0.000184273               0.000881209              -0.000163193              -0.000041049               0.000307416               0.000266367               0.000000000               0.000000000               0.000000000               0.000000000               0.000177659               0.000961627              -0.000133657              -0.000053581               0.000338400               0.000284818               0.000000000               0.000000000               0.000000000               0.000000000               0.000174828               0.001048853              -0.000111788              -0.000065546               0.000371463               0.000305917               0.000000000               0.000000000               0.000000000               0.000000000               0.000183885               0.001143470              -0.000094124              -0.000073977               0.000405812               0.000331835               0.000000000               0.000000000               0.000000000               0.000000000               0.000204612               0.001241338              -0.000079986              -0.000078438               0.000439921               0.000361484               0.000000000               0.000000000               0.000000000               0.000000000               0.000222343               0.001338472              -0.000065422              -0.000083930               0.000474130               0.000390199               0.000000000               0.000000000               0.000000000               0.000000000               0.000223345               0.001435612              -0.000053693              -0.000095697               0.000510431               0.000414734               0.000000000               0.000000000               0.000000000               0.000000000               0.000208819               0.001524488              -0.000045358              -0.000112253               0.000545575               0.000433322               0.000000000               0.000000000               0.000000000               0.000000000               0.000186889               0.001599189              -0.000036130              -0.000129815               0.000576329               0.000446514               0.000000000               0.000000000               0.000000000               0.000000000               0.000160737               0.001668195              -0.000025871              -0.000148248               0.000605475               0.000457228               0.000000000               0.000000000               0.000000000               0.000000000               0.000134391               0.001738424              -0.000016963              -0.000166906               0.000635104               0.000468198               0.000000000               0.000000000               0.000000000               0.000000000               0.000112824               0.001810048              -0.000006951              -0.000183946               0.000664659               0.000480712               0.000000000               0.000000000               0.000000000               0.000000000               0.000096250               0.001886251               0.000000864              -0.000199687               0.000695306               0.000495619               0.000000000               0.000000000               0.000000000               0.000000000               0.000082523               0.001920743               0.000005438              -0.000209146               0.000709957               0.000500810               0.000000000               0.000000000               0.000000000               0.000000000               0.000327787               0.000428219              -0.000291728               0.000069392               0.000119608               0.000189000               0.000000000               0.000000000               0.000000000               0.000000000               0.000257506               0.000541354              -0.000266992               0.000028895               0.000170818               0.000199713               0.000000000               0.000000000               0.000000000               0.000000000               0.000204808               0.000717873              -0.000223218              -0.000012931               0.000243599               0.000230668               0.000000000               0.000000000               0.000000000               0.000000000               0.000196017               0.000830562              -0.000181108              -0.000030314               0.000286956               0.000256642               0.000000000               0.000000000               0.000000000               0.000000000               0.000194794               0.000926726              -0.000152564              -0.000042793               0.000323170               0.000280377               0.000000000               0.000000000               0.000000000               0.000000000               0.000196871               0.001026986              -0.000130668              -0.000054547               0.000360508               0.000305961               0.000000000               0.000000000               0.000000000               0.000000000               0.000208168               0.001134146              -0.000113569              -0.000063705               0.000399280               0.000335575               0.000000000               0.000000000               0.000000000               0.000000000               0.000226828               0.001243350              -0.000096789              -0.000070358               0.000437898               0.000367540               0.000000000               0.000000000               0.000000000               0.000000000               0.000247777               0.001347391              -0.000078291              -0.000075507               0.000474295               0.000398788               0.000000000               0.000000000               0.000000000               0.000000000               0.000258228               0.001438304              -0.000062443              -0.000082952               0.000507081               0.000424128               0.000000000               0.000000000               0.000000000               0.000000000               0.000252721               0.001522392              -0.000051189              -0.000095528               0.000539302               0.000443773               0.000000000               0.000000000               0.000000000               0.000000000               0.000238572               0.001603409              -0.000040322              -0.000110962               0.000571452               0.000460490               0.000000000               0.000000000               0.000000000               0.000000000               0.000220251               0.001677213              -0.000028915              -0.000127057               0.000601418               0.000474361               0.000000000               0.000000000               0.000000000               0.000000000               0.000195821               0.001740677              -0.000020231              -0.000144152               0.000628270               0.000484119               0.000000000               0.000000000               0.000000000               0.000000000               0.000172149               0.001807502              -0.000011183              -0.000161382               0.000656289               0.000494907               0.000000000               0.000000000               0.000000000               0.000000000               0.000155053               0.001882868              -0.000002604              -0.000177213               0.000686687               0.000509474               0.000000000               0.000000000               0.000000000               0.000000000               0.000138540               0.001913770               0.000004127              -0.000187268               0.000700340               0.000513071               0.000000000               0.000000000               0.000000000               0.000000000               0.000289408               0.000314610              -0.000233070               0.000069201               0.000081802               0.000151003               0.000000000               0.000000000               0.000000000               0.000000000               0.000253504               0.000443392              -0.000237759               0.000039640               0.000134582               0.000174222               0.000000000               0.000000000               0.000000000               0.000000000               0.000220543               0.000634016              -0.000222286               0.000003451               0.000210186               0.000213637               0.000000000               0.000000000               0.000000000               0.000000000               0.000215827               0.000765525              -0.000190635              -0.000014755               0.000260091               0.000245335               0.000000000               0.000000000               0.000000000               0.000000000               0.000220703               0.000879280              -0.000165953              -0.000027146               0.000302139               0.000274993               0.000000000               0.000000000               0.000000000               0.000000000               0.000227723               0.000994937              -0.000146316              -0.000038971               0.000344633               0.000305662               0.000000000               0.000000000               0.000000000               0.000000000               0.000237096               0.001116119              -0.000129024              -0.000050604               0.000388904               0.000338300               0.000000000               0.000000000               0.000000000               0.000000000               0.000251554               0.001237542              -0.000111407              -0.000060360               0.000432630               0.000372270               0.000000000               0.000000000               0.000000000               0.000000000               0.000269609               0.001342802              -0.000090964              -0.000066747               0.000469845               0.000403098               0.000000000               0.000000000               0.000000000               0.000000000               0.000282448               0.001428338              -0.000070113              -0.000072624               0.000500316               0.000427692               0.000000000               0.000000000               0.000000000               0.000000000               0.000287388               0.001512318              -0.000055144              -0.000081269               0.000531191               0.000449921               0.000000000               0.000000000               0.000000000               0.000000000               0.000284240               0.001598702              -0.000043757              -0.000093248               0.000563978               0.000470730               0.000000000               0.000000000               0.000000000               0.000000000               0.000275841               0.001676123              -0.000032616              -0.000106075               0.000594060               0.000487986               0.000000000               0.000000000               0.000000000               0.000000000               0.000262045               0.001745248              -0.000023186              -0.000119889               0.000621706               0.000501818               0.000000000               0.000000000               0.000000000               0.000000000               0.000244499               0.001814895              -0.000016881              -0.000135174               0.000650017               0.000514843               0.000000000               0.000000000               0.000000000               0.000000000               0.000227241               0.001886794              -0.000009990              -0.000150633               0.000679136               0.000528503               0.000000000               0.000000000               0.000000000               0.000000000               0.000208106               0.001916655              -0.000001757              -0.000161542               0.000692726               0.000531184               0.000000000               0.000000000               0.000000000               0.000000000               0.000242093               0.000222179              -0.000173899               0.000063012               0.000053055               0.000116067               0.000000000               0.000000000               0.000000000               0.000000000               0.000246649               0.000353432              -0.000200026               0.000048314               0.000101705               0.000150018               0.000000000               0.000000000               0.000000000               0.000000000               0.000239847               0.000545518              -0.000206667               0.000021752               0.000174587               0.000196339               0.000000000               0.000000000               0.000000000               0.000000000               0.000243500               0.000693489              -0.000187493               0.000004626               0.000229619               0.000234245               0.000000000               0.000000000               0.000000000               0.000000000               0.000252789               0.000825062              -0.000168585              -0.000008337               0.000277797               0.000269460               0.000000000               0.000000000               0.000000000               0.000000000               0.000261944               0.000956221              -0.000150440              -0.000021299               0.000325837               0.000304538               0.000000000               0.000000000               0.000000000               0.000000000               0.000270724               0.001088572              -0.000133969              -0.000034550               0.000374370               0.000339821               0.000000000               0.000000000               0.000000000               0.000000000               0.000281586               0.001213044              -0.000117767              -0.000046036               0.000419689               0.000373654               0.000000000               0.000000000               0.000000000               0.000000000               0.000291481               0.001313776              -0.000097002              -0.000054917               0.000456227               0.000401310               0.000000000               0.000000000               0.000000000               0.000000000               0.000303212               0.001402283              -0.000075104              -0.000061581               0.000487950               0.000426369               0.000000000               0.000000000               0.000000000               0.000000000               0.000316686               0.001494652              -0.000057783              -0.000068074               0.000520904               0.000452830               0.000000000               0.000000000               0.000000000               0.000000000               0.000324898               0.001586726              -0.000045849              -0.000076504               0.000554405               0.000477901               0.000000000               0.000000000               0.000000000               0.000000000               0.000328384               0.001673194              -0.000036499              -0.000086005               0.000586394               0.000500389               0.000000000               0.000000000               0.000000000               0.000000000               0.000328858               0.001754996              -0.000027789              -0.000096053               0.000617010               0.000520958               0.000000000               0.000000000               0.000000000               0.000000000               0.000323420               0.001830038              -0.000021189              -0.000107472               0.000645831               0.000538359               0.000000000               0.000000000               0.000000000               0.000000000               0.000310592               0.001899444              -0.000012845              -0.000120958               0.000673461               0.000552503               0.000000000               0.000000000               0.000000000               0.000000000               0.000294891               0.001929043              -0.000004452              -0.000130546               0.000686523               0.000555977               0.000000000               0.000000000               0.000000000               0.000000000               0.000192409               0.000153047              -0.000119709               0.000053022               0.000033341               0.000086363               0.000000000               0.000000000               0.000000000               0.000000000               0.000236950               0.000276834              -0.000154866               0.000054251               0.000074193               0.000128445               0.000000000               0.000000000               0.000000000               0.000000000               0.000260284               0.000463235              -0.000174846               0.000039702               0.000141176               0.000180878               0.000000000               0.000000000               0.000000000               0.000000000               0.000275494               0.000623043              -0.000167558               0.000025430               0.000199202               0.000224632               0.000000000               0.000000000               0.000000000               0.000000000               0.000287048               0.000769407              -0.000153813               0.000011467               0.000252644               0.000264111               0.000000000               0.000000000               0.000000000               0.000000000               0.000296407               0.000910091              -0.000138026              -0.000002609               0.000304230               0.000301622               0.000000000               0.000000000               0.000000000               0.000000000               0.000307163               0.001044512              -0.000124592              -0.000015378               0.000353293               0.000337915               0.000000000               0.000000000               0.000000000               0.000000000               0.000313066               0.001166131              -0.000109213              -0.000028367               0.000398162               0.000369795               0.000000000               0.000000000               0.000000000               0.000000000               0.000317058               0.001270783              -0.000090259              -0.000039951               0.000436907               0.000396956               0.000000000               0.000000000               0.000000000               0.000000000               0.000328690               0.001373018              -0.000072312              -0.000048369               0.000473791               0.000425422               0.000000000               0.000000000               0.000000000               0.000000000               0.000346359               0.001476033              -0.000057068              -0.000054620               0.000510213               0.000455593               0.000000000               0.000000000               0.000000000               0.000000000               0.000362836               0.001573643              -0.000045619              -0.000060642               0.000544756               0.000484115               0.000000000               0.000000000               0.000000000               0.000000000               0.000375550               0.001667538              -0.000037178              -0.000067611               0.000578377               0.000510766               0.000000000               0.000000000               0.000000000               0.000000000               0.000385857               0.001755892              -0.000029151              -0.000074790               0.000610221               0.000535432               0.000000000               0.000000000               0.000000000               0.000000000               0.000391672               0.001834836              -0.000020170              -0.000082477               0.000639098               0.000556621               0.000000000               0.000000000               0.000000000               0.000000000               0.000390623               0.001905249              -0.000010298              -0.000091672               0.000665634               0.000573962               0.000000000               0.000000000               0.000000000               0.000000000               0.000383736               0.001935184              -0.000003573              -0.000097997               0.000677720               0.000579724               0.000000000               0.000000000               0.000000000               0.000000000               0.000144838               0.000105191              -0.000073387               0.000041165               0.000021342               0.000062507               0.000000000               0.000000000               0.000000000               0.000000000               0.000224890               0.000217410              -0.000104981               0.000057157               0.000053417               0.000110574               0.000000000               0.000000000               0.000000000               0.000000000               0.000279729               0.000395351              -0.000127807               0.000055479               0.000113289               0.000168768               0.000000000               0.000000000               0.000000000               0.000000000               0.000305667               0.000563700              -0.000127035               0.000044162               0.000173178               0.000217340               0.000000000               0.000000000               0.000000000               0.000000000               0.000317866               0.000716432              -0.000118353               0.000029646               0.000228927               0.000258572               0.000000000               0.000000000               0.000000000               0.000000000               0.000329854               0.000860058              -0.000107946               0.000016188               0.000281287               0.000297475               0.000000000               0.000000000               0.000000000               0.000000000               0.000337188               0.000995893              -0.000096745               0.000001959               0.000331308               0.000333267               0.000000000               0.000000000               0.000000000               0.000000000               0.000339644               0.001116397              -0.000083737              -0.000012183               0.000376189               0.000364006               0.000000000               0.000000000               0.000000000               0.000000000               0.000345161               0.001230088              -0.000071313              -0.000024325               0.000418134               0.000393808               0.000000000               0.000000000               0.000000000               0.000000000               0.000359505               0.001347650              -0.000060158              -0.000033642               0.000460426               0.000426784               0.000000000               0.000000000               0.000000000               0.000000000               0.000376566               0.001456339              -0.000048471              -0.000040830               0.000499051               0.000458221               0.000000000               0.000000000               0.000000000               0.000000000               0.000393094               0.001554453              -0.000037304              -0.000046896               0.000533778               0.000486882               0.000000000               0.000000000               0.000000000               0.000000000               0.000410130               0.001651693              -0.000029249              -0.000052663               0.000568113               0.000515450               0.000000000               0.000000000               0.000000000               0.000000000               0.000427463               0.001746801              -0.000023024              -0.000058051               0.000601612               0.000543560               0.000000000               0.000000000               0.000000000               0.000000000               0.000443006               0.001833283              -0.000015063              -0.000063033               0.000632099               0.000569066               0.000000000               0.000000000               0.000000000               0.000000000               0.000454618               0.001905083              -0.000006847              -0.000067654               0.000657572               0.000589919               0.000000000               0.000000000               0.000000000               0.000000000               0.000456856               0.001934413              -0.000002504              -0.000070481               0.000668291               0.000597811               0.000000000               0.000000000               0.000000000               0.000000000               0.000111254               0.000075702              -0.000033536               0.000032257               0.000014482               0.000046739               0.000000000               0.000000000               0.000000000               0.000000000               0.000216103               0.000179801              -0.000052359               0.000058563               0.000040412               0.000098975               0.000000000               0.000000000               0.000000000               0.000000000               0.000294523               0.000351890              -0.000067978               0.000066459               0.000095142               0.000161602               0.000000000               0.000000000               0.000000000               0.000000000               0.000327103               0.000522094              -0.000068667               0.000057401               0.000154896               0.000212297               0.000000000               0.000000000               0.000000000               0.000000000               0.000341757               0.000677681              -0.000064986               0.000043448               0.000211408               0.000254857               0.000000000               0.000000000               0.000000000               0.000000000               0.000351548               0.000823009              -0.000059957               0.000028954               0.000264682               0.000293636               0.000000000               0.000000000               0.000000000               0.000000000               0.000356825               0.000957206              -0.000052362               0.000014158               0.000314346               0.000328504               0.000000000               0.000000000               0.000000000               0.000000000               0.000361746               0.001079983              -0.000045453               0.000000657               0.000359772               0.000360429               0.000000000               0.000000000               0.000000000               0.000000000               0.000370930               0.001204063              -0.000040679              -0.000011409               0.000405154               0.000393744               0.000000000               0.000000000               0.000000000               0.000000000               0.000383252               0.001326613              -0.000035195              -0.000022107               0.000449569               0.000427462               0.000000000               0.000000000               0.000000000               0.000000000               0.000395424               0.001433787              -0.000027398              -0.000030939               0.000488237               0.000457298               0.000000000               0.000000000               0.000000000               0.000000000               0.000411124               0.001534714              -0.000020172              -0.000037668               0.000524122               0.000486454               0.000000000               0.000000000               0.000000000               0.000000000               0.000432361               0.001639521              -0.000015977              -0.000042805               0.000560770               0.000517965               0.000000000               0.000000000               0.000000000               0.000000000               0.000454259               0.001739613              -0.000012786              -0.000047104               0.000595567               0.000548462               0.000000000               0.000000000               0.000000000               0.000000000               0.000474615               0.001828149              -0.000007886              -0.000050538               0.000626223               0.000575685               0.000000000               0.000000000               0.000000000               0.000000000               0.000493301               0.001901445              -0.000003272              -0.000052692               0.000651373               0.000598680               0.000000000               0.000000000               0.000000000               0.000000000               0.000500977               0.001932187              -0.000001351              -0.000053657               0.000661942               0.000608285               0.000000000               0.000000000               0.000000000               0.000000000               0.000099836               0.000066479               0.000000000               0.000029128               0.000012450               0.000041578               0.000000000               0.000000000               0.000000000               0.000000000               0.000213275               0.000168370              -0.000000000               0.000058931               0.000036479               0.000095410               0.000000000               0.000000000               0.000000000               0.000000000               0.000300016               0.000337812              -0.000000000               0.000070279               0.000089176               0.000159455               0.000000000               0.000000000               0.000000000               0.000000000               0.000334962               0.000505886               0.000000000               0.000062374               0.000147836               0.000210210               0.000000000               0.000000000               0.000000000               0.000000000               0.000351580               0.000664073               0.000000000               0.000048833               0.000205078               0.000253911               0.000000000               0.000000000               0.000000000               0.000000000               0.000357396               0.000809878              -0.000000000               0.000032788               0.000259027               0.000291815               0.000000000               0.000000000               0.000000000               0.000000000               0.000364198               0.000940648               0.000000000               0.000018993               0.000307215               0.000326208               0.000000000               0.000000000               0.000000000               0.000000000               0.000372212               0.001066593              -0.000000000               0.000006255               0.000353442               0.000359697               0.000000000               0.000000000               0.000000000               0.000000000               0.000381541               0.001196209              -0.000000000              -0.000006448               0.000400882               0.000394434               0.000000000               0.000000000               0.000000000               0.000000000               0.000390312               0.001316541              -0.000000000              -0.000018201               0.000444910               0.000426709               0.000000000               0.000000000               0.000000000               0.000000000               0.000400831               0.001423487              -0.000000000              -0.000027624               0.000483699               0.000456075               0.000000000               0.000000000               0.000000000               0.000000000               0.000418284               0.001528716               0.000000000              -0.000034233               0.000520978               0.000486745               0.000000000               0.000000000               0.000000000               0.000000000               0.000440889               0.001635697              -0.000000000              -0.000039129               0.000558270               0.000519141               0.000000000               0.000000000               0.000000000               0.000000000               0.000463265               0.001736014              -0.000000000              -0.000043277               0.000593091               0.000549814               0.000000000               0.000000000               0.000000000               0.000000000               0.000484990               0.001824912               0.000000000              -0.000046243               0.000623712               0.000577469               0.000000000               0.000000000               0.000000000               0.000000000               0.000505958               0.001899317               0.000000000              -0.000047680               0.000648993               0.000601313               0.000000000               0.000000000               0.000000000               0.000000000               0.000515089               0.001931046               0.000000000              -0.000048222               0.000659750               0.000611527               0.000000000               0.000000000               0.000000000               0.000000000               0.000000000               0.000000000               0.000000000               0.000000000               0.000000000               0.000000000               0.000000000               0.000000000               0.000000000               0.000000000               0.000000000               0.000000000               0.000000000               0.000000000               0.000000000               0.000000000               0.000000000               0.000000000               0.000000000               0.000000000               0.000000000               0.000000000               0.000000000               0.000000000               0.000000000               0.000000000               0.000000000               0.000000000               0.000000000               0.000000000               0.000000000               0.000000000               0.000000000               0.000000000               0.000000000               0.000000000               0.000000000               0.000000000               0.000000000               0.000000000               0.000000000               0.000000000               0.000000000               0.000000000               0.000000000               0.000000000               0.000000000               0.000000000               0.000000000               0.000000000               0.000000000               0.000000000               0.000000000               0.000000000               0.000000000               0.000000000               0.000000000               0.000000000               0.000000000               0.000000000               0.000000000               0.000000000               0.000000000               0.000000000               0.000000000               0.000000000               0.000000000               0.000000000               0.000000000               0.000000000               0.000000000               0.000000000               0.000000000               0.000000000               0.000000000               0.000000000               0.000000000               0.000000000               0.000000000               0.000000000               0.000000000               0.000000000               0.000000000               0.000000000               0.000000000               0.000000000               0.000000000               0.000000000               0.000000000               0.000000000               0.000000000               0.000000000               0.000000000               0.000000000               0.000000000               0.000000000               0.000000000               0.000000000               0.000000000               0.000000000               0.000000000               0.000000000               0.000000000               0.000000000               0.000000000               0.000000000               0.000000000               0.000000000               0.000000000               0.000000000               0.000000000               0.000000000               0.000000000               0.000000000               0.000000000               0.000000000               0.000000000               0.000000000               0.000000000               0.000000000               0.000000000               0.000000000               0.000000000               0.000000000               0.000000000               0.000000000               0.000000000               0.000000000               0.000000000               0.000000000               0.000000000               0.000000000               0.000000000               0.000000000               0.000000000               0.000000000               0.000000000               0.000000000               0.000000000               0.000000000               0.000000000               0.000000000               0.000000000               0.000000000               0.000000000               0.000000000               0.000000000               0.000000000               0.000000000               0.000000000               0.000000000               0.000000000               0.000000000               0.000000000               0.000000000               0.000000000               0.000000000               0.000000000               0.000000000               0.000000000               0.000000000               0.000000000               0.000000000               0.000000000               0.000000000               0.000000000               0.000000000               0.000000000               0.000000000               0.000000000               0.000149767               0.001571489               0.000123552              -0.000140273               0.000570582               0.000430309               0.000000000               0.000000000               0.000000000               0.000000000               0.000169970               0.001332341               0.000084034              -0.000102804               0.000478377               0.000375573               0.000000000               0.000000000               0.000000000               0.000000000               0.000241867               0.001145321               0.000043779              -0.000052465               0.000399258               0.000346793               0.000000000               0.000000000               0.000000000               0.000000000               0.000271874               0.001040476               0.000025491              -0.000028107               0.000356191               0.000328084               0.000000000               0.000000000               0.000000000               0.000000000               0.000288088               0.000977734               0.000017001              -0.000014184               0.000330636               0.000316452               0.000000000               0.000000000               0.000000000               0.000000000               0.000295170               0.000938097               0.000012759              -0.000006573               0.000314887               0.000308314               0.000000000               0.000000000               0.000000000               0.000000000               0.000296156               0.000917952               0.000010157              -0.000003685               0.000307209               0.000303524               0.000000000               0.000000000               0.000000000               0.000000000               0.000291122               0.000910651               0.000010583              -0.000004661               0.000305101               0.000300440               0.000000000               0.000000000               0.000000000               0.000000000               0.000280610               0.000909660               0.000015655              -0.000008479               0.000306043               0.000297565               0.000000000               0.000000000               0.000000000               0.000000000               0.000266277               0.000909339               0.000021152              -0.000013813               0.000307714               0.000293901               0.000000000               0.000000000               0.000000000               0.000000000               0.000247547               0.000914103               0.000020988              -0.000021433               0.000311842               0.000290410               0.000000000               0.000000000               0.000000000               0.000000000               0.000220222               0.000926506               0.000019777              -0.000033230               0.000319909               0.000286679               0.000000000               0.000000000               0.000000000               0.000000000               0.000182965               0.000941969               0.000019534              -0.000049134               0.000330364               0.000281230               0.000000000               0.000000000               0.000000000               0.000000000               0.000141283               0.000962254               0.000016837              -0.000067300               0.000343182               0.000275881               0.000000000               0.000000000               0.000000000               0.000000000               0.000096256               0.000987295               0.000013205              -0.000087316               0.000358200               0.000270885               0.000000000               0.000000000               0.000000000               0.000000000               0.000047451               0.001015493               0.000007992              -0.000109142               0.000374875               0.000265733               0.000000000               0.000000000               0.000000000               0.000000000               0.000026238               0.001039796               0.000005164              -0.000120135               0.000386640               0.000266505               0.000000000               0.000000000               0.000000000               0.000000000               0.000177777               0.001504309               0.000236524              -0.000121372               0.000541889               0.000420517               0.000000000               0.000000000               0.000000000               0.000000000               0.000183213               0.001281370               0.000161233              -0.000091466               0.000457608               0.000366142               0.000000000               0.000000000               0.000000000               0.000000000               0.000240245               0.001115686               0.000084257              -0.000049369               0.000388348               0.000338979               0.000000000               0.000000000               0.000000000               0.000000000               0.000263323               0.001025903               0.000049186              -0.000029492               0.000351795               0.000322303               0.000000000               0.000000000               0.000000000               0.000000000               0.000273878               0.000973194               0.000034052              -0.000018945               0.000330710               0.000311765               0.000000000               0.000000000               0.000000000               0.000000000               0.000275422               0.000943932               0.000025679              -0.000014708               0.000319544               0.000304835               0.000000000               0.000000000               0.000000000               0.000000000               0.000271020               0.000933792               0.000020622              -0.000015091               0.000316291               0.000301200               0.000000000               0.000000000               0.000000000               0.000000000               0.000260569               0.000931816               0.000021823              -0.000018763               0.000316857               0.000298093               0.000000000               0.000000000               0.000000000               0.000000000               0.000249705               0.000933434               0.000030649              -0.000023040               0.000318821               0.000295782               0.000000000               0.000000000               0.000000000               0.000000000               0.000237624               0.000934373               0.000038880              -0.000027688               0.000320684               0.000292996               0.000000000               0.000000000               0.000000000               0.000000000               0.000217811               0.000939084               0.000036404              -0.000035706               0.000324927               0.000289221               0.000000000               0.000000000               0.000000000               0.000000000               0.000190776               0.000948613               0.000032774              -0.000047035               0.000331879               0.000284844               0.000000000               0.000000000               0.000000000               0.000000000               0.000159022               0.000961040               0.000030271              -0.000060497               0.000340509               0.000280012               0.000000000               0.000000000               0.000000000               0.000000000               0.000123243               0.000976975               0.000023877              -0.000075906               0.000350957               0.000275051               0.000000000               0.000000000               0.000000000               0.000000000               0.000082647               0.000994568               0.000016960              -0.000093328               0.000362629               0.000269301               0.000000000               0.000000000               0.000000000               0.000000000               0.000039727               0.001013352               0.000009226              -0.000111771               0.000375038               0.000263267               0.000000000               0.000000000               0.000000000               0.000000000               0.000021439               0.001029417               0.000005912              -0.000120637               0.000383348               0.000262711               0.000000000               0.000000000               0.000000000               0.000000000               0.000217728               0.001395313               0.000329987              -0.000092766               0.000496022               0.000403256               0.000000000               0.000000000               0.000000000               0.000000000               0.000201213               0.001204347               0.000224239              -0.000075088               0.000426475               0.000351386               0.000000000               0.000000000               0.000000000               0.000000000               0.000237452               0.001073586               0.000117160              -0.000045154               0.000372910               0.000327756               0.000000000               0.000000000               0.000000000               0.000000000               0.000250757               0.001004396               0.000071481              -0.000031516               0.000345300               0.000313785               0.000000000               0.000000000               0.000000000               0.000000000               0.000253684               0.000966121               0.000051273              -0.000025634               0.000330582               0.000304948               0.000000000               0.000000000               0.000000000               0.000000000               0.000250107               0.000952045               0.000038735              -0.000025215               0.000325750               0.000300535               0.000000000               0.000000000               0.000000000               0.000000000               0.000239107               0.000952681               0.000031734              -0.000029420               0.000327364               0.000297944               0.000000000               0.000000000               0.000000000               0.000000000               0.000224753               0.000959216               0.000033287              -0.000035620               0.000331609               0.000295989               0.000000000               0.000000000               0.000000000               0.000000000               0.000211901               0.000963086               0.000043663              -0.000040923               0.000334667               0.000293744               0.000000000               0.000000000               0.000000000               0.000000000               0.000198448               0.000968330               0.000051647              -0.000046623               0.000338314               0.000291691               0.000000000               0.000000000               0.000000000               0.000000000               0.000179609               0.000978854               0.000046303              -0.000055003               0.000344616               0.000289612               0.000000000               0.000000000               0.000000000               0.000000000               0.000157634               0.000990786               0.000039220              -0.000064735               0.000351837               0.000287102               0.000000000               0.000000000               0.000000000               0.000000000               0.000133054               0.001004657               0.000033510              -0.000075687               0.000360111               0.000284425               0.000000000               0.000000000               0.000000000               0.000000000               0.000102031               0.001019145               0.000025064              -0.000089131               0.000369422               0.000280291               0.000000000               0.000000000               0.000000000               0.000000000               0.000066637               0.001034436               0.000016861              -0.000104315               0.000379580               0.000275265               0.000000000               0.000000000               0.000000000               0.000000000               0.000031672               0.001051860               0.000008587              -0.000119605               0.000390485               0.000270880               0.000000000               0.000000000               0.000000000               0.000000000               0.000018563               0.001067795               0.000006224              -0.000126513               0.000398099               0.000271586               0.000000000               0.000000000               0.000000000               0.000000000               0.000264173               0.001262054               0.000392614              -0.000058692               0.000440245               0.000381552               0.000000000               0.000000000               0.000000000               0.000000000               0.000221123               0.001112619               0.000268369              -0.000056157               0.000389588               0.000333432               0.000000000               0.000000000               0.000000000               0.000000000               0.000229342               0.001026373               0.000143815              -0.000042293               0.000356219               0.000313925               0.000000000               0.000000000               0.000000000               0.000000000               0.000233996               0.000980134               0.000091913              -0.000034768               0.000338297               0.000303529               0.000000000               0.000000000               0.000000000               0.000000000               0.000233239               0.000959175               0.000066959              -0.000032432               0.000330532               0.000298100               0.000000000               0.000000000               0.000000000               0.000000000               0.000223339               0.000960434               0.000051866              -0.000036302               0.000332242               0.000295940               0.000000000               0.000000000               0.000000000               0.000000000               0.000209235               0.000972562               0.000043349              -0.000043107               0.000338553               0.000295446               0.000000000               0.000000000               0.000000000               0.000000000               0.000194673               0.000984348               0.000045382              -0.000050041               0.000344793               0.000294752               0.000000000               0.000000000               0.000000000               0.000000000               0.000181016               0.000994701               0.000055976              -0.000056457               0.000350383               0.000293926               0.000000000               0.000000000               0.000000000               0.000000000               0.000167334               0.001010606               0.000059300              -0.000063575               0.000358057               0.000294482               0.000000000               0.000000000               0.000000000               0.000000000               0.000150033               0.001033746               0.000051571              -0.000072956               0.000368897               0.000295941               0.000000000               0.000000000               0.000000000               0.000000000               0.000129514               0.001056799               0.000044170              -0.000083532               0.000380107               0.000296575               0.000000000               0.000000000               0.000000000               0.000000000               0.000104155               0.001079929               0.000038170              -0.000095933               0.000391950               0.000296018               0.000000000               0.000000000               0.000000000               0.000000000               0.000076557               0.001102873               0.000029619              -0.000109150               0.000404004               0.000294854               0.000000000               0.000000000               0.000000000               0.000000000               0.000048448               0.001126738               0.000020479              -0.000122674               0.000416467               0.000293793               0.000000000               0.000000000               0.000000000               0.000000000               0.000020765               0.001152917               0.000011203              -0.000136328               0.000429744               0.000293417               0.000000000               0.000000000               0.000000000               0.000000000               0.000012811               0.001174523               0.000008922              -0.000142011               0.000438841               0.000296830               0.000000000               0.000000000               0.000000000               0.000000000               0.000302199               0.001113395               0.000426805              -0.000025850               0.000379745               0.000353895               0.000000000               0.000000000               0.000000000               0.000000000               0.000236662               0.001013385               0.000296083              -0.000037925               0.000350433               0.000312508               0.000000000               0.000000000               0.000000000               0.000000000               0.000219440               0.000977610               0.000163897              -0.000039911               0.000339171               0.000299259               0.000000000               0.000000000               0.000000000               0.000000000               0.000216087               0.000957209               0.000108975              -0.000038618               0.000331939               0.000293321               0.000000000               0.000000000               0.000000000               0.000000000               0.000211398               0.000955034               0.000081436              -0.000040105               0.000331710               0.000291605               0.000000000               0.000000000               0.000000000               0.000000000               0.000199975               0.000971397               0.000064219              -0.000046434               0.000339274               0.000292840               0.000000000               0.000000000               0.000000000               0.000000000               0.000185242               0.000991965               0.000055975              -0.000054530               0.000348828               0.000294298               0.000000000               0.000000000               0.000000000               0.000000000               0.000174104               0.001011417               0.000057589              -0.000061138               0.000357515               0.000296377               0.000000000               0.000000000               0.000000000               0.000000000               0.000166655               0.001034141               0.000064680              -0.000066772               0.000366968               0.000300196               0.000000000               0.000000000               0.000000000               0.000000000               0.000155008               0.001068143               0.000063717              -0.000075390               0.000381174               0.000305784               0.000000000               0.000000000               0.000000000               0.000000000               0.000136359               0.001110377               0.000053134              -0.000087662               0.000399343               0.000311680               0.000000000               0.000000000               0.000000000               0.000000000               0.000114356               0.001153831               0.000045500              -0.000101345               0.000418388               0.000317043               0.000000000               0.000000000               0.000000000               0.000000000               0.000089144               0.001195532               0.000039169              -0.000116012               0.000437177               0.000321165               0.000000000               0.000000000               0.000000000               0.000000000               0.000064326               0.001237649               0.000031052              -0.000130584               0.000456073               0.000325490               0.000000000               0.000000000               0.000000000               0.000000000               0.000038929               0.001278379               0.000021485              -0.000145199               0.000474522               0.000329323               0.000000000               0.000000000               0.000000000               0.000000000               0.000015725               0.001318770               0.000010995              -0.000158949               0.000492569               0.000333619               0.000000000               0.000000000               0.000000000               0.000000000               0.000011548               0.001348388               0.000008865              -0.000164218               0.000504198               0.000339980               0.000000000               0.000000000               0.000000000               0.000000000               0.000330267               0.000959637               0.000434196               0.000003895               0.000318577               0.000322472               0.000000000               0.000000000               0.000000000               0.000000000               0.000246390               0.000914585               0.000307398              -0.000021927               0.000312168               0.000290240               0.000000000               0.000000000               0.000000000               0.000000000               0.000208698               0.000931009               0.000177823              -0.000038114               0.000323038               0.000284924               0.000000000               0.000000000               0.000000000               0.000000000               0.000200030               0.000937797               0.000123269              -0.000042213               0.000326667               0.000284454               0.000000000               0.000000000               0.000000000               0.000000000               0.000192219               0.000956961               0.000094323              -0.000047538               0.000334830               0.000287292               0.000000000               0.000000000               0.000000000               0.000000000               0.000179228               0.000988036               0.000076905              -0.000056294               0.000348107               0.000291813               0.000000000               0.000000000               0.000000000               0.000000000               0.000169426               0.001019480               0.000067527              -0.000063900               0.000361123               0.000297223               0.000000000               0.000000000               0.000000000               0.000000000               0.000166080               0.001054109               0.000066339              -0.000069484               0.000374527               0.000305044               0.000000000               0.000000000               0.000000000               0.000000000               0.000163903               0.001099285               0.000067706              -0.000075947               0.000391740               0.000315793               0.000000000               0.000000000               0.000000000               0.000000000               0.000157023               0.001160004               0.000059839              -0.000086117               0.000415370               0.000329253               0.000000000               0.000000000               0.000000000               0.000000000               0.000140509               0.001225647               0.000046909              -0.000100515               0.000442050               0.000341535               0.000000000               0.000000000               0.000000000               0.000000000               0.000116858               0.001287529               0.000040459              -0.000117119               0.000468212               0.000351093               0.000000000               0.000000000               0.000000000               0.000000000               0.000089306               0.001345282               0.000034590              -0.000134670               0.000493313               0.000358643               0.000000000               0.000000000               0.000000000               0.000000000               0.000064237               0.001403395               0.000026672              -0.000151335               0.000518239               0.000366904               0.000000000               0.000000000               0.000000000               0.000000000               0.000041964               0.001459366               0.000018840              -0.000166684               0.000542012               0.000375328               0.000000000               0.000000000               0.000000000               0.000000000               0.000020813               0.001508782               0.000009165              -0.000180793               0.000563187               0.000382394               0.000000000               0.000000000               0.000000000               0.000000000               0.000016130               0.001540574               0.000007135              -0.000186523               0.000575694               0.000389171               0.000000000               0.000000000               0.000000000               0.000000000               0.000347924               0.000813508               0.000416409               0.000028782               0.000261572               0.000290355               0.000000000               0.000000000               0.000000000               0.000000000               0.000250289               0.000822875               0.000305061              -0.000009002               0.000277289               0.000268288               0.000000000               0.000000000               0.000000000               0.000000000               0.000198922               0.000890452               0.000187643              -0.000036711               0.000309051               0.000272340               0.000000000               0.000000000               0.000000000               0.000000000               0.000187557               0.000925228               0.000133947              -0.000045320               0.000323513               0.000278193               0.000000000               0.000000000               0.000000000               0.000000000               0.000177481               0.000967750               0.000105462              -0.000054413               0.000340718               0.000286305               0.000000000               0.000000000               0.000000000               0.000000000               0.000166478               0.001016023               0.000087151              -0.000064573               0.000360195               0.000295622               0.000000000               0.000000000               0.000000000               0.000000000               0.000163079               0.001068284               0.000075423              -0.000072381               0.000380218               0.000307837               0.000000000               0.000000000               0.000000000               0.000000000               0.000169623               0.001130218               0.000067670              -0.000077669               0.000402625               0.000324957               0.000000000               0.000000000               0.000000000               0.000000000               0.000174958               0.001206779               0.000061804              -0.000085238               0.000430668               0.000345430               0.000000000               0.000000000               0.000000000               0.000000000               0.000167373               0.001288879               0.000051297              -0.000098345               0.000462404               0.000364059               0.000000000               0.000000000               0.000000000               0.000000000               0.000148182               0.001368220               0.000039797              -0.000115459               0.000494555               0.000379096               0.000000000               0.000000000               0.000000000               0.000000000               0.000123886               0.001440433               0.000035081              -0.000133597               0.000524672               0.000391075               0.000000000               0.000000000               0.000000000               0.000000000               0.000096140               0.001508079               0.000029486              -0.000152457               0.000553507               0.000401050               0.000000000               0.000000000               0.000000000               0.000000000               0.000070401               0.001572475               0.000019728              -0.000170159               0.000580873               0.000410714               0.000000000               0.000000000               0.000000000               0.000000000               0.000048886               0.001633686               0.000012029              -0.000185878               0.000606516               0.000420638               0.000000000               0.000000000               0.000000000               0.000000000               0.000025843               0.001686401               0.000006418              -0.000201108               0.000629164               0.000428056               0.000000000               0.000000000               0.000000000               0.000000000               0.000017909               0.001719010               0.000006856              -0.000208160               0.000642384               0.000434225               0.000000000               0.000000000               0.000000000               0.000000000               0.000356151               0.000685640               0.000383543               0.000047851               0.000212594               0.000260445               0.000000000               0.000000000               0.000000000               0.000000000               0.000254591               0.000742243               0.000296308               0.000002691               0.000246515               0.000249206               0.000000000               0.000000000               0.000000000               0.000000000               0.000193982               0.000855322               0.000197349              -0.000034172               0.000296495               0.000262323               0.000000000               0.000000000               0.000000000               0.000000000               0.000181365               0.000917416               0.000144892              -0.000046665               0.000321357               0.000274692               0.000000000               0.000000000               0.000000000               0.000000000               0.000170389               0.000980394               0.000116409              -0.000058653               0.000346346               0.000287693               0.000000000               0.000000000               0.000000000               0.000000000               0.000163719               0.001049476               0.000095882              -0.000069790               0.000373085               0.000303295               0.000000000               0.000000000               0.000000000               0.000000000               0.000169868               0.001126522               0.000078840              -0.000077115               0.000401208               0.000324094               0.000000000               0.000000000               0.000000000               0.000000000               0.000186241               0.001214017               0.000065792              -0.000081912               0.000431972               0.000350060               0.000000000               0.000000000               0.000000000               0.000000000               0.000194622               0.001304751               0.000056003              -0.000090111               0.000464949               0.000374839               0.000000000               0.000000000               0.000000000               0.000000000               0.000185260               0.001399096               0.000047003              -0.000105414               0.000501499               0.000396085               0.000000000               0.000000000               0.000000000               0.000000000               0.000166735               0.001487706               0.000037926              -0.000123437               0.000537043               0.000413605               0.000000000               0.000000000               0.000000000               0.000000000               0.000143475               0.001562748               0.000031749              -0.000141540               0.000568091               0.000426551               0.000000000               0.000000000               0.000000000               0.000000000               0.000115971               0.001632043               0.000024101              -0.000160516               0.000597514               0.000436998               0.000000000               0.000000000               0.000000000               0.000000000               0.000090545               0.001701027               0.000013688              -0.000178673               0.000626561               0.000447888               0.000000000               0.000000000               0.000000000               0.000000000               0.000068989               0.001765782               0.000004766              -0.000194851               0.000653539               0.000458687               0.000000000               0.000000000               0.000000000               0.000000000               0.000047614               0.001826313               0.000000170              -0.000210433               0.000678909               0.000468476               0.000000000               0.000000000               0.000000000               0.000000000               0.000035891               0.001860350              -0.000000230              -0.000219084               0.000693139               0.000474054               0.000000000               0.000000000               0.000000000               0.000000000               0.000350179               0.000555760               0.000342942               0.000061846               0.000164636               0.000226482               0.000000000               0.000000000               0.000000000               0.000000000               0.000257013               0.000643736               0.000285560               0.000015912               0.000209272               0.000225185               0.000000000               0.000000000               0.000000000               0.000000000               0.000195005               0.000792084               0.000211945              -0.000025884               0.000272653               0.000246769               0.000000000               0.000000000               0.000000000               0.000000000               0.000184273               0.000881209               0.000163193              -0.000041049               0.000307416               0.000266367               0.000000000               0.000000000               0.000000000               0.000000000               0.000177659               0.000961627               0.000133657              -0.000053581               0.000338400               0.000284818               0.000000000               0.000000000               0.000000000               0.000000000               0.000174828               0.001048853               0.000111788              -0.000065546               0.000371463               0.000305917               0.000000000               0.000000000               0.000000000               0.000000000               0.000183885               0.001143470               0.000094124              -0.000073977               0.000405812               0.000331835               0.000000000               0.000000000               0.000000000               0.000000000               0.000204612               0.001241338               0.000079986              -0.000078438               0.000439921               0.000361484               0.000000000               0.000000000               0.000000000               0.000000000               0.000222343               0.001338472               0.000065422              -0.000083930               0.000474130               0.000390199               0.000000000               0.000000000               0.000000000               0.000000000               0.000223345               0.001435612               0.000053693              -0.000095697               0.000510431               0.000414734               0.000000000               0.000000000               0.000000000               0.000000000               0.000208819               0.001524488               0.000045358              -0.000112253               0.000545575               0.000433322               0.000000000               0.000000000               0.000000000               0.000000000               0.000186889               0.001599189               0.000036130              -0.000129815               0.000576329               0.000446514               0.000000000               0.000000000               0.000000000               0.000000000               0.000160737               0.001668195               0.000025871              -0.000148248               0.000605475               0.000457228               0.000000000               0.000000000               0.000000000               0.000000000               0.000134391               0.001738424               0.000016963              -0.000166906               0.000635104               0.000468198               0.000000000               0.000000000               0.000000000               0.000000000               0.000112824               0.001810048               0.000006951              -0.000183946               0.000664659               0.000480712               0.000000000               0.000000000               0.000000000               0.000000000               0.000096250               0.001886251              -0.000000864              -0.000199687               0.000695306               0.000495619               0.000000000               0.000000000               0.000000000               0.000000000               0.000082523               0.001920743              -0.000005438              -0.000209146               0.000709957               0.000500810               0.000000000               0.000000000               0.000000000               0.000000000               0.000327787               0.000428219               0.000291728               0.000069392               0.000119608               0.000189000               0.000000000               0.000000000               0.000000000               0.000000000               0.000257506               0.000541354               0.000266992               0.000028895               0.000170818               0.000199713               0.000000000               0.000000000               0.000000000               0.000000000               0.000204808               0.000717873               0.000223218              -0.000012931               0.000243599               0.000230668               0.000000000               0.000000000               0.000000000               0.000000000               0.000196017               0.000830562               0.000181108              -0.000030314               0.000286956               0.000256642               0.000000000               0.000000000               0.000000000               0.000000000               0.000194794               0.000926726               0.000152564              -0.000042793               0.000323170               0.000280377               0.000000000               0.000000000               0.000000000               0.000000000               0.000196871               0.001026986               0.000130668              -0.000054547               0.000360508               0.000305961               0.000000000               0.000000000               0.000000000               0.000000000               0.000208168               0.001134146               0.000113569              -0.000063705               0.000399280               0.000335575               0.000000000               0.000000000               0.000000000               0.000000000               0.000226828               0.001243350               0.000096789              -0.000070358               0.000437898               0.000367540               0.000000000               0.000000000               0.000000000               0.000000000               0.000247777               0.001347391               0.000078291              -0.000075507               0.000474295               0.000398788               0.000000000               0.000000000               0.000000000               0.000000000               0.000258228               0.001438304               0.000062443              -0.000082952               0.000507081               0.000424128               0.000000000               0.000000000               0.000000000               0.000000000               0.000252721               0.001522392               0.000051189              -0.000095528               0.000539302               0.000443773               0.000000000               0.000000000               0.000000000               0.000000000               0.000238572               0.001603409               0.000040322              -0.000110962               0.000571452               0.000460490               0.000000000               0.000000000               0.000000000               0.000000000               0.000220251               0.001677213               0.000028915              -0.000127057               0.000601418               0.000474361               0.000000000               0.000000000               0.000000000               0.000000000               0.000195821               0.001740677               0.000020231              -0.000144152               0.000628270               0.000484119               0.000000000               0.000000000               0.000000000               0.000000000               0.000172149               0.001807502               0.000011183              -0.000161382               0.000656289               0.000494907               0.000000000               0.000000000               0.000000000               0.000000000               0.000155053               0.001882868               0.000002604              -0.000177213               0.000686687               0.000509474               0.000000000               0.000000000               0.000000000               0.000000000               0.000138540               0.001913770              -0.000004127              -0.000187268               0.000700340               0.000513071               0.000000000               0.000000000               0.000000000               0.000000000               0.000289408               0.000314610               0.000233070               0.000069201               0.000081802               0.000151003               0.000000000               0.000000000               0.000000000               0.000000000               0.000253504               0.000443392               0.000237759               0.000039640               0.000134582               0.000174222               0.000000000               0.000000000               0.000000000               0.000000000               0.000220543               0.000634016               0.000222286               0.000003451               0.000210186               0.000213637               0.000000000               0.000000000               0.000000000               0.000000000               0.000215827               0.000765525               0.000190635              -0.000014755               0.000260091               0.000245335               0.000000000               0.000000000               0.000000000               0.000000000               0.000220703               0.000879280               0.000165953              -0.000027146               0.000302139               0.000274993               0.000000000               0.000000000               0.000000000               0.000000000               0.000227723               0.000994937               0.000146316              -0.000038971               0.000344633               0.000305662               0.000000000               0.000000000               0.000000000               0.000000000               0.000237096               0.001116119               0.000129024              -0.000050604               0.000388904               0.000338300               0.000000000               0.000000000               0.000000000               0.000000000               0.000251554               0.001237542               0.000111407              -0.000060360               0.000432630               0.000372270               0.000000000               0.000000000               0.000000000               0.000000000               0.000269609               0.001342802               0.000090964              -0.000066747               0.000469845               0.000403098               0.000000000               0.000000000               0.000000000               0.000000000               0.000282448               0.001428338               0.000070113              -0.000072624               0.000500316               0.000427692               0.000000000               0.000000000               0.000000000               0.000000000               0.000287388               0.001512318               0.000055144              -0.000081269               0.000531191               0.000449921               0.000000000               0.000000000               0.000000000               0.000000000               0.000284240               0.001598702               0.000043757              -0.000093248               0.000563978               0.000470730               0.000000000               0.000000000               0.000000000               0.000000000               0.000275841               0.001676123               0.000032616              -0.000106075               0.000594060               0.000487986               0.000000000               0.000000000               0.000000000               0.000000000               0.000262045               0.001745248               0.000023186              -0.000119889               0.000621706               0.000501818               0.000000000               0.000000000               0.000000000               0.000000000               0.000244499               0.001814895               0.000016881              -0.000135174               0.000650017               0.000514843               0.000000000               0.000000000               0.000000000               0.000000000               0.000227241               0.001886794               0.000009990              -0.000150633               0.000679136               0.000528503               0.000000000               0.000000000               0.000000000               0.000000000               0.000208106               0.001916655               0.000001757              -0.000161542               0.000692726               0.000531184               0.000000000               0.000000000               0.000000000               0.000000000               0.000242093               0.000222179               0.000173899               0.000063012               0.000053055               0.000116067               0.000000000               0.000000000               0.000000000               0.000000000               0.000246649               0.000353432               0.000200026               0.000048314               0.000101705               0.000150018               0.000000000               0.000000000               0.000000000               0.000000000               0.000239847               0.000545518               0.000206667               0.000021752               0.000174587               0.000196339               0.000000000               0.000000000               0.000000000               0.000000000               0.000243500               0.000693489               0.000187493               0.000004626               0.000229619               0.000234245               0.000000000               0.000000000               0.000000000               0.000000000               0.000252789               0.000825062               0.000168585              -0.000008337               0.000277797               0.000269460               0.000000000               0.000000000               0.000000000               0.000000000               0.000261944               0.000956221               0.000150440              -0.000021299               0.000325837               0.000304538               0.000000000               0.000000000               0.000000000               0.000000000               0.000270724               0.001088572               0.000133969              -0.000034550               0.000374370               0.000339821               0.000000000               0.000000000               0.000000000               0.000000000               0.000281586               0.001213044               0.000117767              -0.000046036               0.000419689               0.000373654               0.000000000               0.000000000               0.000000000               0.000000000               0.000291481               0.001313776               0.000097002              -0.000054917               0.000456227               0.000401310               0.000000000               0.000000000               0.000000000               0.000000000               0.000303212               0.001402283               0.000075104              -0.000061581               0.000487950               0.000426369               0.000000000               0.000000000               0.000000000               0.000000000               0.000316686               0.001494652               0.000057783              -0.000068074               0.000520904               0.000452830               0.000000000               0.000000000               0.000000000               0.000000000               0.000324898               0.001586726               0.000045849              -0.000076504               0.000554405               0.000477901               0.000000000               0.000000000               0.000000000               0.000000000               0.000328384               0.001673194               0.000036499              -0.000086005               0.000586394               0.000500389               0.000000000               0.000000000               0.000000000               0.000000000               0.000328858               0.001754996               0.000027789              -0.000096053               0.000617010               0.000520958               0.000000000               0.000000000               0.000000000               0.000000000               0.000323420               0.001830038               0.000021189              -0.000107472               0.000645831               0.000538359               0.000000000               0.000000000               0.000000000               0.000000000               0.000310592               0.001899444               0.000012845              -0.000120958               0.000673461               0.000552503               0.000000000               0.000000000               0.000000000               0.000000000               0.000294891               0.001929043               0.000004452              -0.000130546               0.000686523               0.000555977               0.000000000               0.000000000               0.000000000               0.000000000               0.000192409               0.000153047               0.000119709               0.000053022               0.000033341               0.000086363               0.000000000               0.000000000               0.000000000               0.000000000               0.000236950               0.000276834               0.000154866               0.000054251               0.000074193               0.000128445               0.000000000               0.000000000               0.000000000               0.000000000               0.000260284               0.000463235               0.000174846               0.000039702               0.000141176               0.000180878               0.000000000               0.000000000               0.000000000               0.000000000               0.000275494               0.000623043               0.000167558               0.000025430               0.000199202               0.000224632               0.000000000               0.000000000               0.000000000               0.000000000               0.000287048               0.000769407               0.000153813               0.000011467               0.000252644               0.000264111               0.000000000               0.000000000               0.000000000               0.000000000               0.000296407               0.000910091               0.000138026              -0.000002609               0.000304230               0.000301622               0.000000000               0.000000000               0.000000000               0.000000000               0.000307163               0.001044512               0.000124592              -0.000015378               0.000353293               0.000337915               0.000000000               0.000000000               0.000000000               0.000000000               0.000313066               0.001166131               0.000109213              -0.000028367               0.000398162               0.000369795               0.000000000               0.000000000               0.000000000               0.000000000               0.000317058               0.001270783               0.000090259              -0.000039951               0.000436907               0.000396956               0.000000000               0.000000000               0.000000000               0.000000000               0.000328690               0.001373018               0.000072312              -0.000048369               0.000473791               0.000425422               0.000000000               0.000000000               0.000000000               0.000000000               0.000346359               0.001476033               0.000057068              -0.000054620               0.000510213               0.000455593               0.000000000               0.000000000               0.000000000               0.000000000               0.000362836               0.001573643               0.000045619              -0.000060642               0.000544756               0.000484115               0.000000000               0.000000000               0.000000000               0.000000000               0.000375550               0.001667538               0.000037178              -0.000067611               0.000578377               0.000510766               0.000000000               0.000000000               0.000000000               0.000000000               0.000385857               0.001755892               0.000029151              -0.000074790               0.000610221               0.000535432               0.000000000               0.000000000               0.000000000               0.000000000               0.000391672               0.001834836               0.000020170              -0.000082477               0.000639098               0.000556621               0.000000000               0.000000000               0.000000000               0.000000000               0.000390623               0.001905249               0.000010298              -0.000091672               0.000665634               0.000573962               0.000000000               0.000000000               0.000000000               0.000000000               0.000383736               0.001935184               0.000003573              -0.000097997               0.000677720               0.000579724               0.000000000               0.000000000               0.000000000               0.000000000               0.000144838               0.000105191               0.000073387               0.000041165               0.000021342               0.000062507               0.000000000               0.000000000               0.000000000               0.000000000               0.000224890               0.000217410               0.000104981               0.000057157               0.000053417               0.000110574               0.000000000               0.000000000               0.000000000               0.000000000               0.000279729               0.000395351               0.000127807               0.000055479               0.000113289               0.000168768               0.000000000               0.000000000               0.000000000               0.000000000               0.000305667               0.000563700               0.000127035               0.000044162               0.000173178               0.000217340               0.000000000               0.000000000               0.000000000               0.000000000               0.000317866               0.000716432               0.000118353               0.000029646               0.000228927               0.000258572               0.000000000               0.000000000               0.000000000               0.000000000               0.000329854               0.000860058               0.000107946               0.000016188               0.000281287               0.000297475               0.000000000               0.000000000               0.000000000               0.000000000               0.000337188               0.000995893               0.000096745               0.000001959               0.000331308               0.000333267               0.000000000               0.000000000               0.000000000               0.000000000               0.000339644               0.001116397               0.000083737              -0.000012183               0.000376189               0.000364006               0.000000000               0.000000000               0.000000000               0.000000000               0.000345161               0.001230088               0.000071313              -0.000024325               0.000418134               0.000393808               0.000000000               0.000000000               0.000000000               0.000000000               0.000359505               0.001347650               0.000060158              -0.000033642               0.000460426               0.000426784               0.000000000               0.000000000               0.000000000               0.000000000               0.000376566               0.001456339               0.000048471              -0.000040830               0.000499051               0.000458221               0.000000000               0.000000000               0.000000000               0.000000000               0.000393094               0.001554453               0.000037304              -0.000046896               0.000533778               0.000486882               0.000000000               0.000000000               0.000000000               0.000000000               0.000410130               0.001651693               0.000029249              -0.000052663               0.000568113               0.000515450               0.000000000               0.000000000               0.000000000               0.000000000               0.000427463               0.001746801               0.000023024              -0.000058051               0.000601612               0.000543560               0.000000000               0.000000000               0.000000000               0.000000000               0.000443006               0.001833283               0.000015063              -0.000063033               0.000632099               0.000569066               0.000000000               0.000000000               0.000000000               0.000000000               0.000454618               0.001905083               0.000006847              -0.000067654               0.000657572               0.000589919               0.000000000               0.000000000               0.000000000               0.000000000               0.000456856               0.001934413               0.000002504              -0.000070481               0.000668291               0.000597811               0.000000000               0.000000000               0.000000000               0.000000000               0.000111254               0.000075702               0.000033536               0.000032257               0.000014482               0.000046739               0.000000000               0.000000000               0.000000000               0.000000000               0.000216103               0.000179801               0.000052359               0.000058563               0.000040412               0.000098975               0.000000000               0.000000000               0.000000000               0.000000000               0.000294523               0.000351890               0.000067978               0.000066459               0.000095142               0.000161602               0.000000000               0.000000000               0.000000000               0.000000000               0.000327103               0.000522094               0.000068667               0.000057401               0.000154896               0.000212297               0.000000000               0.000000000               0.000000000               0.000000000               0.000341757               0.000677681               0.000064986               0.000043448               0.000211408               0.000254857               0.000000000               0.000000000               0.000000000               0.000000000               0.000351548               0.000823009               0.000059957               0.000028954               0.000264682               0.000293636               0.000000000               0.000000000               0.000000000               0.000000000               0.000356825               0.000957206               0.000052362               0.000014158               0.000314346               0.000328504               0.000000000               0.000000000               0.000000000               0.000000000               0.000361746               0.001079983               0.000045453               0.000000657               0.000359772               0.000360429               0.000000000               0.000000000               0.000000000               0.000000000               0.000370930               0.001204063               0.000040679              -0.000011409               0.000405154               0.000393744               0.000000000               0.000000000               0.000000000               0.000000000               0.000383252               0.001326613               0.000035195              -0.000022107               0.000449569               0.000427462               0.000000000               0.000000000               0.000000000               0.000000000               0.000395424               0.001433787               0.000027398              -0.000030939               0.000488237               0.000457298               0.000000000               0.000000000               0.000000000               0.000000000               0.000411124               0.001534714               0.000020172              -0.000037668               0.000524122               0.000486454               0.000000000               0.000000000               0.000000000               0.000000000               0.000432361               0.001639521               0.000015977              -0.000042805               0.000560770               0.000517965               0.000000000               0.000000000               0.000000000               0.000000000               0.000454259               0.001739613               0.000012786              -0.000047104               0.000595567               0.000548462               0.000000000               0.000000000               0.000000000               0.000000000               0.000474615               0.001828149               0.000007886              -0.000050538               0.000626223               0.000575685               0.000000000               0.000000000               0.000000000               0.000000000               0.000493301               0.001901445               0.000003272              -0.000052692               0.000651373               0.000598680               0.000000000               0.000000000               0.000000000               0.000000000               0.000500977               0.001932187               0.000001351              -0.000053657               0.000661942               0.000608285               0.000000000               0.000000000               0.000000000               0.000000000               0.000099836               0.000066479              -0.000000000               0.000029128               0.000012450               0.000041578               0.000000000               0.000000000               0.000000000               0.000000000               0.000213275               0.000168370              -0.000000000               0.000058931               0.000036479               0.000095410               0.000000000               0.000000000               0.000000000               0.000000000               0.000300016               0.000337812              -0.000000000               0.000070279               0.000089176               0.000159455               0.000000000               0.000000000               0.000000000               0.000000000               0.000334962               0.000505886              -0.000000000               0.000062374               0.000147836               0.000210210               0.000000000               0.000000000               0.000000000               0.000000000               0.000351580               0.000664073              -0.000000000               0.000048833               0.000205078               0.000253911               0.000000000               0.000000000               0.000000000               0.000000000               0.000357396               0.000809878               0.000000000               0.000032788               0.000259027               0.000291815               0.000000000               0.000000000               0.000000000               0.000000000               0.000364198               0.000940648              -0.000000000               0.000018993               0.000307215               0.000326208               0.000000000               0.000000000               0.000000000               0.000000000               0.000372212               0.001066593              -0.000000000               0.000006255               0.000353442               0.000359697               0.000000000               0.000000000               0.000000000               0.000000000               0.000381541               0.001196209               0.000000000              -0.000006448               0.000400882               0.000394434               0.000000000               0.000000000               0.000000000               0.000000000               0.000390312               0.001316541               0.000000000              -0.000018201               0.000444910               0.000426709               0.000000000               0.000000000               0.000000000               0.000000000               0.000400831               0.001423487              -0.000000000              -0.000027624               0.000483699               0.000456075               0.000000000               0.000000000               0.000000000               0.000000000               0.000418284               0.001528716               0.000000000              -0.000034233               0.000520978               0.000486745               0.000000000               0.000000000               0.000000000               0.000000000               0.000440889               0.001635697               0.000000000              -0.000039129               0.000558270               0.000519141               0.000000000               0.000000000               0.000000000               0.000000000               0.000463265               0.001736014               0.000000000              -0.000043277               0.000593091               0.000549814               0.000000000               0.000000000               0.000000000               0.000000000               0.000484990               0.001824912               0.000000000              -0.000046243               0.000623712               0.000577469               0.000000000               0.000000000               0.000000000               0.000000000               0.000505958               0.001899317               0.000000000              -0.000047680               0.000648993               0.000601313               0.000000000               0.000000000               0.000000000               0.000000000               0.000515089               0.001931046              -0.000000000              -0.000048222               0.000659750               0.000611527               0.000000000               0.000000000               0.000000000               0.000000000               0.000137232               0.001592139              -0.000000000              -0.000147555               0.000579893               0.000432338               0.000000000               0.000000000               0.000000000               0.000000000               0.000163337               0.001349264              -0.000000000              -0.000107406               0.000485552               0.000378146               0.000000000               0.000000000               0.000000000               0.000000000               0.000242875               0.001155091               0.000000000              -0.000053308               0.000402796               0.000349488               0.000000000               0.000000000               0.000000000               0.000000000               0.000275564               0.001045887               0.000000000              -0.000027399               0.000357759               0.000330360               0.000000000               0.000000000               0.000000000               0.000000000               0.000291992               0.000979395               0.000000000              -0.000012927               0.000330771               0.000317844               0.000000000               0.000000000               0.000000000               0.000000000               0.000302898               0.000935924               0.000000000              -0.000003404               0.000313106               0.000309702               0.000000000               0.000000000               0.000000000               0.000000000               0.000306189               0.000911674              -0.000000000               0.000000862               0.000303601               0.000304463               0.000000000               0.000000000               0.000000000               0.000000000               0.000301575               0.000902240              -0.000000000               0.000000311               0.000300640               0.000300951               0.000000000               0.000000000               0.000000000               0.000000000               0.000291684               0.000900560               0.000000000              -0.000003188               0.000301246               0.000298058               0.000000000               0.000000000               0.000000000               0.000000000               0.000279183               0.000900944               0.000000000              -0.000007924               0.000302953               0.000295029               0.000000000               0.000000000               0.000000000               0.000000000               0.000261402               0.000905743               0.000000000              -0.000015192               0.000306975               0.000291783               0.000000000               0.000000000               0.000000000               0.000000000               0.000230107               0.000918576               0.000000000              -0.000028532               0.000315700               0.000287168               0.000000000               0.000000000               0.000000000               0.000000000               0.000188608               0.000935753              -0.000000000              -0.000046241               0.000327328               0.000281087               0.000000000               0.000000000               0.000000000               0.000000000               0.000146670               0.000959457               0.000000000              -0.000064931               0.000341459               0.000276529               0.000000000               0.000000000               0.000000000               0.000000000               0.000100978               0.000989252               0.000000000              -0.000085789               0.000358344               0.000272554               0.000000000               0.000000000               0.000000000               0.000000000               0.000049524               0.001023523               0.000000000              -0.000109369               0.000377627               0.000268259               0.000000000               0.000000000               0.000000000               0.000000000               0.000027669               0.001053930               0.000000000              -0.000121365               0.000391761               0.000270396               0.000000000               0.000000000               0.000000000               0.000000000               0.000149767               0.001571489              -0.000123552              -0.000140273               0.000570582               0.000430309               0.000000000               0.000000000               0.000000000               0.000000000               0.000169970               0.001332341              -0.000084034              -0.000102804               0.000478377               0.000375573               0.000000000               0.000000000               0.000000000               0.000000000               0.000241867               0.001145321              -0.000043779              -0.000052465               0.000399258               0.000346793               0.000000000               0.000000000               0.000000000               0.000000000               0.000271874               0.001040476              -0.000025491              -0.000028107               0.000356191               0.000328084               0.000000000               0.000000000               0.000000000               0.000000000               0.000288088               0.000977734              -0.000017001              -0.000014184               0.000330636               0.000316452               0.000000000               0.000000000               0.000000000               0.000000000               0.000295170               0.000938097              -0.000012759              -0.000006573               0.000314887               0.000308314               0.000000000               0.000000000               0.000000000               0.000000000               0.000296156               0.000917952              -0.000010157              -0.000003685               0.000307209               0.000303524               0.000000000               0.000000000               0.000000000               0.000000000               0.000291122               0.000910651              -0.000010583              -0.000004661               0.000305101               0.000300440               0.000000000               0.000000000               0.000000000               0.000000000               0.000280610               0.000909660              -0.000015655              -0.000008479               0.000306043               0.000297565               0.000000000               0.000000000               0.000000000               0.000000000               0.000266277               0.000909339              -0.000021152              -0.000013813               0.000307714               0.000293901               0.000000000               0.000000000               0.000000000               0.000000000               0.000247547               0.000914103              -0.000020988              -0.000021433               0.000311842               0.000290410               0.000000000               0.000000000               0.000000000               0.000000000               0.000220222               0.000926506              -0.000019777              -0.000033230               0.000319909               0.000286679               0.000000000               0.000000000               0.000000000               0.000000000               0.000182965               0.000941969              -0.000019534              -0.000049134               0.000330364               0.000281230               0.000000000               0.000000000               0.000000000               0.000000000               0.000141283               0.000962254              -0.000016837              -0.000067300               0.000343182               0.000275881               0.000000000               0.000000000               0.000000000               0.000000000               0.000096256               0.000987295              -0.000013205              -0.000087316               0.000358200               0.000270885               0.000000000               0.000000000               0.000000000               0.000000000               0.000047451               0.001015493              -0.000007992              -0.000109142               0.000374875               0.000265733               0.000000000               0.000000000               0.000000000               0.000000000               0.000026238               0.001039796              -0.000005164              -0.000120135               0.000386640               0.000266505               0.000000000               0.000000000               0.000000000               0.000000000               0.000177777               0.001504309              -0.000236524              -0.000121372               0.000541889               0.000420517               0.000000000               0.000000000               0.000000000               0.000000000               0.000183213               0.001281370              -0.000161233              -0.000091466               0.000457608               0.000366142               0.000000000               0.000000000               0.000000000               0.000000000               0.000240245               0.001115686              -0.000084257              -0.000049369               0.000388348               0.000338979               0.000000000               0.000000000               0.000000000               0.000000000               0.000263323               0.001025903              -0.000049186              -0.000029492               0.000351795               0.000322303               0.000000000               0.000000000               0.000000000               0.000000000               0.000273878               0.000973194              -0.000034052              -0.000018945               0.000330710               0.000311765               0.000000000               0.000000000               0.000000000               0.000000000               0.000275422               0.000943932              -0.000025679              -0.000014708               0.000319544               0.000304835               0.000000000               0.000000000               0.000000000               0.000000000               0.000271020               0.000933792              -0.000020622              -0.000015091               0.000316291               0.000301200               0.000000000               0.000000000               0.000000000               0.000000000               0.000260569               0.000931816              -0.000021823              -0.000018763               0.000316857               0.000298093               0.000000000               0.000000000               0.000000000               0.000000000               0.000249705               0.000933434              -0.000030649              -0.000023040               0.000318821               0.000295782               0.000000000               0.000000000               0.000000000               0.000000000               0.000237624               0.000934373              -0.000038880              -0.000027688               0.000320684               0.000292996               0.000000000               0.000000000               0.000000000               0.000000000               0.000217811               0.000939084              -0.000036404              -0.000035706               0.000324927               0.000289221               0.000000000               0.000000000               0.000000000               0.000000000               0.000190776               0.000948613              -0.000032774              -0.000047035               0.000331879               0.000284844               0.000000000               0.000000000               0.000000000               0.000000000               0.000159022               0.000961040              -0.000030271              -0.000060497               0.000340509               0.000280012               0.000000000               0.000000000               0.000000000               0.000000000               0.000123243               0.000976975              -0.000023877              -0.000075906               0.000350957               0.000275051               0.000000000               0.000000000               0.000000000               0.000000000               0.000082647               0.000994568              -0.000016960              -0.000093328               0.000362629               0.000269301               0.000000000               0.000000000               0.000000000               0.000000000               0.000039727               0.001013352              -0.000009226              -0.000111771               0.000375038               0.000263267               0.000000000               0.000000000               0.000000000               0.000000000               0.000021439               0.001029417              -0.000005912              -0.000120637               0.000383348               0.000262711               0.000000000               0.000000000               0.000000000               0.000000000               0.000217728               0.001395313              -0.000329987              -0.000092766               0.000496022               0.000403256               0.000000000               0.000000000               0.000000000               0.000000000               0.000201213               0.001204347              -0.000224239              -0.000075088               0.000426475               0.000351386               0.000000000               0.000000000               0.000000000               0.000000000               0.000237452               0.001073586              -0.000117160              -0.000045154               0.000372910               0.000327756               0.000000000               0.000000000               0.000000000               0.000000000               0.000250757               0.001004396              -0.000071481              -0.000031516               0.000345300               0.000313785               0.000000000               0.000000000               0.000000000               0.000000000               0.000253684               0.000966121              -0.000051273              -0.000025634               0.000330582               0.000304948               0.000000000               0.000000000               0.000000000               0.000000000               0.000250107               0.000952045              -0.000038735              -0.000025215               0.000325750               0.000300535               0.000000000               0.000000000               0.000000000               0.000000000               0.000239107               0.000952681              -0.000031734              -0.000029420               0.000327364               0.000297944               0.000000000               0.000000000               0.000000000               0.000000000               0.000224753               0.000959216              -0.000033287              -0.000035620               0.000331609               0.000295989               0.000000000               0.000000000               0.000000000               0.000000000               0.000211901               0.000963086              -0.000043663              -0.000040923               0.000334667               0.000293744               0.000000000               0.000000000               0.000000000               0.000000000               0.000198448               0.000968330              -0.000051647              -0.000046623               0.000338314               0.000291691               0.000000000               0.000000000               0.000000000               0.000000000               0.000179609               0.000978854              -0.000046303              -0.000055003               0.000344616               0.000289612               0.000000000               0.000000000               0.000000000               0.000000000               0.000157634               0.000990786              -0.000039220              -0.000064735               0.000351837               0.000287102               0.000000000               0.000000000               0.000000000               0.000000000               0.000133054               0.001004657              -0.000033510              -0.000075687               0.000360111               0.000284425               0.000000000               0.000000000               0.000000000               0.000000000               0.000102031               0.001019145              -0.000025064              -0.000089131               0.000369422               0.000280291               0.000000000               0.000000000               0.000000000               0.000000000               0.000066637               0.001034436              -0.000016861              -0.000104315               0.000379580               0.000275265               0.000000000               0.000000000               0.000000000               0.000000000               0.000031672               0.001051860              -0.000008587              -0.000119605               0.000390485               0.000270880               0.000000000               0.000000000               0.000000000               0.000000000               0.000018563               0.001067795              -0.000006224              -0.000126513               0.000398099               0.000271586               0.000000000               0.000000000               0.000000000               0.000000000               0.000264173               0.001262054              -0.000392614              -0.000058692               0.000440245               0.000381552               0.000000000               0.000000000               0.000000000               0.000000000               0.000221123               0.001112619              -0.000268369              -0.000056157               0.000389588               0.000333432               0.000000000               0.000000000               0.000000000               0.000000000               0.000229342               0.001026373              -0.000143815              -0.000042293               0.000356219               0.000313925               0.000000000               0.000000000               0.000000000               0.000000000               0.000233996               0.000980134              -0.000091913              -0.000034768               0.000338297               0.000303529               0.000000000               0.000000000               0.000000000               0.000000000               0.000233239               0.000959175              -0.000066959              -0.000032432               0.000330532               0.000298100               0.000000000               0.000000000               0.000000000               0.000000000               0.000223339               0.000960434              -0.000051866              -0.000036302               0.000332242               0.000295940               0.000000000               0.000000000               0.000000000               0.000000000               0.000209235               0.000972562              -0.000043349              -0.000043107               0.000338553               0.000295446               0.000000000               0.000000000               0.000000000               0.000000000               0.000194673               0.000984348              -0.000045382              -0.000050041               0.000344793               0.000294752               0.000000000               0.000000000               0.000000000               0.000000000               0.000181016               0.000994701              -0.000055976              -0.000056457               0.000350383               0.000293926               0.000000000               0.000000000               0.000000000               0.000000000               0.000167334               0.001010606              -0.000059300              -0.000063575               0.000358057               0.000294482               0.000000000               0.000000000               0.000000000               0.000000000               0.000150033               0.001033746              -0.000051571              -0.000072956               0.000368897               0.000295941               0.000000000               0.000000000               0.000000000               0.000000000               0.000129514               0.001056799              -0.000044170              -0.000083532               0.000380107               0.000296575               0.000000000               0.000000000               0.000000000               0.000000000               0.000104155               0.001079929              -0.000038170              -0.000095933               0.000391950               0.000296018               0.000000000               0.000000000               0.000000000               0.000000000               0.000076557               0.001102873              -0.000029619              -0.000109150               0.000404004               0.000294854               0.000000000               0.000000000               0.000000000               0.000000000               0.000048448               0.001126738              -0.000020479              -0.000122674               0.000416467               0.000293793               0.000000000               0.000000000               0.000000000               0.000000000               0.000020765               0.001152917              -0.000011203              -0.000136328               0.000429744               0.000293417               0.000000000               0.000000000               0.000000000               0.000000000               0.000012811               0.001174523              -0.000008922              -0.000142011               0.000438841               0.000296830               0.000000000               0.000000000               0.000000000               0.000000000               0.000302199               0.001113395              -0.000426805              -0.000025850               0.000379745               0.000353895               0.000000000               0.000000000               0.000000000               0.000000000               0.000236662               0.001013385              -0.000296083              -0.000037925               0.000350433               0.000312508               0.000000000               0.000000000               0.000000000               0.000000000               0.000219440               0.000977610              -0.000163897              -0.000039911               0.000339171               0.000299259               0.000000000               0.000000000               0.000000000               0.000000000               0.000216087               0.000957209              -0.000108975              -0.000038618               0.000331939               0.000293321               0.000000000               0.000000000               0.000000000               0.000000000               0.000211398               0.000955034              -0.000081436              -0.000040105               0.000331710               0.000291605               0.000000000               0.000000000               0.000000000               0.000000000               0.000199975               0.000971397              -0.000064219              -0.000046434               0.000339274               0.000292840               0.000000000               0.000000000               0.000000000               0.000000000               0.000185242               0.000991965              -0.000055975              -0.000054530               0.000348828               0.000294298               0.000000000               0.000000000               0.000000000               0.000000000               0.000174104               0.001011417              -0.000057589              -0.000061138               0.000357515               0.000296377               0.000000000               0.000000000               0.000000000               0.000000000               0.000166655               0.001034141              -0.000064680              -0.000066772               0.000366968               0.000300196               0.000000000               0.000000000               0.000000000               0.000000000               0.000155008               0.001068143              -0.000063717              -0.000075390               0.000381174               0.000305784               0.000000000               0.000000000               0.000000000               0.000000000               0.000136359               0.001110377              -0.000053134              -0.000087662               0.000399343               0.000311680               0.000000000               0.000000000               0.000000000               0.000000000               0.000114356               0.001153831              -0.000045500              -0.000101345               0.000418388               0.000317043               0.000000000               0.000000000               0.000000000               0.000000000               0.000089144               0.001195532              -0.000039169              -0.000116012               0.000437177               0.000321165               0.000000000               0.000000000               0.000000000               0.000000000               0.000064326               0.001237649              -0.000031052              -0.000130584               0.000456073               0.000325490               0.000000000               0.000000000               0.000000000               0.000000000               0.000038929               0.001278379              -0.000021485              -0.000145199               0.000474522               0.000329323               0.000000000               0.000000000               0.000000000               0.000000000               0.000015725               0.001318770              -0.000010995              -0.000158949               0.000492569               0.000333619               0.000000000               0.000000000               0.000000000               0.000000000               0.000011548               0.001348388              -0.000008865              -0.000164218               0.000504198               0.000339980               0.000000000               0.000000000               0.000000000               0.000000000               0.000330267               0.000959637              -0.000434196               0.000003895               0.000318577               0.000322472               0.000000000               0.000000000               0.000000000               0.000000000               0.000246390               0.000914585              -0.000307398              -0.000021927               0.000312168               0.000290240               0.000000000               0.000000000               0.000000000               0.000000000               0.000208698               0.000931009              -0.000177823              -0.000038114               0.000323038               0.000284924               0.000000000               0.000000000               0.000000000               0.000000000               0.000200030               0.000937797              -0.000123269              -0.000042213               0.000326667               0.000284454               0.000000000               0.000000000               0.000000000               0.000000000               0.000192219               0.000956961              -0.000094323              -0.000047538               0.000334830               0.000287292               0.000000000               0.000000000               0.000000000               0.000000000               0.000179228               0.000988036              -0.000076905              -0.000056294               0.000348107               0.000291813               0.000000000               0.000000000               0.000000000               0.000000000               0.000169426               0.001019480              -0.000067527              -0.000063900               0.000361123               0.000297223               0.000000000               0.000000000               0.000000000               0.000000000               0.000166080               0.001054109              -0.000066339              -0.000069484               0.000374527               0.000305044               0.000000000               0.000000000               0.000000000               0.000000000               0.000163903               0.001099285              -0.000067706              -0.000075947               0.000391740               0.000315793               0.000000000               0.000000000               0.000000000               0.000000000               0.000157023               0.001160004              -0.000059839              -0.000086117               0.000415370               0.000329253               0.000000000               0.000000000               0.000000000               0.000000000               0.000140509               0.001225647              -0.000046909              -0.000100515               0.000442050               0.000341535               0.000000000               0.000000000               0.000000000               0.000000000               0.000116858               0.001287529              -0.000040459              -0.000117119               0.000468212               0.000351093               0.000000000               0.000000000               0.000000000               0.000000000               0.000089306               0.001345282              -0.000034590              -0.000134670               0.000493313               0.000358643               0.000000000               0.000000000               0.000000000               0.000000000               0.000064237               0.001403395              -0.000026672              -0.000151335               0.000518239               0.000366904               0.000000000               0.000000000               0.000000000               0.000000000               0.000041964               0.001459366              -0.000018840              -0.000166684               0.000542012               0.000375328               0.000000000               0.000000000               0.000000000               0.000000000               0.000020813               0.001508782              -0.000009165              -0.000180793               0.000563187               0.000382394               0.000000000               0.000000000               0.000000000               0.000000000               0.000016130               0.001540574              -0.000007135              -0.000186523               0.000575694               0.000389171               0.000000000               0.000000000               0.000000000               0.000000000               0.000347924               0.000813508              -0.000416409               0.000028782               0.000261572               0.000290355               0.000000000               0.000000000               0.000000000               0.000000000               0.000250289               0.000822875              -0.000305061              -0.000009002               0.000277289               0.000268288               0.000000000               0.000000000               0.000000000               0.000000000               0.000198922               0.000890452              -0.000187643              -0.000036711               0.000309051               0.000272340               0.000000000               0.000000000               0.000000000               0.000000000               0.000187557               0.000925228              -0.000133947              -0.000045320               0.000323513               0.000278193               0.000000000               0.000000000               0.000000000               0.000000000               0.000177481               0.000967750              -0.000105462              -0.000054413               0.000340718               0.000286305               0.000000000               0.000000000               0.000000000               0.000000000               0.000166478               0.001016023              -0.000087151              -0.000064573               0.000360195               0.000295622               0.000000000               0.000000000               0.000000000               0.000000000               0.000163079               0.001068284              -0.000075423              -0.000072381               0.000380218               0.000307837               0.000000000               0.000000000               0.000000000               0.000000000               0.000169623               0.001130218              -0.000067670              -0.000077669               0.000402625               0.000324957               0.000000000               0.000000000               0.000000000               0.000000000               0.000174958               0.001206779              -0.000061804              -0.000085238               0.000430668               0.000345430               0.000000000               0.000000000               0.000000000               0.000000000               0.000167373               0.001288879              -0.000051297              -0.000098345               0.000462404               0.000364059               0.000000000               0.000000000               0.000000000               0.000000000               0.000148182               0.001368220              -0.000039797              -0.000115459               0.000494555               0.000379096               0.000000000               0.000000000               0.000000000               0.000000000               0.000123886               0.001440433              -0.000035081              -0.000133597               0.000524672               0.000391075               0.000000000               0.000000000               0.000000000               0.000000000               0.000096140               0.001508079              -0.000029486              -0.000152457               0.000553507               0.000401050               0.000000000               0.000000000               0.000000000               0.000000000               0.000070401               0.001572475              -0.000019728              -0.000170159               0.000580873               0.000410714               0.000000000               0.000000000               0.000000000               0.000000000               0.000048886               0.001633686              -0.000012029              -0.000185878               0.000606516               0.000420638               0.000000000               0.000000000               0.000000000               0.000000000               0.000025843               0.001686401              -0.000006418              -0.000201108               0.000629164               0.000428056               0.000000000               0.000000000               0.000000000               0.000000000               0.000017909               0.001719010              -0.000006856              -0.000208160               0.000642384               0.000434225               0.000000000               0.000000000               0.000000000               0.000000000               0.000356151               0.000685640              -0.000383543               0.000047851               0.000212594               0.000260445               0.000000000               0.000000000               0.000000000               0.000000000               0.000254591               0.000742243              -0.000296308               0.000002691               0.000246515               0.000249206               0.000000000               0.000000000               0.000000000               0.000000000               0.000193982               0.000855322              -0.000197349              -0.000034172               0.000296495               0.000262323               0.000000000               0.000000000               0.000000000               0.000000000               0.000181365               0.000917416              -0.000144892              -0.000046665               0.000321357               0.000274692               0.000000000               0.000000000               0.000000000               0.000000000               0.000170389               0.000980394              -0.000116409              -0.000058653               0.000346346               0.000287693               0.000000000               0.000000000               0.000000000               0.000000000               0.000163719               0.001049476              -0.000095882              -0.000069790               0.000373085               0.000303295               0.000000000               0.000000000               0.000000000               0.000000000               0.000169868               0.001126522              -0.000078840              -0.000077115               0.000401208               0.000324094               0.000000000               0.000000000               0.000000000               0.000000000               0.000186241               0.001214017              -0.000065792              -0.000081912               0.000431972               0.000350060               0.000000000               0.000000000               0.000000000               0.000000000               0.000194622               0.001304751              -0.000056003              -0.000090111               0.000464949               0.000374839               0.000000000               0.000000000               0.000000000               0.000000000               0.000185260               0.001399096              -0.000047003              -0.000105414               0.000501499               0.000396085               0.000000000               0.000000000               0.000000000               0.000000000               0.000166735               0.001487706              -0.000037926              -0.000123437               0.000537043               0.000413605               0.000000000               0.000000000               0.000000000               0.000000000               0.000143475               0.001562748              -0.000031749              -0.000141540               0.000568091               0.000426551               0.000000000               0.000000000               0.000000000               0.000000000               0.000115971               0.001632043              -0.000024101              -0.000160516               0.000597514               0.000436998               0.000000000               0.000000000               0.000000000               0.000000000               0.000090545               0.001701027              -0.000013688              -0.000178673               0.000626561               0.000447888               0.000000000               0.000000000               0.000000000               0.000000000               0.000068989               0.001765782              -0.000004766              -0.000194851               0.000653539               0.000458687               0.000000000               0.000000000               0.000000000               0.000000000               0.000047614               0.001826313              -0.000000170              -0.000210433               0.000678909               0.000468476               0.000000000               0.000000000               0.000000000               0.000000000               0.000035891               0.001860350               0.000000230              -0.000219084               0.000693139               0.000474054               0.000000000               0.000000000               0.000000000               0.000000000               0.000350179               0.000555760              -0.000342942               0.000061846               0.000164636               0.000226482               0.000000000               0.000000000               0.000000000               0.000000000               0.000257013               0.000643736              -0.000285560               0.000015912               0.000209272               0.000225185               0.000000000               0.000000000               0.000000000               0.000000000               0.000195005               0.000792084              -0.000211945              -0.000025884               0.000272653               0.000246769               0.000000000               0.000000000               0.000000000               0.000000000               0.000184273               0.000881209              -0.000163193              -0.000041049               0.000307416               0.000266367               0.000000000               0.000000000               0.000000000               0.000000000               0.000177659               0.000961627              -0.000133657              -0.000053581               0.000338400               0.000284818               0.000000000               0.000000000               0.000000000               0.000000000               0.000174828               0.001048853              -0.000111788              -0.000065546               0.000371463               0.000305917               0.000000000               0.000000000               0.000000000               0.000000000               0.000183885               0.001143470              -0.000094124              -0.000073977               0.000405812               0.000331835               0.000000000               0.000000000               0.000000000               0.000000000               0.000204612               0.001241338              -0.000079986              -0.000078438               0.000439921               0.000361484               0.000000000               0.000000000               0.000000000               0.000000000               0.000222343               0.001338472              -0.000065422              -0.000083930               0.000474130               0.000390199               0.000000000               0.000000000               0.000000000               0.000000000               0.000223345               0.001435612              -0.000053693              -0.000095697               0.000510431               0.000414734               0.000000000               0.000000000               0.000000000               0.000000000               0.000208819               0.001524488              -0.000045358              -0.000112253               0.000545575               0.000433322               0.000000000               0.000000000               0.000000000               0.000000000               0.000186889               0.001599189              -0.000036130              -0.000129815               0.000576329               0.000446514               0.000000000               0.000000000               0.000000000               0.000000000               0.000160737               0.001668195              -0.000025871              -0.000148248               0.000605475               0.000457228               0.000000000               0.000000000               0.000000000               0.000000000               0.000134391               0.001738424              -0.000016963              -0.000166906               0.000635104               0.000468198               0.000000000               0.000000000               0.000000000               0.000000000               0.000112824               0.001810048              -0.000006951              -0.000183946               0.000664659               0.000480712               0.000000000               0.000000000               0.000000000               0.000000000               0.000096250               0.001886251               0.000000864              -0.000199687               0.000695306               0.000495619               0.000000000               0.000000000               0.000000000               0.000000000               0.000082523               0.001920743               0.000005438              -0.000209146               0.000709957               0.000500810               0.000000000               0.000000000               0.000000000               0.000000000               0.000327787               0.000428219              -0.000291728               0.000069392               0.000119608               0.000189000               0.000000000               0.000000000               0.000000000               0.000000000               0.000257506               0.000541354              -0.000266992               0.000028895               0.000170818               0.000199713               0.000000000               0.000000000               0.000000000               0.000000000               0.000204808               0.000717873              -0.000223218              -0.000012931               0.000243599               0.000230668               0.000000000               0.000000000               0.000000000               0.000000000               0.000196017               0.000830562              -0.000181108              -0.000030314               0.000286956               0.000256642               0.000000000               0.000000000               0.000000000               0.000000000               0.000194794               0.000926726              -0.000152564              -0.000042793               0.000323170               0.000280377               0.000000000               0.000000000               0.000000000               0.000000000               0.000196871               0.001026986              -0.000130668              -0.000054547               0.000360508               0.000305961               0.000000000               0.000000000               0.000000000               0.000000000               0.000208168               0.001134146              -0.000113569              -0.000063705               0.000399280               0.000335575               0.000000000               0.000000000               0.000000000               0.000000000               0.000226828               0.001243350              -0.000096789              -0.000070358               0.000437898               0.000367540               0.000000000               0.000000000               0.000000000               0.000000000               0.000247777               0.001347391              -0.000078291              -0.000075507               0.000474295               0.000398788               0.000000000               0.000000000               0.000000000               0.000000000               0.000258228               0.001438304              -0.000062443              -0.000082952               0.000507081               0.000424128               0.000000000               0.000000000               0.000000000               0.000000000               0.000252721               0.001522392              -0.000051189              -0.000095528               0.000539302               0.000443773               0.000000000               0.000000000               0.000000000               0.000000000               0.000238572               0.001603409              -0.000040322              -0.000110962               0.000571452               0.000460490               0.000000000               0.000000000               0.000000000               0.000000000               0.000220251               0.001677213              -0.000028915              -0.000127057               0.000601418               0.000474361               0.000000000               0.000000000               0.000000000               0.000000000               0.000195821               0.001740677              -0.000020231              -0.000144152               0.000628270               0.000484119               0.000000000               0.000000000               0.000000000               0.000000000               0.000172149               0.001807502              -0.000011183              -0.000161382               0.000656289               0.000494907               0.000000000               0.000000000               0.000000000               0.000000000               0.000155053               0.001882868              -0.000002604              -0.000177213               0.000686687               0.000509474               0.000000000               0.000000000               0.000000000               0.000000000               0.000138540               0.001913770               0.000004127              -0.000187268               0.000700340               0.000513071               0.000000000               0.000000000               0.000000000               0.000000000               0.000289408               0.000314610              -0.000233070               0.000069201               0.000081802               0.000151003               0.000000000               0.000000000               0.000000000               0.000000000               0.000253504               0.000443392              -0.000237759               0.000039640               0.000134582               0.000174222               0.000000000               0.000000000               0.000000000               0.000000000               0.000220543               0.000634016              -0.000222286               0.000003451               0.000210186               0.000213637               0.000000000               0.000000000               0.000000000               0.000000000               0.000215827               0.000765525              -0.000190635              -0.000014755               0.000260091               0.000245335               0.000000000               0.000000000               0.000000000               0.000000000               0.000220703               0.000879280              -0.000165953              -0.000027146               0.000302139               0.000274993               0.000000000               0.000000000               0.000000000               0.000000000               0.000227723               0.000994937              -0.000146316              -0.000038971               0.000344633               0.000305662               0.000000000               0.000000000               0.000000000               0.000000000               0.000237096               0.001116119              -0.000129024              -0.000050604               0.000388904               0.000338300               0.000000000               0.000000000               0.000000000               0.000000000               0.000251554               0.001237542              -0.000111407              -0.000060360               0.000432630               0.000372270               0.000000000               0.000000000               0.000000000               0.000000000               0.000269609               0.001342802              -0.000090964              -0.000066747               0.000469845               0.000403098               0.000000000               0.000000000               0.000000000               0.000000000               0.000282448               0.001428338              -0.000070113              -0.000072624               0.000500316               0.000427692               0.000000000               0.000000000               0.000000000               0.000000000               0.000287388               0.001512318              -0.000055144              -0.000081269               0.000531191               0.000449921               0.000000000               0.000000000               0.000000000               0.000000000               0.000284240               0.001598702              -0.000043757              -0.000093248               0.000563978               0.000470730               0.000000000               0.000000000               0.000000000               0.000000000               0.000275841               0.001676123              -0.000032616              -0.000106075               0.000594060               0.000487986               0.000000000               0.000000000               0.000000000               0.000000000               0.000262045               0.001745248              -0.000023186              -0.000119889               0.000621706               0.000501818               0.000000000               0.000000000               0.000000000               0.000000000               0.000244499               0.001814895              -0.000016881              -0.000135174               0.000650017               0.000514843               0.000000000               0.000000000               0.000000000               0.000000000               0.000227241               0.001886794              -0.000009990              -0.000150633               0.000679136               0.000528503               0.000000000               0.000000000               0.000000000               0.000000000               0.000208106               0.001916655              -0.000001757              -0.000161542               0.000692726               0.000531184               0.000000000               0.000000000               0.000000000               0.000000000               0.000242093               0.000222179              -0.000173899               0.000063012               0.000053055               0.000116067               0.000000000               0.000000000               0.000000000               0.000000000               0.000246649               0.000353432              -0.000200026               0.000048314               0.000101705               0.000150018               0.000000000               0.000000000               0.000000000               0.000000000               0.000239847               0.000545518              -0.000206667               0.000021752               0.000174587               0.000196339               0.000000000               0.000000000               0.000000000               0.000000000               0.000243500               0.000693489              -0.000187493               0.000004626               0.000229619               0.000234245               0.000000000               0.000000000               0.000000000               0.000000000               0.000252789               0.000825062              -0.000168585              -0.000008337               0.000277797               0.000269460               0.000000000               0.000000000               0.000000000               0.000000000               0.000261944               0.000956221              -0.000150440              -0.000021299               0.000325837               0.000304538               0.000000000               0.000000000               0.000000000               0.000000000               0.000270724               0.001088572              -0.000133969              -0.000034550               0.000374370               0.000339821               0.000000000               0.000000000               0.000000000               0.000000000               0.000281586               0.001213044              -0.000117767              -0.000046036               0.000419689               0.000373654               0.000000000               0.000000000               0.000000000               0.000000000               0.000291481               0.001313776              -0.000097002              -0.000054917               0.000456227               0.000401310               0.000000000               0.000000000               0.000000000               0.000000000               0.000303212               0.001402283              -0.000075104              -0.000061581               0.000487950               0.000426369               0.000000000               0.000000000               0.000000000               0.000000000               0.000316686               0.001494652              -0.000057783              -0.000068074               0.000520904               0.000452830               0.000000000               0.000000000               0.000000000               0.000000000               0.000324898               0.001586726              -0.000045849              -0.000076504               0.000554405               0.000477901               0.000000000               0.000000000               0.000000000               0.000000000               0.000328384               0.001673194              -0.000036499              -0.000086005               0.000586394               0.000500389               0.000000000               0.000000000               0.000000000               0.000000000               0.000328858               0.001754996              -0.000027789              -0.000096053               0.000617010               0.000520958               0.000000000               0.000000000               0.000000000               0.000000000               0.000323420               0.001830038              -0.000021189              -0.000107472               0.000645831               0.000538359               0.000000000               0.000000000               0.000000000               0.000000000               0.000310592               0.001899444              -0.000012845              -0.000120958               0.000673461               0.000552503               0.000000000               0.000000000               0.000000000               0.000000000               0.000294891               0.001929043              -0.000004452              -0.000130546               0.000686523               0.000555977               0.000000000               0.000000000               0.000000000               0.000000000               0.000192409               0.000153047              -0.000119709               0.000053022               0.000033341               0.000086363               0.000000000               0.000000000               0.000000000               0.000000000               0.000236950               0.000276834              -0.000154866               0.000054251               0.000074193               0.000128445               0.000000000               0.000000000               0.000000000               0.000000000               0.000260284               0.000463235              -0.000174846               0.000039702               0.000141176               0.000180878               0.000000000               0.000000000               0.000000000               0.000000000               0.000275494               0.000623043              -0.000167558               0.000025430               0.000199202               0.000224632               0.000000000               0.000000000               0.000000000               0.000000000               0.000287048               0.000769407              -0.000153813               0.000011467               0.000252644               0.000264111               0.000000000               0.000000000               0.000000000               0.000000000               0.000296407               0.000910091              -0.000138026              -0.000002609               0.000304230               0.000301622               0.000000000               0.000000000               0.000000000               0.000000000               0.000307163               0.001044512              -0.000124592              -0.000015378               0.000353293               0.000337915               0.000000000               0.000000000               0.000000000               0.000000000               0.000313066               0.001166131              -0.000109213              -0.000028367               0.000398162               0.000369795               0.000000000               0.000000000               0.000000000               0.000000000               0.000317058               0.001270783              -0.000090259              -0.000039951               0.000436907               0.000396956               0.000000000               0.000000000               0.000000000               0.000000000               0.000328690               0.001373018              -0.000072312              -0.000048369               0.000473791               0.000425422               0.000000000               0.000000000               0.000000000               0.000000000               0.000346359               0.001476033              -0.000057068              -0.000054620               0.000510213               0.000455593               0.000000000               0.000000000               0.000000000               0.000000000               0.000362836               0.001573643              -0.000045619              -0.000060642               0.000544756               0.000484115               0.000000000               0.000000000               0.000000000               0.000000000               0.000375550               0.001667538              -0.000037178              -0.000067611               0.000578377               0.000510766               0.000000000               0.000000000               0.000000000               0.000000000               0.000385857               0.001755892              -0.000029151              -0.000074790               0.000610221               0.000535432               0.000000000               0.000000000               0.000000000               0.000000000               0.000391672               0.001834836              -0.000020170              -0.000082477               0.000639098               0.000556621               0.000000000               0.000000000               0.000000000               0.000000000               0.000390623               0.001905249              -0.000010298              -0.000091672               0.000665634               0.000573962               0.000000000               0.000000000               0.000000000               0.000000000               0.000383736               0.001935184              -0.000003573              -0.000097997               0.000677720               0.000579724               0.000000000               0.000000000               0.000000000               0.000000000               0.000144838               0.000105191              -0.000073387               0.000041165               0.000021342               0.000062507               0.000000000               0.000000000               0.000000000               0.000000000               0.000224890               0.000217410              -0.000104981               0.000057157               0.000053417               0.000110574               0.000000000               0.000000000               0.000000000               0.000000000               0.000279729               0.000395351              -0.000127807               0.000055479               0.000113289               0.000168768               0.000000000               0.000000000               0.000000000               0.000000000               0.000305667               0.000563700              -0.000127035               0.000044162               0.000173178               0.000217340               0.000000000               0.000000000               0.000000000               0.000000000               0.000317866               0.000716432              -0.000118353               0.000029646               0.000228927               0.000258572               0.000000000               0.000000000               0.000000000               0.000000000               0.000329854               0.000860058              -0.000107946               0.000016188               0.000281287               0.000297475               0.000000000               0.000000000               0.000000000               0.000000000               0.000337188               0.000995893              -0.000096745               0.000001959               0.000331308               0.000333267               0.000000000               0.000000000               0.000000000               0.000000000               0.000339644               0.001116397              -0.000083737              -0.000012183               0.000376189               0.000364006               0.000000000               0.000000000               0.000000000               0.000000000               0.000345161               0.001230088              -0.000071313              -0.000024325               0.000418134               0.000393808               0.000000000               0.000000000               0.000000000               0.000000000               0.000359505               0.001347650              -0.000060158              -0.000033642               0.000460426               0.000426784               0.000000000               0.000000000               0.000000000               0.000000000               0.000376566               0.001456339              -0.000048471              -0.000040830               0.000499051               0.000458221               0.000000000               0.000000000               0.000000000               0.000000000               0.000393094               0.001554453              -0.000037304              -0.000046896               0.000533778               0.000486882               0.000000000               0.000000000               0.000000000               0.000000000               0.000410130               0.001651693              -0.000029249              -0.000052663               0.000568113               0.000515450               0.000000000               0.000000000               0.000000000               0.000000000               0.000427463               0.001746801              -0.000023024              -0.000058051               0.000601612               0.000543560               0.000000000               0.000000000               0.000000000               0.000000000               0.000443006               0.001833283              -0.000015063              -0.000063033               0.000632099               0.000569066               0.000000000               0.000000000               0.000000000               0.000000000               0.000454618               0.001905083              -0.000006847              -0.000067654               0.000657572               0.000589919               0.000000000               0.000000000               0.000000000               0.000000000               0.000456856               0.001934413              -0.000002504              -0.000070481               0.000668291               0.000597811               0.000000000               0.000000000               0.000000000               0.000000000               0.000111254               0.000075702              -0.000033536               0.000032257               0.000014482               0.000046739               0.000000000               0.000000000               0.000000000               0.000000000               0.000216103               0.000179801              -0.000052359               0.000058563               0.000040412               0.000098975               0.000000000               0.000000000               0.000000000               0.000000000               0.000294523               0.000351890              -0.000067978               0.000066459               0.000095142               0.000161602               0.000000000               0.000000000               0.000000000               0.000000000               0.000327103               0.000522094              -0.000068667               0.000057401               0.000154896               0.000212297               0.000000000               0.000000000               0.000000000               0.000000000               0.000341757               0.000677681              -0.000064986               0.000043448               0.000211408               0.000254857               0.000000000               0.000000000               0.000000000               0.000000000               0.000351548               0.000823009              -0.000059957               0.000028954               0.000264682               0.000293636               0.000000000               0.000000000               0.000000000               0.000000000               0.000356825               0.000957206              -0.000052362               0.000014158               0.000314346               0.000328504               0.000000000               0.000000000               0.000000000               0.000000000               0.000361746               0.001079983              -0.000045453               0.000000657               0.000359772               0.000360429               0.000000000               0.000000000               0.000000000               0.000000000               0.000370930               0.001204063              -0.000040679              -0.000011409               0.000405154               0.000393744               0.000000000               0.000000000               0.000000000               0.000000000               0.000383252               0.001326613              -0.000035195              -0.000022107               0.000449569               0.000427462               0.000000000               0.000000000               0.000000000               0.000000000               0.000395424               0.001433787              -0.000027398              -0.000030939               0.000488237               0.000457298               0.000000000               0.000000000               0.000000000               0.000000000               0.000411124               0.001534714              -0.000020172              -0.000037668               0.000524122               0.000486454               0.000000000               0.000000000               0.000000000               0.000000000               0.000432361               0.001639521              -0.000015977              -0.000042805               0.000560770               0.000517965               0.000000000               0.000000000               0.000000000               0.000000000               0.000454259               0.001739613              -0.000012786              -0.000047104               0.000595567               0.000548462               0.000000000               0.000000000               0.000000000               0.000000000               0.000474615               0.001828149              -0.000007886              -0.000050538               0.000626223               0.000575685               0.000000000               0.000000000               0.000000000               0.000000000               0.000493301               0.001901445              -0.000003272              -0.000052692               0.000651373               0.000598680               0.000000000               0.000000000               0.000000000               0.000000000               0.000500977               0.001932187              -0.000001351              -0.000053657               0.000661942               0.000608285               0.000000000               0.000000000               0.000000000               0.000000000               0.000000000               0.000000000               0.000000000               0.000000000               0.000000000               0.000000000               0.000000000               0.000000000               0.000000000               0.000000000               0.000000000               0.000000000               0.000000000               0.000000000               0.000000000               0.000000000               0.000000000               0.000000000               0.000000000               0.000000000               0.000000000               0.000000000               0.000000000               0.000000000               0.000000000               0.000000000               0.000000000               0.000000000               0.000000000               0.000000000               0.000000000               0.000000000               0.000000000               0.000000000               0.000000000               0.000000000               0.000000000               0.000000000               0.000000000               0.000000000               0.000000000               0.000000000               0.000000000               0.000000000               0.000000000               0.000000000               0.000000000               0.000000000               0.000000000               0.000000000               0.000000000               0.000000000               0.000000000               0.000000000               0.000000000               0.000000000               0.000000000               0.000000000               0.000000000               0.000000000               0.000000000               0.000000000               0.000000000               0.000000000               0.000000000               0.000000000               0.000000000               0.000000000               0.000000000               0.000000000               0.000000000               0.000000000               0.000000000               0.000000000               0.000000000               0.000000000               0.000000000               0.000000000               0.000000000               0.000000000               0.000000000               0.000000000               0.000000000               0.000000000               0.000000000               0.000000000               0.000000000               0.000000000               0.000000000               0.000000000               0.000000000               0.000000000               0.000000000               0.000000000               0.000000000               0.000000000               0.000000000               0.000000000               0.000000000               0.000000000               0.000000000               0.000000000               0.000000000               0.000000000               0.000000000               0.000000000               0.000000000               0.000000000               0.000000000               0.000000000               0.000000000               0.000000000               0.000000000               0.000000000               0.000000000               0.000000000               0.000000000               0.000000000               0.000000000               0.000000000               0.000000000               0.000000000               0.000000000               0.000000000               0.000000000               0.000000000               0.000000000               0.000000000               0.000000000               0.000000000               0.000000000               0.000000000               0.000000000               0.000000000               0.000000000               0.000000000               0.000000000               0.000000000               0.000000000               0.000000000               0.000000000               0.000000000               0.000000000               0.000000000               0.000000000               0.000000000               0.000000000               0.000000000               0.000000000               0.000000000               0.000000000               0.000000000               0.000000000               0.000000000               0.000000000               0.000000000               0.000000000               0.000000000               0.000000000               0.000000000               0.000000000               0.000000000               0.000000000               0.000000000               0.000000000               0.000000000               0.000000000               0.000000000               0.000000000               0.000000000               0.000000000               0.000000000               0.000000000               0.000000000               0.000000000               0.000000000               0.000000000               0.000000000               0.000000000               0.000000000               0.000000000               0.000000000               0.000000000               0.000000000               0.000000000               0.000000000               0.000000000               0.000000000               0.000000000               0.000000000               0.000000000               0.000000000               0.000000000               0.000000000               0.000000000               0.000000000               0.000000000               0.000000000               0.000000000               0.000000000               0.000000000               0.000000000               0.000000000               0.000000000               0.000000000               0.000000000               0.000000000               0.000000000               0.000000000               0.000000000               0.000000000               0.000000000               0.000000000               0.000000000               0.000000000               0.000000000               0.000000000               0.000000000               0.000000000               0.000000000               0.000000000               0.000000000               0.000000000               0.000000000               0.000000000               0.000000000               0.000000000               0.000000000               0.000000000               0.000000000               0.000000000               0.000000000               0.000000000               0.000000000               0.000000000               0.000000000               0.000000000               0.000000000               0.000000000               0.000000000               0.000000000               0.000000000               0.000000000               0.000000000               0.000000000               0.000000000               0.000000000               0.000000000               0.000000000               0.000000000               0.000000000               0.000000000               0.000000000               0.000000000               0.000000000               0.000000000               0.000000000               0.000000000               0.000000000               0.000000000               0.000000000               0.000000000               0.000000000               0.000000000               0.000000000               0.000000000               0.000000000               0.000000000               0.000000000               0.000000000               0.000000000               0.000000000               0.000000000               0.000000000               0.000000000               0.000000000               0.000000000               0.000000000               0.000000000               0.000000000               0.000000000               0.000000000               0.000000000               0.000000000               0.000000000               0.000000000               0.000000000               0.000000000               0.000000000               0.000000000               0.000000000               0.000000000               0.000000000               0.000000000               0.000000000               0.000000000               0.000000000               0.000000000               0.000000000               0.000000000               0.000000000               0.000000000               0.000000000               0.000000000               0.000000000               0.000000000               0.000000000               0.000000000               0.000000000               0.000000000               0.000000000               0.000000000               0.000000000               0.000000000               0.000000000               0.000000000               0.000000000               0.000000000               0.000000000               0.000000000               0.000000000               0.000000000               0.000000000               0.000000000               0.000000000               0.000000000               0.000000000               0.000000000               0.000000000               0.000000000               0.000000000               0.000000000               0.000000000               0.000000000               0.000000000               0.000000000               0.000000000               0.000000000               0.000000000               0.000000000               0.000149767               0.001571489               0.000123552              -0.000140273               0.000570582               0.000430309               0.000000000               0.000000000               0.000000000               0.000000000               0.000169970               0.001332341               0.000084034              -0.000102804               0.000478377               0.000375573               0.000000000               0.000000000               0.000000000               0.000000000               0.000241867               0.001145321               0.000043779              -0.000052465               0.000399258               0.000346793               0.000000000               0.000000000               0.000000000               0.000000000               0.000271874               0.001040476               0.000025491              -0.000028107               0.000356191               0.000328084               0.000000000               0.000000000               0.000000000               0.000000000               0.000288088               0.000977734               0.000017001              -0.000014184               0.000330636               0.000316452               0.000000000               0.000000000               0.000000000               0.000000000               0.000295170               0.000938097               0.000012759              -0.000006573               0.000314887               0.000308314               0.000000000               0.000000000               0.000000000               0.000000000               0.000296156               0.000917952               0.000010157              -0.000003685               0.000307209               0.000303524               0.000000000               0.000000000               0.000000000               0.000000000               0.000291122               0.000910651               0.000010583              -0.000004661               0.000305101               0.000300440               0.000000000               0.000000000               0.000000000               0.000000000               0.000280610               0.000909660               0.000015655              -0.000008479               0.000306043               0.000297565               0.000000000               0.000000000               0.000000000               0.000000000               0.000266277               0.000909339               0.000021152              -0.000013813               0.000307714               0.000293901               0.000000000               0.000000000               0.000000000               0.000000000               0.000247547               0.000914103               0.000020988              -0.000021433               0.000311842               0.000290410               0.000000000               0.000000000               0.000000000               0.000000000               0.000220222               0.000926506               0.000019777              -0.000033230               0.000319909               0.000286679               0.000000000               0.000000000               0.000000000               0.000000000               0.000182965               0.000941969               0.000019534              -0.000049134               0.000330364               0.000281230               0.000000000               0.000000000               0.000000000               0.000000000               0.000141283               0.000962254               0.000016837              -0.000067300               0.000343182               0.000275881               0.000000000               0.000000000               0.000000000               0.000000000               0.000096256               0.000987295               0.000013205              -0.000087316               0.000358200               0.000270885               0.000000000               0.000000000               0.000000000               0.000000000               0.000047451               0.001015493               0.000007992              -0.000109142               0.000374875               0.000265733               0.000000000               0.000000000               0.000000000               0.000000000               0.000026238               0.001039796               0.000005164              -0.000120135               0.000386640               0.000266505               0.000000000               0.000000000               0.000000000               0.000000000               0.000177777               0.001504309               0.000236524              -0.000121372               0.000541889               0.000420517               0.000000000               0.000000000               0.000000000               0.000000000               0.000183213               0.001281370               0.000161233              -0.000091466               0.000457608               0.000366142               0.000000000               0.000000000               0.000000000               0.000000000               0.000240245               0.001115686               0.000084257              -0.000049369               0.000388348               0.000338979               0.000000000               0.000000000               0.000000000               0.000000000               0.000263323               0.001025903               0.000049186              -0.000029492               0.000351795               0.000322303               0.000000000               0.000000000               0.000000000               0.000000000               0.000273878               0.000973194               0.000034052              -0.000018945               0.000330710               0.000311765               0.000000000               0.000000000               0.000000000               0.000000000               0.000275422               0.000943932               0.000025679              -0.000014708               0.000319544               0.000304835               0.000000000               0.000000000               0.000000000               0.000000000               0.000271020               0.000933792               0.000020622              -0.000015091               0.000316291               0.000301200               0.000000000               0.000000000               0.000000000               0.000000000               0.000260569               0.000931816               0.000021823              -0.000018763               0.000316857               0.000298093               0.000000000               0.000000000               0.000000000               0.000000000               0.000249705               0.000933434               0.000030649              -0.000023040               0.000318821               0.000295782               0.000000000               0.000000000               0.000000000               0.000000000               0.000237624               0.000934373               0.000038880              -0.000027688               0.000320684               0.000292996               0.000000000               0.000000000               0.000000000               0.000000000               0.000217811               0.000939084               0.000036404              -0.000035706               0.000324927               0.000289221               0.000000000               0.000000000               0.000000000               0.000000000               0.000190776               0.000948613               0.000032774              -0.000047035               0.000331879               0.000284844               0.000000000               0.000000000               0.000000000               0.000000000               0.000159022               0.000961040               0.000030271              -0.000060497               0.000340509               0.000280012               0.000000000               0.000000000               0.000000000               0.000000000               0.000123243               0.000976975               0.000023877              -0.000075906               0.000350957               0.000275051               0.000000000               0.000000000               0.000000000               0.000000000               0.000082647               0.000994568               0.000016960              -0.000093328               0.000362629               0.000269301               0.000000000               0.000000000               0.000000000               0.000000000               0.000039727               0.001013352               0.000009226              -0.000111771               0.000375038               0.000263267               0.000000000               0.000000000               0.000000000               0.000000000               0.000021439               0.001029417               0.000005912              -0.000120637               0.000383348               0.000262711               0.000000000               0.000000000               0.000000000               0.000000000               0.000217728               0.001395313               0.000329987              -0.000092766               0.000496022               0.000403256               0.000000000               0.000000000               0.000000000               0.000000000               0.000201213               0.001204347               0.000224239              -0.000075088               0.000426475               0.000351386               0.000000000               0.000000000               0.000000000               0.000000000               0.000237452               0.001073586               0.000117160              -0.000045154               0.000372910               0.000327756               0.000000000               0.000000000               0.000000000               0.000000000               0.000250757               0.001004396               0.000071481              -0.000031516               0.000345300               0.000313785               0.000000000               0.000000000               0.000000000               0.000000000               0.000253684               0.000966121               0.000051273              -0.000025634               0.000330582               0.000304948               0.000000000               0.000000000               0.000000000               0.000000000               0.000250107               0.000952045               0.000038735              -0.000025215               0.000325750               0.000300535               0.000000000               0.000000000               0.000000000               0.000000000               0.000239107               0.000952681               0.000031734              -0.000029420               0.000327364               0.000297944               0.000000000               0.000000000               0.000000000               0.000000000               0.000224753               0.000959216               0.000033287              -0.000035620               0.000331609               0.000295989               0.000000000               0.000000000               0.000000000               0.000000000               0.000211901               0.000963086               0.000043663              -0.000040923               0.000334667               0.000293744               0.000000000               0.000000000               0.000000000               0.000000000               0.000198448               0.000968330               0.000051647              -0.000046623               0.000338314               0.000291691               0.000000000               0.000000000               0.000000000               0.000000000               0.000179609               0.000978854               0.000046303              -0.000055003               0.000344616               0.000289612               0.000000000               0.000000000               0.000000000               0.000000000               0.000157634               0.000990786               0.000039220              -0.000064735               0.000351837               0.000287102               0.000000000               0.000000000               0.000000000               0.000000000               0.000133054               0.001004657               0.000033510              -0.000075687               0.000360111               0.000284425               0.000000000               0.000000000               0.000000000               0.000000000               0.000102031               0.001019145               0.000025064              -0.000089131               0.000369422               0.000280291               0.000000000               0.000000000               0.000000000               0.000000000               0.000066637               0.001034436               0.000016861              -0.000104315               0.000379580               0.000275265               0.000000000               0.000000000               0.000000000               0.000000000               0.000031672               0.001051860               0.000008587              -0.000119605               0.000390485               0.000270880               0.000000000               0.000000000               0.000000000               0.000000000               0.000018563               0.001067795               0.000006224              -0.000126513               0.000398099               0.000271586               0.000000000               0.000000000               0.000000000               0.000000000               0.000264173               0.001262054               0.000392614              -0.000058692               0.000440245               0.000381552               0.000000000               0.000000000               0.000000000               0.000000000               0.000221123               0.001112619               0.000268369              -0.000056157               0.000389588               0.000333432               0.000000000               0.000000000               0.000000000               0.000000000               0.000229342               0.001026373               0.000143815              -0.000042293               0.000356219               0.000313925               0.000000000               0.000000000               0.000000000               0.000000000               0.000233996               0.000980134               0.000091913              -0.000034768               0.000338297               0.000303529               0.000000000               0.000000000               0.000000000               0.000000000               0.000233239               0.000959175               0.000066959              -0.000032432               0.000330532               0.000298100               0.000000000               0.000000000               0.000000000               0.000000000               0.000223339               0.000960434               0.000051866              -0.000036302               0.000332242               0.000295940               0.000000000               0.000000000               0.000000000               0.000000000               0.000209235               0.000972562               0.000043349              -0.000043107               0.000338553               0.000295446               0.000000000               0.000000000               0.000000000               0.000000000               0.000194673               0.000984348               0.000045382              -0.000050041               0.000344793               0.000294752               0.000000000               0.000000000               0.000000000               0.000000000               0.000181016               0.000994701               0.000055976              -0.000056457               0.000350383               0.000293926               0.000000000               0.000000000               0.000000000               0.000000000               0.000167334               0.001010606               0.000059300              -0.000063575               0.000358057               0.000294482               0.000000000               0.000000000               0.000000000               0.000000000               0.000150033               0.001033746               0.000051571              -0.000072956               0.000368897               0.000295941               0.000000000               0.000000000               0.000000000               0.000000000               0.000129514               0.001056799               0.000044170              -0.000083532               0.000380107               0.000296575               0.000000000               0.000000000               0.000000000               0.000000000               0.000104155               0.001079929               0.000038170              -0.000095933               0.000391950               0.000296018               0.000000000               0.000000000               0.000000000               0.000000000               0.000076557               0.001102873               0.000029619              -0.000109150               0.000404004               0.000294854               0.000000000               0.000000000               0.000000000               0.000000000               0.000048448               0.001126738               0.000020479              -0.000122674               0.000416467               0.000293793               0.000000000               0.000000000               0.000000000               0.000000000               0.000020765               0.001152917               0.000011203              -0.000136328               0.000429744               0.000293417               0.000000000               0.000000000               0.000000000               0.000000000               0.000012811               0.001174523               0.000008922              -0.000142011               0.000438841               0.000296830               0.000000000               0.000000000               0.000000000               0.000000000               0.000302199               0.001113395               0.000426805              -0.000025850               0.000379745               0.000353895               0.000000000               0.000000000               0.000000000               0.000000000               0.000236662               0.001013385               0.000296083              -0.000037925               0.000350433               0.000312508               0.000000000               0.000000000               0.000000000               0.000000000               0.000219440               0.000977610               0.000163897              -0.000039911               0.000339171               0.000299259               0.000000000               0.000000000               0.000000000               0.000000000               0.000216087               0.000957209               0.000108975              -0.000038618               0.000331939               0.000293321               0.000000000               0.000000000               0.000000000               0.000000000               0.000211398               0.000955034               0.000081436              -0.000040105               0.000331710               0.000291605               0.000000000               0.000000000               0.000000000               0.000000000               0.000199975               0.000971397               0.000064219              -0.000046434               0.000339274               0.000292840               0.000000000               0.000000000               0.000000000               0.000000000               0.000185242               0.000991965               0.000055975              -0.000054530               0.000348828               0.000294298               0.000000000               0.000000000               0.000000000               0.000000000               0.000174104               0.001011417               0.000057589              -0.000061138               0.000357515               0.000296377               0.000000000               0.000000000               0.000000000               0.000000000               0.000166655               0.001034141               0.000064680              -0.000066772               0.000366968               0.000300196               0.000000000               0.000000000               0.000000000               0.000000000               0.000155008               0.001068143               0.000063717              -0.000075390               0.000381174               0.000305784               0.000000000               0.000000000               0.000000000               0.000000000               0.000136359               0.001110377               0.000053134              -0.000087662               0.000399343               0.000311680               0.000000000               0.000000000               0.000000000               0.000000000               0.000114356               0.001153831               0.000045500              -0.000101345               0.000418388               0.000317043               0.000000000               0.000000000               0.000000000               0.000000000               0.000089144               0.001195532               0.000039169              -0.000116012               0.000437177               0.000321165               0.000000000               0.000000000               0.000000000               0.000000000               0.000064326               0.001237649               0.000031052              -0.000130584               0.000456073               0.000325490               0.000000000               0.000000000               0.000000000               0.000000000               0.000038929               0.001278379               0.000021485              -0.000145199               0.000474522               0.000329323               0.000000000               0.000000000               0.000000000               0.000000000               0.000015725               0.001318770               0.000010995              -0.000158949               0.000492569               0.000333619               0.000000000               0.000000000               0.000000000               0.000000000               0.000011548               0.001348388               0.000008865              -0.000164218               0.000504198               0.000339980               0.000000000               0.000000000               0.000000000               0.000000000               0.000330267               0.000959637               0.000434196               0.000003895               0.000318577               0.000322472               0.000000000               0.000000000               0.000000000               0.000000000               0.000246390               0.000914585               0.000307398              -0.000021927               0.000312168               0.000290240               0.000000000               0.000000000               0.000000000               0.000000000               0.000208698               0.000931009               0.000177823              -0.000038114               0.000323038               0.000284924               0.000000000               0.000000000               0.000000000               0.000000000               0.000200030               0.000937797               0.000123269              -0.000042213               0.000326667               0.000284454               0.000000000               0.000000000               0.000000000               0.000000000               0.000192219               0.000956961               0.000094323              -0.000047538               0.000334830               0.000287292               0.000000000               0.000000000               0.000000000               0.000000000               0.000179228               0.000988036               0.000076905              -0.000056294               0.000348107               0.000291813               0.000000000               0.000000000               0.000000000               0.000000000               0.000169426               0.001019480               0.000067527              -0.000063900               0.000361123               0.000297223               0.000000000               0.000000000               0.000000000               0.000000000               0.000166080               0.001054109               0.000066339              -0.000069484               0.000374527               0.000305044               0.000000000               0.000000000               0.000000000               0.000000000               0.000163903               0.001099285               0.000067706              -0.000075947               0.000391740               0.000315793               0.000000000               0.000000000               0.000000000               0.000000000               0.000157023               0.001160004               0.000059839              -0.000086117               0.000415370               0.000329253               0.000000000               0.000000000               0.000000000               0.000000000               0.000140509               0.001225647               0.000046909              -0.000100515               0.000442050               0.000341535               0.000000000               0.000000000               0.000000000               0.000000000               0.000116858               0.001287529               0.000040459              -0.000117119               0.000468212               0.000351093               0.000000000               0.000000000               0.000000000               0.000000000               0.000089306               0.001345282               0.000034590              -0.000134670               0.000493313               0.000358643               0.000000000               0.000000000               0.000000000               0.000000000               0.000064237               0.001403395               0.000026672              -0.000151335               0.000518239               0.000366904               0.000000000               0.000000000               0.000000000               0.000000000               0.000041964               0.001459366               0.000018840              -0.000166684               0.000542012               0.000375328               0.000000000               0.000000000               0.000000000               0.000000000               0.000020813               0.001508782               0.000009165              -0.000180793               0.000563187               0.000382394               0.000000000               0.000000000               0.000000000               0.000000000               0.000016130               0.001540574               0.000007135              -0.000186523               0.000575694               0.000389171               0.000000000               0.000000000               0.000000000               0.000000000               0.000347924               0.000813508               0.000416409               0.000028782               0.000261572               0.000290355               0.000000000               0.000000000               0.000000000               0.000000000               0.000250289               0.000822875               0.000305061              -0.000009002               0.000277289               0.000268288               0.000000000               0.000000000               0.000000000               0.000000000               0.000198922               0.000890452               0.000187643              -0.000036711               0.000309051               0.000272340               0.000000000               0.000000000               0.000000000               0.000000000               0.000187557               0.000925228               0.000133947              -0.000045320               0.000323513               0.000278193               0.000000000               0.000000000               0.000000000               0.000000000               0.000177481               0.000967750               0.000105462              -0.000054413               0.000340718               0.000286305               0.000000000               0.000000000               0.000000000               0.000000000               0.000166478               0.001016023               0.000087151              -0.000064573               0.000360195               0.000295622               0.000000000               0.000000000               0.000000000               0.000000000               0.000163079               0.001068284               0.000075423              -0.000072381               0.000380218               0.000307837               0.000000000               0.000000000               0.000000000               0.000000000               0.000169623               0.001130218               0.000067670              -0.000077669               0.000402625               0.000324957               0.000000000               0.000000000               0.000000000               0.000000000               0.000174958               0.001206779               0.000061804              -0.000085238               0.000430668               0.000345430               0.000000000               0.000000000               0.000000000               0.000000000               0.000167373               0.001288879               0.000051297              -0.000098345               0.000462404               0.000364059               0.000000000               0.000000000               0.000000000               0.000000000               0.000148182               0.001368220               0.000039797              -0.000115459               0.000494555               0.000379096               0.000000000               0.000000000               0.000000000               0.000000000               0.000123886               0.001440433               0.000035081              -0.000133597               0.000524672               0.000391075               0.000000000               0.000000000               0.000000000               0.000000000               0.000096140               0.001508079               0.000029486              -0.000152457               0.000553507               0.000401050               0.000000000               0.000000000               0.000000000               0.000000000               0.000070401               0.001572475               0.000019728              -0.000170159               0.000580873               0.000410714               0.000000000               0.000000000               0.000000000               0.000000000               0.000048886               0.001633686               0.000012029              -0.000185878               0.000606516               0.000420638               0.000000000               0.000000000               0.000000000               0.000000000               0.000025843               0.001686401               0.000006418              -0.000201108               0.000629164               0.000428056               0.000000000               0.000000000               0.000000000               0.000000000               0.000017909               0.001719010               0.000006856              -0.000208160               0.000642384               0.000434225               0.000000000               0.000000000               0.000000000               0.000000000               0.000356151               0.000685640               0.000383543               0.000047851               0.000212594               0.000260445               0.000000000               0.000000000               0.000000000               0.000000000               0.000254591               0.000742243               0.000296308               0.000002691               0.000246515               0.000249206               0.000000000               0.000000000               0.000000000               0.000000000               0.000193982               0.000855322               0.000197349              -0.000034172               0.000296495               0.000262323               0.000000000               0.000000000               0.000000000               0.000000000               0.000181365               0.000917416               0.000144892              -0.000046665               0.000321357               0.000274692               0.000000000               0.000000000               0.000000000               0.000000000               0.000170389               0.000980394               0.000116409              -0.000058653               0.000346346               0.000287693               0.000000000               0.000000000               0.000000000               0.000000000               0.000163719               0.001049476               0.000095882              -0.000069790               0.000373085               0.000303295               0.000000000               0.000000000               0.000000000               0.000000000               0.000169868               0.001126522               0.000078840              -0.000077115               0.000401208               0.000324094               0.000000000               0.000000000               0.000000000               0.000000000               0.000186241               0.001214017               0.000065792              -0.000081912               0.000431972               0.000350060               0.000000000               0.000000000               0.000000000               0.000000000               0.000194622               0.001304751               0.000056003              -0.000090111               0.000464949               0.000374839               0.000000000               0.000000000               0.000000000               0.000000000               0.000185260               0.001399096               0.000047003              -0.000105414               0.000501499               0.000396085               0.000000000               0.000000000               0.000000000               0.000000000               0.000166735               0.001487706               0.000037926              -0.000123437               0.000537043               0.000413605               0.000000000               0.000000000               0.000000000               0.000000000               0.000143475               0.001562748               0.000031749              -0.000141540               0.000568091               0.000426551               0.000000000               0.000000000               0.000000000               0.000000000               0.000115971               0.001632043               0.000024101              -0.000160516               0.000597514               0.000436998               0.000000000               0.000000000               0.000000000               0.000000000               0.000090545               0.001701027               0.000013688              -0.000178673               0.000626561               0.000447888               0.000000000               0.000000000               0.000000000               0.000000000               0.000068989               0.001765782               0.000004766              -0.000194851               0.000653539               0.000458687               0.000000000               0.000000000               0.000000000               0.000000000               0.000047614               0.001826313               0.000000170              -0.000210433               0.000678909               0.000468476               0.000000000               0.000000000               0.000000000               0.000000000               0.000035891               0.001860350              -0.000000230              -0.000219084               0.000693139               0.000474054               0.000000000               0.000000000               0.000000000               0.000000000               0.000350179               0.000555760               0.000342942               0.000061846               0.000164636               0.000226482               0.000000000               0.000000000               0.000000000               0.000000000               0.000257013               0.000643736               0.000285560               0.000015912               0.000209272               0.000225185               0.000000000               0.000000000               0.000000000               0.000000000               0.000195005               0.000792084               0.000211945              -0.000025884               0.000272653               0.000246769               0.000000000               0.000000000               0.000000000               0.000000000               0.000184273               0.000881209               0.000163193              -0.000041049               0.000307416               0.000266367               0.000000000               0.000000000               0.000000000               0.000000000               0.000177659               0.000961627               0.000133657              -0.000053581               0.000338400               0.000284818               0.000000000               0.000000000               0.000000000               0.000000000               0.000174828               0.001048853               0.000111788              -0.000065546               0.000371463               0.000305917               0.000000000               0.000000000               0.000000000               0.000000000               0.000183885               0.001143470               0.000094124              -0.000073977               0.000405812               0.000331835               0.000000000               0.000000000               0.000000000               0.000000000               0.000204612               0.001241338               0.000079986              -0.000078438               0.000439921               0.000361484               0.000000000               0.000000000               0.000000000               0.000000000               0.000222343               0.001338472               0.000065422              -0.000083930               0.000474130               0.000390199               0.000000000               0.000000000               0.000000000               0.000000000               0.000223345               0.001435612               0.000053693              -0.000095697               0.000510431               0.000414734               0.000000000               0.000000000               0.000000000               0.000000000               0.000208819               0.001524488               0.000045358              -0.000112253               0.000545575               0.000433322               0.000000000               0.000000000               0.000000000               0.000000000               0.000186889               0.001599189               0.000036130              -0.000129815               0.000576329               0.000446514               0.000000000               0.000000000               0.000000000               0.000000000               0.000160737               0.001668195               0.000025871              -0.000148248               0.000605475               0.000457228               0.000000000               0.000000000               0.000000000               0.000000000               0.000134391               0.001738424               0.000016963              -0.000166906               0.000635104               0.000468198               0.000000000               0.000000000               0.000000000               0.000000000               0.000112824               0.001810048               0.000006951              -0.000183946               0.000664659               0.000480712               0.000000000               0.000000000               0.000000000               0.000000000               0.000096250               0.001886251              -0.000000864              -0.000199687               0.000695306               0.000495619               0.000000000               0.000000000               0.000000000               0.000000000               0.000082523               0.001920743              -0.000005438              -0.000209146               0.000709957               0.000500810               0.000000000               0.000000000               0.000000000               0.000000000               0.000327787               0.000428219               0.000291728               0.000069392               0.000119608               0.000189000               0.000000000               0.000000000               0.000000000               0.000000000               0.000257506               0.000541354               0.000266992               0.000028895               0.000170818               0.000199713               0.000000000               0.000000000               0.000000000               0.000000000               0.000204808               0.000717873               0.000223218              -0.000012931               0.000243599               0.000230668               0.000000000               0.000000000               0.000000000               0.000000000               0.000196017               0.000830562               0.000181108              -0.000030314               0.000286956               0.000256642               0.000000000               0.000000000               0.000000000               0.000000000               0.000194794               0.000926726               0.000152564              -0.000042793               0.000323170               0.000280377               0.000000000               0.000000000               0.000000000               0.000000000               0.000196871               0.001026986               0.000130668              -0.000054547               0.000360508               0.000305961               0.000000000               0.000000000               0.000000000               0.000000000               0.000208168               0.001134146               0.000113569              -0.000063705               0.000399280               0.000335575               0.000000000               0.000000000               0.000000000               0.000000000               0.000226828               0.001243350               0.000096789              -0.000070358               0.000437898               0.000367540               0.000000000               0.000000000               0.000000000               0.000000000               0.000247777               0.001347391               0.000078291              -0.000075507               0.000474295               0.000398788               0.000000000               0.000000000               0.000000000               0.000000000               0.000258228               0.001438304               0.000062443              -0.000082952               0.000507081               0.000424128               0.000000000               0.000000000               0.000000000               0.000000000               0.000252721               0.001522392               0.000051189              -0.000095528               0.000539302               0.000443773               0.000000000               0.000000000               0.000000000               0.000000000               0.000238572               0.001603409               0.000040322              -0.000110962               0.000571452               0.000460490               0.000000000               0.000000000               0.000000000               0.000000000               0.000220251               0.001677213               0.000028915              -0.000127057               0.000601418               0.000474361               0.000000000               0.000000000               0.000000000               0.000000000               0.000195821               0.001740677               0.000020231              -0.000144152               0.000628270               0.000484119               0.000000000               0.000000000               0.000000000               0.000000000               0.000172149               0.001807502               0.000011183              -0.000161382               0.000656289               0.000494907               0.000000000               0.000000000               0.000000000               0.000000000               0.000155053               0.001882868               0.000002604              -0.000177213               0.000686687               0.000509474               0.000000000               0.000000000               0.000000000               0.000000000               0.000138540               0.001913770              -0.000004127              -0.000187268               0.000700340               0.000513071               0.000000000               0.000000000               0.000000000               0.000000000               0.000289408               0.000314610               0.000233070               0.000069201               0.000081802               0.000151003               0.000000000               0.000000000               0.000000000               0.000000000               0.000253504               0.000443392               0.000237759               0.000039640               0.000134582               0.000174222               0.000000000               0.000000000               0.000000000               0.000000000               0.000220543               0.000634016               0.000222286               0.000003451               0.000210186               0.000213637               0.000000000               0.000000000               0.000000000               0.000000000               0.000215827               0.000765525               0.000190635              -0.000014755               0.000260091               0.000245335               0.000000000               0.000000000               0.000000000               0.000000000               0.000220703               0.000879280               0.000165953              -0.000027146               0.000302139               0.000274993               0.000000000               0.000000000               0.000000000               0.000000000               0.000227723               0.000994937               0.000146316              -0.000038971               0.000344633               0.000305662               0.000000000               0.000000000               0.000000000               0.000000000               0.000237096               0.001116119               0.000129024              -0.000050604               0.000388904               0.000338300               0.000000000               0.000000000               0.000000000               0.000000000               0.000251554               0.001237542               0.000111407              -0.000060360               0.000432630               0.000372270               0.000000000               0.000000000               0.000000000               0.000000000               0.000269609               0.001342802               0.000090964              -0.000066747               0.000469845               0.000403098               0.000000000               0.000000000               0.000000000               0.000000000               0.000282448               0.001428338               0.000070113              -0.000072624               0.000500316               0.000427692               0.000000000               0.000000000               0.000000000               0.000000000               0.000287388               0.001512318               0.000055144              -0.000081269               0.000531191               0.000449921               0.000000000               0.000000000               0.000000000               0.000000000               0.000284240               0.001598702               0.000043757              -0.000093248               0.000563978               0.000470730               0.000000000               0.000000000               0.000000000               0.000000000               0.000275841               0.001676123               0.000032616              -0.000106075               0.000594060               0.000487986               0.000000000               0.000000000               0.000000000               0.000000000               0.000262045               0.001745248               0.000023186              -0.000119889               0.000621706               0.000501818               0.000000000               0.000000000               0.000000000               0.000000000               0.000244499               0.001814895               0.000016881              -0.000135174               0.000650017               0.000514843               0.000000000               0.000000000               0.000000000               0.000000000               0.000227241               0.001886794               0.000009990              -0.000150633               0.000679136               0.000528503               0.000000000               0.000000000               0.000000000               0.000000000               0.000208106               0.001916655               0.000001757              -0.000161542               0.000692726               0.000531184               0.000000000               0.000000000               0.000000000               0.000000000               0.000242093               0.000222179               0.000173899               0.000063012               0.000053055               0.000116067               0.000000000               0.000000000               0.000000000               0.000000000               0.000246649               0.000353432               0.000200026               0.000048314               0.000101705               0.000150018               0.000000000               0.000000000               0.000000000               0.000000000               0.000239847               0.000545518               0.000206667               0.000021752               0.000174587               0.000196339               0.000000000               0.000000000               0.000000000               0.000000000               0.000243500               0.000693489               0.000187493               0.000004626               0.000229619               0.000234245               0.000000000               0.000000000               0.000000000               0.000000000               0.000252789               0.000825062               0.000168585              -0.000008337               0.000277797               0.000269460               0.000000000               0.000000000               0.000000000               0.000000000               0.000261944               0.000956221               0.000150440              -0.000021299               0.000325837               0.000304538               0.000000000               0.000000000               0.000000000               0.000000000               0.000270724               0.001088572               0.000133969              -0.000034550               0.000374370               0.000339821               0.000000000               0.000000000               0.000000000               0.000000000               0.000281586               0.001213044               0.000117767              -0.000046036               0.000419689               0.000373654               0.000000000               0.000000000               0.000000000               0.000000000               0.000291481               0.001313776               0.000097002              -0.000054917               0.000456227               0.000401310               0.000000000               0.000000000               0.000000000               0.000000000               0.000303212               0.001402283               0.000075104              -0.000061581               0.000487950               0.000426369               0.000000000               0.000000000               0.000000000               0.000000000               0.000316686               0.001494652               0.000057783              -0.000068074               0.000520904               0.000452830               0.000000000               0.000000000               0.000000000               0.000000000               0.000324898               0.001586726               0.000045849              -0.000076504               0.000554405               0.000477901               0.000000000               0.000000000               0.000000000               0.000000000               0.000328384               0.001673194               0.000036499              -0.000086005               0.000586394               0.000500389               0.000000000               0.000000000               0.000000000               0.000000000               0.000328858               0.001754996               0.000027789              -0.000096053               0.000617010               0.000520958               0.000000000               0.000000000               0.000000000               0.000000000               0.000323420               0.001830038               0.000021189              -0.000107472               0.000645831               0.000538359               0.000000000               0.000000000               0.000000000               0.000000000               0.000310592               0.001899444               0.000012845              -0.000120958               0.000673461               0.000552503               0.000000000               0.000000000               0.000000000               0.000000000               0.000294891               0.001929043               0.000004452              -0.000130546               0.000686523               0.000555977               0.000000000               0.000000000               0.000000000               0.000000000               0.000192409               0.000153047               0.000119709               0.000053022               0.000033341               0.000086363               0.000000000               0.000000000               0.000000000               0.000000000               0.000236950               0.000276834               0.000154866               0.000054251               0.000074193               0.000128445               0.000000000               0.000000000               0.000000000               0.000000000               0.000260284               0.000463235               0.000174846               0.000039702               0.000141176               0.000180878               0.000000000               0.000000000               0.000000000               0.000000000               0.000275494               0.000623043               0.000167558               0.000025430               0.000199202               0.000224632               0.000000000               0.000000000               0.000000000               0.000000000               0.000287048               0.000769407               0.000153813               0.000011467               0.000252644               0.000264111               0.000000000               0.000000000               0.000000000               0.000000000               0.000296407               0.000910091               0.000138026              -0.000002609               0.000304230               0.000301622               0.000000000               0.000000000               0.000000000               0.000000000               0.000307163               0.001044512               0.000124592              -0.000015378               0.000353293               0.000337915               0.000000000               0.000000000               0.000000000               0.000000000               0.000313066               0.001166131               0.000109213              -0.000028367               0.000398162               0.000369795               0.000000000               0.000000000               0.000000000               0.000000000               0.000317058               0.001270783               0.000090259              -0.000039951               0.000436907               0.000396956               0.000000000               0.000000000               0.000000000               0.000000000               0.000328690               0.001373018               0.000072312              -0.000048369               0.000473791               0.000425422               0.000000000               0.000000000               0.000000000               0.000000000               0.000346359               0.001476033               0.000057068              -0.000054620               0.000510213               0.000455593               0.000000000               0.000000000               0.000000000               0.000000000               0.000362836               0.001573643               0.000045619              -0.000060642               0.000544756               0.000484115               0.000000000               0.000000000               0.000000000               0.000000000               0.000375550               0.001667538               0.000037178              -0.000067611               0.000578377               0.000510766               0.000000000               0.000000000               0.000000000               0.000000000               0.000385857               0.001755892               0.000029151              -0.000074790               0.000610221               0.000535432               0.000000000               0.000000000               0.000000000               0.000000000               0.000391672               0.001834836               0.000020170              -0.000082477               0.000639098               0.000556621               0.000000000               0.000000000               0.000000000               0.000000000               0.000390623               0.001905249               0.000010298              -0.000091672               0.000665634               0.000573962               0.000000000               0.000000000               0.000000000               0.000000000               0.000383736               0.001935184               0.000003573              -0.000097997               0.000677720               0.000579724               0.000000000               0.000000000               0.000000000               0.000000000               0.000144838               0.000105191               0.000073387               0.000041165               0.000021342               0.000062507               0.000000000               0.000000000               0.000000000               0.000000000               0.000224890               0.000217410               0.000104981               0.000057157               0.000053417               0.000110574               0.000000000               0.000000000               0.000000000               0.000000000               0.000279729               0.000395351               0.000127807               0.000055479               0.000113289               0.000168768               0.000000000               0.000000000               0.000000000               0.000000000               0.000305667               0.000563700               0.000127035               0.000044162               0.000173178               0.000217340               0.000000000               0.000000000               0.000000000               0.000000000               0.000317866               0.000716432               0.000118353               0.000029646               0.000228927               0.000258572               0.000000000               0.000000000               0.000000000               0.000000000               0.000329854               0.000860058               0.000107946               0.000016188               0.000281287               0.000297475               0.000000000               0.000000000               0.000000000               0.000000000               0.000337188               0.000995893               0.000096745               0.000001959               0.000331308               0.000333267               0.000000000               0.000000000               0.000000000               0.000000000               0.000339644               0.001116397               0.000083737              -0.000012183               0.000376189               0.000364006               0.000000000               0.000000000               0.000000000               0.000000000               0.000345161               0.001230088               0.000071313              -0.000024325               0.000418134               0.000393808               0.000000000               0.000000000               0.000000000               0.000000000               0.000359505               0.001347650               0.000060158              -0.000033642               0.000460426               0.000426784               0.000000000               0.000000000               0.000000000               0.000000000               0.000376566               0.001456339               0.000048471              -0.000040830               0.000499051               0.000458221               0.000000000               0.000000000               0.000000000               0.000000000               0.000393094               0.001554453               0.000037304              -0.000046896               0.000533778               0.000486882               0.000000000               0.000000000               0.000000000               0.000000000               0.000410130               0.001651693               0.000029249              -0.000052663               0.000568113               0.000515450               0.000000000               0.000000000               0.000000000               0.000000000               0.000427463               0.001746801               0.000023024              -0.000058051               0.000601612               0.000543560               0.000000000               0.000000000               0.000000000               0.000000000               0.000443006               0.001833283               0.000015063              -0.000063033               0.000632099               0.000569066               0.000000000               0.000000000               0.000000000               0.000000000               0.000454618               0.001905083               0.000006847              -0.000067654               0.000657572               0.000589919               0.000000000               0.000000000               0.000000000               0.000000000               0.000456856               0.001934413               0.000002504              -0.000070481               0.000668291               0.000597811               0.000000000               0.000000000               0.000000000               0.000000000               0.000111254               0.000075702               0.000033536               0.000032257               0.000014482               0.000046739               0.000000000               0.000000000               0.000000000               0.000000000               0.000216103               0.000179801               0.000052359               0.000058563               0.000040412               0.000098975               0.000000000               0.000000000               0.000000000               0.000000000               0.000294523               0.000351890               0.000067978               0.000066459               0.000095142               0.000161602               0.000000000               0.000000000               0.000000000               0.000000000               0.000327103               0.000522094               0.000068667               0.000057401               0.000154896               0.000212297               0.000000000               0.000000000               0.000000000               0.000000000               0.000341757               0.000677681               0.000064986               0.000043448               0.000211408               0.000254857               0.000000000               0.000000000               0.000000000               0.000000000               0.000351548               0.000823009               0.000059957               0.000028954               0.000264682               0.000293636               0.000000000               0.000000000               0.000000000               0.000000000               0.000356825               0.000957206               0.000052362               0.000014158               0.000314346               0.000328504               0.000000000               0.000000000               0.000000000               0.000000000               0.000361746               0.001079983               0.000045453               0.000000657               0.000359772               0.000360429               0.000000000               0.000000000               0.000000000               0.000000000               0.000370930               0.001204063               0.000040679              -0.000011409               0.000405154               0.000393744               0.000000000               0.000000000               0.000000000               0.000000000               0.000383252               0.001326613               0.000035195              -0.000022107               0.000449569               0.000427462               0.000000000               0.000000000               0.000000000               0.000000000               0.000395424               0.001433787               0.000027398              -0.000030939               0.000488237               0.000457298               0.000000000               0.000000000               0.000000000               0.000000000               0.000411124               0.001534714               0.000020172              -0.000037668               0.000524122               0.000486454               0.000000000               0.000000000               0.000000000               0.000000000               0.000432361               0.001639521               0.000015977              -0.000042805               0.000560770               0.000517965               0.000000000               0.000000000               0.000000000               0.000000000               0.000454259               0.001739613               0.000012786              -0.000047104               0.000595567               0.000548462               0.000000000               0.000000000               0.000000000               0.000000000               0.000474615               0.001828149               0.000007886              -0.000050538               0.000626223               0.000575685               0.000000000               0.000000000               0.000000000               0.000000000               0.000493301               0.001901445               0.000003272              -0.000052692               0.000651373               0.000598680               0.000000000               0.000000000               0.000000000               0.000000000               0.000500977               0.001932187               0.000001351              -0.000053657               0.000661942               0.000608285               0.000000000               0.000000000               0.000000000               0.000000000               0.000000000               0.000000000               0.000000000               0.000000000               0.000000000               0.000000000               0.000000000               0.000000000               0.000000000               0.000000000               0.000000000               0.000000000               0.000000000               0.000000000               0.000000000               0.000000000               0.000000000               0.000000000               0.000000000               0.000000000               0.000000000               0.000000000               0.000000000               0.000000000               0.000000000               0.000000000               0.000000000               0.000000000               0.000000000               0.000000000               0.000000000               0.000000000               0.000000000               0.000000000               0.000000000               0.000000000               0.000000000               0.000000000               0.000000000               0.000000000               0.000000000               0.000000000               0.000000000               0.000000000               0.000000000               0.000000000               0.000000000               0.000000000               0.000000000               0.000000000               0.000000000               0.000000000               0.000000000               0.000000000               0.000000000               0.000000000               0.000000000               0.000000000               0.000000000               0.000000000               0.000000000               0.000000000               0.000000000               0.000000000               0.000000000               0.000000000               0.000000000               0.000000000               0.000000000               0.000000000               0.000000000               0.000000000               0.000000000               0.000000000               0.000000000               0.000000000               0.000000000               0.000000000               0.000000000               0.000000000               0.000000000               0.000000000               0.000000000               0.000000000               0.000000000               0.000000000               0.000000000               0.000000000               0.000000000               0.000000000               0.000000000               0.000000000               0.000000000               0.000000000               0.000000000               0.000000000               0.000000000               0.000000000               0.000000000               0.000000000               0.000000000               0.000000000               0.000000000               0.000000000               0.000000000               0.000000000               0.000000000               0.000000000               0.000000000               0.000000000               0.000000000               0.000000000               0.000000000               0.000000000               0.000000000               0.000000000               0.000000000               0.000000000               0.000000000               0.000000000               0.000000000               0.000000000               0.000000000               0.000000000               0.000000000               0.000000000               0.000000000               0.000000000               0.000000000               0.000000000               0.000000000               0.000000000               0.000000000               0.000000000               0.000000000               0.000000000               0.000000000               0.000000000               0.000000000               0.000000000               0.000000000               0.000000000               0.000000000               0.000000000               0.000000000               0.000000000               0.000000000               0.000000000               0.000000000               0.000000000               0.000000000               0.000000000               0.000000000               0.000000000               0.000000000               0.000000000               0.000000000               0.000000000               0.000000000               0.000000000               0.000000000               0.000000000               0.000000000               0.000000000               0.000000000               0.000000000               0.000000000               0.000000000               0.000000000               0.000000000 </DataArray>
</PointData>
</Piece>
</UnstructuredGrid> </VTKFile>
