<?xml version="1.0"?>
<VTKFile type="UnstructuredGrid" version="0.1">
<UnstructuredGrid>
<Piece NumberOfPoints="      1156" NumberOfCells="      1024">
<Points>
<DataArray type="Float64"                                    Name="coordinates"                                                      NumberOfComponents=" 3" format="ascii">
              0.133000000               0.000000000               0.000000000               0.155937500               0.000000000               0.000000000               0.178875000               0.000000000               0.000000000               0.201812500               0.000000000               0.000000000               0.224750000               0.000000000               0.000000000               0.247687500               0.000000000               0.000000000               0.270625000               0.000000000               0.000000000               0.293562500               0.000000000               0.000000000               0.316500000               0.000000000               0.000000000               0.339437500               0.000000000               0.000000000               0.362375000               0.000000000               0.000000000               0.385312500               0.000000000               0.000000000               0.408250000               0.000000000               0.000000000               0.431187500               0.000000000               0.000000000               0.454125000               0.000000000               0.000000000               0.477062500               0.000000000               0.000000000               0.500000000               0.000000000               0.000000000               0.132359569               0.013036280               0.000000000               0.155337096               0.016127762               0.000000000               0.178314623               0.019219245               0.000000000               0.201292150               0.022310727               0.000000000               0.224269676               0.025402210               0.000000000               0.247247203               0.028493692               0.000000000               0.270224730               0.031585175               0.000000000               0.293202257               0.034676657               0.000000000               0.316179784               0.037768140               0.000000000               0.339157311               0.040859622               0.000000000               0.362134838               0.043951105               0.000000000               0.385112365               0.047042587               0.000000000               0.408089892               0.050134070               0.000000000               0.431067419               0.053225552               0.000000000               0.454044946               0.056317035               0.000000000               0.477022473               0.059408517               0.000000000               0.500000000               0.062500000               0.000000000               0.130444442               0.025947013               0.000000000               0.153541665               0.032137825               0.000000000               0.176638887               0.038328636               0.000000000               0.199736109               0.044519448               0.000000000               0.222833332               0.050710260               0.000000000               0.245930554               0.056901071               0.000000000               0.269027776               0.063091883               0.000000000               0.292124999               0.069282695               0.000000000               0.315222221               0.075473506               0.000000000               0.338319444               0.081664318               0.000000000               0.361416666               0.087855130               0.000000000               0.384513888               0.094045942               0.000000000               0.407611111               0.100236753               0.000000000               0.430708333               0.106427565               0.000000000               0.453805555               0.112618377               0.000000000               0.476902778               0.118809188               0.000000000               0.500000000               0.125000000               0.000000000               0.127273065               0.038607862               0.000000000               0.150568498               0.047913621               0.000000000               0.173863932               0.057219379               0.000000000               0.197159365               0.066525138               0.000000000               0.220454798               0.075830897               0.000000000               0.243750232               0.085136655               0.000000000               0.267045665               0.094442414               0.000000000               0.290341099               0.103748172               0.000000000               0.313636532               0.113053931               0.000000000               0.336931966               0.122359690               0.000000000               0.360227399               0.131665448               0.000000000               0.383522833               0.140971207               0.000000000               0.406818266               0.150276966               0.000000000               0.430113700               0.159582724               0.000000000               0.453409133               0.168888483               0.000000000               0.476704567               0.178194241               0.000000000               0.500000000               0.187500000               0.000000000               0.122875978               0.050896897               0.000000000               0.146446229               0.063340840               0.000000000               0.170016481               0.075784784               0.000000000               0.193586732               0.088228728               0.000000000               0.217156983               0.100672672               0.000000000               0.240727235               0.113116616               0.000000000               0.264297486               0.125560560               0.000000000               0.287867738               0.138004504               0.000000000               0.311437989               0.150448448               0.000000000               0.335008240               0.162892392               0.000000000               0.358578492               0.175336336               0.000000000               0.382148743               0.187780280               0.000000000               0.405718994               0.200224224               0.000000000               0.429289246               0.212668168               0.000000000               0.452859497               0.225112112               0.000000000               0.476429749               0.237556056               0.000000000               0.500000000               0.250000000               0.000000000               0.117295528               0.062695766               0.000000000               0.141214558               0.078308531               0.000000000               0.165133587               0.093921295               0.000000000               0.189052617               0.109534060               0.000000000               0.212971646               0.125146824               0.000000000               0.236890676               0.140759589               0.000000000               0.260809705               0.156372354               0.000000000               0.284728735               0.171985118               0.000000000               0.308647764               0.187597883               0.000000000               0.332566794               0.203210648               0.000000000               0.356485823               0.218823412               0.000000000               0.380404853               0.234436177               0.000000000               0.404323882               0.250048941               0.000000000               0.428242912               0.265661706               0.000000000               0.452161941               0.281274471               0.000000000               0.476080971               0.296887235               0.000000000               0.500000000               0.312500000               0.000000000               0.110585458               0.073890841               0.000000000               0.134923867               0.092710163               0.000000000               0.159262276               0.111529486               0.000000000               0.183600685               0.130348808               0.000000000               0.207939094               0.149168131               0.000000000               0.232277503               0.167987453               0.000000000               0.256615912               0.186806776               0.000000000               0.280954320               0.205626098               0.000000000               0.305292729               0.224445420               0.000000000               0.329631138               0.243264743               0.000000000               0.353969547               0.262084065               0.000000000               0.378307956               0.280903388               0.000000000               0.402646365               0.299722710               0.000000000               0.426984773               0.318542033               0.000000000               0.451323182               0.337361355               0.000000000               0.475661591               0.356180678               0.000000000               0.500000000               0.375000000               0.000000000               0.102810390               0.084374307               0.000000000               0.127634741               0.106444663               0.000000000               0.152459092               0.128515018               0.000000000               0.177283442               0.150585374               0.000000000               0.202107793               0.172655730               0.000000000               0.226932143               0.194726086               0.000000000               0.251756494               0.216796442               0.000000000               0.276580845               0.238866798               0.000000000               0.301405195               0.260937153               0.000000000               0.326229546               0.283007509               0.000000000               0.351053896               0.305077865               0.000000000               0.375878247               0.327148221               0.000000000               0.400702598               0.349218577               0.000000000               0.425526948               0.371288933               0.000000000               0.450351299               0.393359288               0.000000000               0.475175649               0.415429644               0.000000000               0.500000000               0.437500000               0.000000000               0.094045202               0.094045202               0.000000000               0.119417377               0.119417377               0.000000000               0.144789552               0.144789552               0.000000000               0.170161727               0.170161727               0.000000000               0.195533901               0.195533901               0.000000000               0.220906076               0.220906076               0.000000000               0.246278251               0.246278251               0.000000000               0.271650426               0.271650426               0.000000000               0.297022601               0.297022601               0.000000000               0.322394776               0.322394776               0.000000000               0.347766951               0.347766951               0.000000000               0.373139126               0.373139126               0.000000000               0.398511300               0.398511300               0.000000000               0.423883475               0.423883475               0.000000000               0.449255650               0.449255650               0.000000000               0.474627825               0.474627825               0.000000000               0.500000000               0.500000000               0.000000000               0.084374307               0.102810390               0.000000000               0.106444663               0.127634741               0.000000000               0.128515018               0.152459092               0.000000000               0.150585374               0.177283442               0.000000000               0.172655730               0.202107793               0.000000000               0.194726086               0.226932143               0.000000000               0.216796442               0.251756494               0.000000000               0.238866798               0.276580845               0.000000000               0.260937153               0.301405195               0.000000000               0.283007509               0.326229546               0.000000000               0.305077865               0.351053896               0.000000000               0.327148221               0.375878247               0.000000000               0.349218577               0.400702598               0.000000000               0.371288933               0.425526948               0.000000000               0.393359288               0.450351299               0.000000000               0.415429644               0.475175649               0.000000000               0.437500000               0.500000000               0.000000000               0.073890841               0.110585458               0.000000000               0.092710163               0.134923867               0.000000000               0.111529486               0.159262276               0.000000000               0.130348808               0.183600685               0.000000000               0.149168131               0.207939094               0.000000000               0.167987453               0.232277503               0.000000000               0.186806776               0.256615912               0.000000000               0.205626098               0.280954320               0.000000000               0.224445420               0.305292729               0.000000000               0.243264743               0.329631138               0.000000000               0.262084065               0.353969547               0.000000000               0.280903388               0.378307956               0.000000000               0.299722710               0.402646365               0.000000000               0.318542033               0.426984773               0.000000000               0.337361355               0.451323182               0.000000000               0.356180678               0.475661591               0.000000000               0.375000000               0.500000000               0.000000000               0.062695766               0.117295528               0.000000000               0.078308531               0.141214558               0.000000000               0.093921295               0.165133587               0.000000000               0.109534060               0.189052617               0.000000000               0.125146824               0.212971646               0.000000000               0.140759589               0.236890676               0.000000000               0.156372354               0.260809705               0.000000000               0.171985118               0.284728735               0.000000000               0.187597883               0.308647764               0.000000000               0.203210648               0.332566794               0.000000000               0.218823412               0.356485823               0.000000000               0.234436177               0.380404853               0.000000000               0.250048941               0.404323882               0.000000000               0.265661706               0.428242912               0.000000000               0.281274471               0.452161941               0.000000000               0.296887235               0.476080971               0.000000000               0.312500000               0.500000000               0.000000000               0.050896897               0.122875978               0.000000000               0.063340840               0.146446229               0.000000000               0.075784784               0.170016481               0.000000000               0.088228728               0.193586732               0.000000000               0.100672672               0.217156983               0.000000000               0.113116616               0.240727235               0.000000000               0.125560560               0.264297486               0.000000000               0.138004504               0.287867738               0.000000000               0.150448448               0.311437989               0.000000000               0.162892392               0.335008240               0.000000000               0.175336336               0.358578492               0.000000000               0.187780280               0.382148743               0.000000000               0.200224224               0.405718994               0.000000000               0.212668168               0.429289246               0.000000000               0.225112112               0.452859497               0.000000000               0.237556056               0.476429749               0.000000000               0.250000000               0.500000000               0.000000000               0.038607862               0.127273065               0.000000000               0.047913621               0.150568498               0.000000000               0.057219379               0.173863932               0.000000000               0.066525138               0.197159365               0.000000000               0.075830897               0.220454798               0.000000000               0.085136655               0.243750232               0.000000000               0.094442414               0.267045665               0.000000000               0.103748172               0.290341099               0.000000000               0.113053931               0.313636532               0.000000000               0.122359690               0.336931966               0.000000000               0.131665448               0.360227399               0.000000000               0.140971207               0.383522833               0.000000000               0.150276966               0.406818266               0.000000000               0.159582724               0.430113700               0.000000000               0.168888483               0.453409133               0.000000000               0.178194241               0.476704567               0.000000000               0.187500000               0.500000000               0.000000000               0.025947013               0.130444442               0.000000000               0.032137825               0.153541665               0.000000000               0.038328636               0.176638887               0.000000000               0.044519448               0.199736109               0.000000000               0.050710260               0.222833332               0.000000000               0.056901071               0.245930554               0.000000000               0.063091883               0.269027776               0.000000000               0.069282695               0.292124999               0.000000000               0.075473506               0.315222221               0.000000000               0.081664318               0.338319444               0.000000000               0.087855130               0.361416666               0.000000000               0.094045942               0.384513888               0.000000000               0.100236753               0.407611111               0.000000000               0.106427565               0.430708333               0.000000000               0.112618377               0.453805555               0.000000000               0.118809188               0.476902778               0.000000000               0.125000000               0.500000000               0.000000000               0.013036280               0.132359569               0.000000000               0.016127762               0.155337096               0.000000000               0.019219245               0.178314623               0.000000000               0.022310727               0.201292150               0.000000000               0.025402210               0.224269676               0.000000000               0.028493692               0.247247203               0.000000000               0.031585175               0.270224730               0.000000000               0.034676657               0.293202257               0.000000000               0.037768140               0.316179784               0.000000000               0.040859622               0.339157311               0.000000000               0.043951105               0.362134838               0.000000000               0.047042587               0.385112365               0.000000000               0.050134070               0.408089892               0.000000000               0.053225552               0.431067419               0.000000000               0.056317035               0.454044946               0.000000000               0.059408517               0.477022473               0.000000000               0.062500000               0.500000000               0.000000000               0.000000000               0.133000000               0.000000000               0.000000000               0.155937500               0.000000000               0.000000000               0.178875000               0.000000000               0.000000000               0.201812500               0.000000000               0.000000000               0.224750000               0.000000000               0.000000000               0.247687500               0.000000000               0.000000000               0.270625000               0.000000000               0.000000000               0.293562500               0.000000000               0.000000000               0.316500000               0.000000000               0.000000000               0.339437500               0.000000000               0.000000000               0.362375000               0.000000000               0.000000000               0.385312500               0.000000000               0.000000000               0.408250000               0.000000000               0.000000000               0.431187500               0.000000000               0.000000000               0.454125000               0.000000000               0.000000000               0.477062500               0.000000000               0.000000000               0.500000000               0.000000000               0.133000000               0.000000000               0.000000000               0.155937500               0.000000000               0.000000000               0.178875000               0.000000000               0.000000000               0.201812500               0.000000000               0.000000000               0.224750000               0.000000000               0.000000000               0.247687500               0.000000000               0.000000000               0.270625000               0.000000000               0.000000000               0.293562500               0.000000000               0.000000000               0.316500000               0.000000000               0.000000000               0.339437500               0.000000000               0.000000000               0.362375000               0.000000000               0.000000000               0.385312500               0.000000000               0.000000000               0.408250000               0.000000000               0.000000000               0.431187500               0.000000000               0.000000000               0.454125000               0.000000000               0.000000000               0.477062500               0.000000000               0.000000000               0.500000000               0.000000000               0.000000000               0.132359569              -0.013036280               0.000000000               0.155337096              -0.016127762               0.000000000               0.178314623              -0.019219245               0.000000000               0.201292150              -0.022310727               0.000000000               0.224269676              -0.025402210               0.000000000               0.247247203              -0.028493692               0.000000000               0.270224730              -0.031585175               0.000000000               0.293202257              -0.034676657               0.000000000               0.316179784              -0.037768140               0.000000000               0.339157311              -0.040859622               0.000000000               0.362134838              -0.043951105               0.000000000               0.385112365              -0.047042587               0.000000000               0.408089892              -0.050134070               0.000000000               0.431067419              -0.053225552               0.000000000               0.454044946              -0.056317035               0.000000000               0.477022473              -0.059408517               0.000000000               0.500000000              -0.062500000               0.000000000               0.130444442              -0.025947013               0.000000000               0.153541665              -0.032137825               0.000000000               0.176638887              -0.038328636               0.000000000               0.199736109              -0.044519448               0.000000000               0.222833332              -0.050710260               0.000000000               0.245930554              -0.056901071               0.000000000               0.269027776              -0.063091883               0.000000000               0.292124999              -0.069282695               0.000000000               0.315222221              -0.075473506               0.000000000               0.338319444              -0.081664318               0.000000000               0.361416666              -0.087855130               0.000000000               0.384513888              -0.094045942               0.000000000               0.407611111              -0.100236753               0.000000000               0.430708333              -0.106427565               0.000000000               0.453805555              -0.112618377               0.000000000               0.476902778              -0.118809188               0.000000000               0.500000000              -0.125000000               0.000000000               0.127273065              -0.038607862               0.000000000               0.150568498              -0.047913621               0.000000000               0.173863932              -0.057219379               0.000000000               0.197159365              -0.066525138               0.000000000               0.220454798              -0.075830897               0.000000000               0.243750232              -0.085136655               0.000000000               0.267045665              -0.094442414               0.000000000               0.290341099              -0.103748172               0.000000000               0.313636532              -0.113053931               0.000000000               0.336931966              -0.122359690               0.000000000               0.360227399              -0.131665448               0.000000000               0.383522833              -0.140971207               0.000000000               0.406818266              -0.150276966               0.000000000               0.430113700              -0.159582724               0.000000000               0.453409133              -0.168888483               0.000000000               0.476704567              -0.178194241               0.000000000               0.500000000              -0.187500000               0.000000000               0.122875978              -0.050896897               0.000000000               0.146446229              -0.063340840               0.000000000               0.170016481              -0.075784784               0.000000000               0.193586732              -0.088228728               0.000000000               0.217156983              -0.100672672               0.000000000               0.240727235              -0.113116616               0.000000000               0.264297486              -0.125560560               0.000000000               0.287867738              -0.138004504               0.000000000               0.311437989              -0.150448448               0.000000000               0.335008240              -0.162892392               0.000000000               0.358578492              -0.175336336               0.000000000               0.382148743              -0.187780280               0.000000000               0.405718994              -0.200224224               0.000000000               0.429289246              -0.212668168               0.000000000               0.452859497              -0.225112112               0.000000000               0.476429749              -0.237556056               0.000000000               0.500000000              -0.250000000               0.000000000               0.117295528              -0.062695766               0.000000000               0.141214558              -0.078308531               0.000000000               0.165133587              -0.093921295               0.000000000               0.189052617              -0.109534060               0.000000000               0.212971646              -0.125146824               0.000000000               0.236890676              -0.140759589               0.000000000               0.260809705              -0.156372354               0.000000000               0.284728735              -0.171985118               0.000000000               0.308647764              -0.187597883               0.000000000               0.332566794              -0.203210648               0.000000000               0.356485823              -0.218823412               0.000000000               0.380404853              -0.234436177               0.000000000               0.404323882              -0.250048941               0.000000000               0.428242912              -0.265661706               0.000000000               0.452161941              -0.281274471               0.000000000               0.476080971              -0.296887235               0.000000000               0.500000000              -0.312500000               0.000000000               0.110585458              -0.073890841               0.000000000               0.134923867              -0.092710163               0.000000000               0.159262276              -0.111529486               0.000000000               0.183600685              -0.130348808               0.000000000               0.207939094              -0.149168131               0.000000000               0.232277503              -0.167987453               0.000000000               0.256615912              -0.186806776               0.000000000               0.280954320              -0.205626098               0.000000000               0.305292729              -0.224445420               0.000000000               0.329631138              -0.243264743               0.000000000               0.353969547              -0.262084065               0.000000000               0.378307956              -0.280903388               0.000000000               0.402646365              -0.299722710               0.000000000               0.426984773              -0.318542033               0.000000000               0.451323182              -0.337361355               0.000000000               0.475661591              -0.356180678               0.000000000               0.500000000              -0.375000000               0.000000000               0.102810390              -0.084374307               0.000000000               0.127634741              -0.106444663               0.000000000               0.152459092              -0.128515018               0.000000000               0.177283442              -0.150585374               0.000000000               0.202107793              -0.172655730               0.000000000               0.226932143              -0.194726086               0.000000000               0.251756494              -0.216796442               0.000000000               0.276580845              -0.238866798               0.000000000               0.301405195              -0.260937153               0.000000000               0.326229546              -0.283007509               0.000000000               0.351053896              -0.305077865               0.000000000               0.375878247              -0.327148221               0.000000000               0.400702598              -0.349218577               0.000000000               0.425526948              -0.371288933               0.000000000               0.450351299              -0.393359288               0.000000000               0.475175649              -0.415429644               0.000000000               0.500000000              -0.437500000               0.000000000               0.094045202              -0.094045202               0.000000000               0.119417377              -0.119417377               0.000000000               0.144789552              -0.144789552               0.000000000               0.170161727              -0.170161727               0.000000000               0.195533901              -0.195533901               0.000000000               0.220906076              -0.220906076               0.000000000               0.246278251              -0.246278251               0.000000000               0.271650426              -0.271650426               0.000000000               0.297022601              -0.297022601               0.000000000               0.322394776              -0.322394776               0.000000000               0.347766951              -0.347766951               0.000000000               0.373139126              -0.373139126               0.000000000               0.398511300              -0.398511300               0.000000000               0.423883475              -0.423883475               0.000000000               0.449255650              -0.449255650               0.000000000               0.474627825              -0.474627825               0.000000000               0.500000000              -0.500000000               0.000000000               0.084374307              -0.102810390               0.000000000               0.106444663              -0.127634741               0.000000000               0.128515018              -0.152459092               0.000000000               0.150585374              -0.177283442               0.000000000               0.172655730              -0.202107793               0.000000000               0.194726086              -0.226932143               0.000000000               0.216796442              -0.251756494               0.000000000               0.238866798              -0.276580845               0.000000000               0.260937153              -0.301405195               0.000000000               0.283007509              -0.326229546               0.000000000               0.305077865              -0.351053896               0.000000000               0.327148221              -0.375878247               0.000000000               0.349218577              -0.400702598               0.000000000               0.371288933              -0.425526948               0.000000000               0.393359288              -0.450351299               0.000000000               0.415429644              -0.475175649               0.000000000               0.437500000              -0.500000000               0.000000000               0.073890841              -0.110585458               0.000000000               0.092710163              -0.134923867               0.000000000               0.111529486              -0.159262276               0.000000000               0.130348808              -0.183600685               0.000000000               0.149168131              -0.207939094               0.000000000               0.167987453              -0.232277503               0.000000000               0.186806776              -0.256615912               0.000000000               0.205626098              -0.280954320               0.000000000               0.224445420              -0.305292729               0.000000000               0.243264743              -0.329631138               0.000000000               0.262084065              -0.353969547               0.000000000               0.280903388              -0.378307956               0.000000000               0.299722710              -0.402646365               0.000000000               0.318542033              -0.426984773               0.000000000               0.337361355              -0.451323182               0.000000000               0.356180678              -0.475661591               0.000000000               0.375000000              -0.500000000               0.000000000               0.062695766              -0.117295528               0.000000000               0.078308531              -0.141214558               0.000000000               0.093921295              -0.165133587               0.000000000               0.109534060              -0.189052617               0.000000000               0.125146824              -0.212971646               0.000000000               0.140759589              -0.236890676               0.000000000               0.156372354              -0.260809705               0.000000000               0.171985118              -0.284728735               0.000000000               0.187597883              -0.308647764               0.000000000               0.203210648              -0.332566794               0.000000000               0.218823412              -0.356485823               0.000000000               0.234436177              -0.380404853               0.000000000               0.250048941              -0.404323882               0.000000000               0.265661706              -0.428242912               0.000000000               0.281274471              -0.452161941               0.000000000               0.296887235              -0.476080971               0.000000000               0.312500000              -0.500000000               0.000000000               0.050896897              -0.122875978               0.000000000               0.063340840              -0.146446229               0.000000000               0.075784784              -0.170016481               0.000000000               0.088228728              -0.193586732               0.000000000               0.100672672              -0.217156983               0.000000000               0.113116616              -0.240727235               0.000000000               0.125560560              -0.264297486               0.000000000               0.138004504              -0.287867738               0.000000000               0.150448448              -0.311437989               0.000000000               0.162892392              -0.335008240               0.000000000               0.175336336              -0.358578492               0.000000000               0.187780280              -0.382148743               0.000000000               0.200224224              -0.405718994               0.000000000               0.212668168              -0.429289246               0.000000000               0.225112112              -0.452859497               0.000000000               0.237556056              -0.476429749               0.000000000               0.250000000              -0.500000000               0.000000000               0.038607862              -0.127273065               0.000000000               0.047913621              -0.150568498               0.000000000               0.057219379              -0.173863932               0.000000000               0.066525138              -0.197159365               0.000000000               0.075830897              -0.220454798               0.000000000               0.085136655              -0.243750232               0.000000000               0.094442414              -0.267045665               0.000000000               0.103748172              -0.290341099               0.000000000               0.113053931              -0.313636532               0.000000000               0.122359690              -0.336931966               0.000000000               0.131665448              -0.360227399               0.000000000               0.140971207              -0.383522833               0.000000000               0.150276966              -0.406818266               0.000000000               0.159582724              -0.430113700               0.000000000               0.168888483              -0.453409133               0.000000000               0.178194241              -0.476704567               0.000000000               0.187500000              -0.500000000               0.000000000               0.025947013              -0.130444442               0.000000000               0.032137825              -0.153541665               0.000000000               0.038328636              -0.176638887               0.000000000               0.044519448              -0.199736109               0.000000000               0.050710260              -0.222833332               0.000000000               0.056901071              -0.245930554               0.000000000               0.063091883              -0.269027776               0.000000000               0.069282695              -0.292124999               0.000000000               0.075473506              -0.315222221               0.000000000               0.081664318              -0.338319444               0.000000000               0.087855130              -0.361416666               0.000000000               0.094045942              -0.384513888               0.000000000               0.100236753              -0.407611111               0.000000000               0.106427565              -0.430708333               0.000000000               0.112618377              -0.453805555               0.000000000               0.118809188              -0.476902778               0.000000000               0.125000000              -0.500000000               0.000000000               0.013036280              -0.132359569               0.000000000               0.016127762              -0.155337096               0.000000000               0.019219245              -0.178314623               0.000000000               0.022310727              -0.201292150               0.000000000               0.025402210              -0.224269676               0.000000000               0.028493692              -0.247247203               0.000000000               0.031585175              -0.270224730               0.000000000               0.034676657              -0.293202257               0.000000000               0.037768140              -0.316179784               0.000000000               0.040859622              -0.339157311               0.000000000               0.043951105              -0.362134838               0.000000000               0.047042587              -0.385112365               0.000000000               0.050134070              -0.408089892               0.000000000               0.053225552              -0.431067419               0.000000000               0.056317035              -0.454044946               0.000000000               0.059408517              -0.477022473               0.000000000               0.062500000              -0.500000000               0.000000000               0.000000000              -0.133000000               0.000000000               0.000000000              -0.155937500               0.000000000               0.000000000              -0.178875000               0.000000000               0.000000000              -0.201812500               0.000000000               0.000000000              -0.224750000               0.000000000               0.000000000              -0.247687500               0.000000000               0.000000000              -0.270625000               0.000000000               0.000000000              -0.293562500               0.000000000               0.000000000              -0.316500000               0.000000000               0.000000000              -0.339437500               0.000000000               0.000000000              -0.362375000               0.000000000               0.000000000              -0.385312500               0.000000000               0.000000000              -0.408250000               0.000000000               0.000000000              -0.431187500               0.000000000               0.000000000              -0.454125000               0.000000000               0.000000000              -0.477062500               0.000000000               0.000000000              -0.500000000               0.000000000              -0.133000000               0.000000000               0.000000000              -0.155937500               0.000000000               0.000000000              -0.178875000               0.000000000               0.000000000              -0.201812500               0.000000000               0.000000000              -0.224750000               0.000000000               0.000000000              -0.247687500               0.000000000               0.000000000              -0.270625000               0.000000000               0.000000000              -0.293562500               0.000000000               0.000000000              -0.316500000               0.000000000               0.000000000              -0.339437500               0.000000000               0.000000000              -0.362375000               0.000000000               0.000000000              -0.385312500               0.000000000               0.000000000              -0.408250000               0.000000000               0.000000000              -0.431187500               0.000000000               0.000000000              -0.454125000               0.000000000               0.000000000              -0.477062500               0.000000000               0.000000000              -0.500000000               0.000000000               0.000000000              -0.132359569              -0.013036280               0.000000000              -0.155337096              -0.016127762               0.000000000              -0.178314623              -0.019219245               0.000000000              -0.201292150              -0.022310727               0.000000000              -0.224269676              -0.025402210               0.000000000              -0.247247203              -0.028493692               0.000000000              -0.270224730              -0.031585175               0.000000000              -0.293202257              -0.034676657               0.000000000              -0.316179784              -0.037768140               0.000000000              -0.339157311              -0.040859622               0.000000000              -0.362134838              -0.043951105               0.000000000              -0.385112365              -0.047042587               0.000000000              -0.408089892              -0.050134070               0.000000000              -0.431067419              -0.053225552               0.000000000              -0.454044946              -0.056317035               0.000000000              -0.477022473              -0.059408517               0.000000000              -0.500000000              -0.062500000               0.000000000              -0.130444442              -0.025947013               0.000000000              -0.153541665              -0.032137825               0.000000000              -0.176638887              -0.038328636               0.000000000              -0.199736109              -0.044519448               0.000000000              -0.222833332              -0.050710260               0.000000000              -0.245930554              -0.056901071               0.000000000              -0.269027776              -0.063091883               0.000000000              -0.292124999              -0.069282695               0.000000000              -0.315222221              -0.075473506               0.000000000              -0.338319444              -0.081664318               0.000000000              -0.361416666              -0.087855130               0.000000000              -0.384513888              -0.094045942               0.000000000              -0.407611111              -0.100236753               0.000000000              -0.430708333              -0.106427565               0.000000000              -0.453805555              -0.112618377               0.000000000              -0.476902778              -0.118809188               0.000000000              -0.500000000              -0.125000000               0.000000000              -0.127273065              -0.038607862               0.000000000              -0.150568498              -0.047913621               0.000000000              -0.173863932              -0.057219379               0.000000000              -0.197159365              -0.066525138               0.000000000              -0.220454798              -0.075830897               0.000000000              -0.243750232              -0.085136655               0.000000000              -0.267045665              -0.094442414               0.000000000              -0.290341099              -0.103748172               0.000000000              -0.313636532              -0.113053931               0.000000000              -0.336931966              -0.122359690               0.000000000              -0.360227399              -0.131665448               0.000000000              -0.383522833              -0.140971207               0.000000000              -0.406818266              -0.150276966               0.000000000              -0.430113700              -0.159582724               0.000000000              -0.453409133              -0.168888483               0.000000000              -0.476704567              -0.178194241               0.000000000              -0.500000000              -0.187500000               0.000000000              -0.122875978              -0.050896897               0.000000000              -0.146446229              -0.063340840               0.000000000              -0.170016481              -0.075784784               0.000000000              -0.193586732              -0.088228728               0.000000000              -0.217156983              -0.100672672               0.000000000              -0.240727235              -0.113116616               0.000000000              -0.264297486              -0.125560560               0.000000000              -0.287867738              -0.138004504               0.000000000              -0.311437989              -0.150448448               0.000000000              -0.335008240              -0.162892392               0.000000000              -0.358578492              -0.175336336               0.000000000              -0.382148743              -0.187780280               0.000000000              -0.405718994              -0.200224224               0.000000000              -0.429289246              -0.212668168               0.000000000              -0.452859497              -0.225112112               0.000000000              -0.476429749              -0.237556056               0.000000000              -0.500000000              -0.250000000               0.000000000              -0.117295528              -0.062695766               0.000000000              -0.141214558              -0.078308531               0.000000000              -0.165133587              -0.093921295               0.000000000              -0.189052617              -0.109534060               0.000000000              -0.212971646              -0.125146824               0.000000000              -0.236890676              -0.140759589               0.000000000              -0.260809705              -0.156372354               0.000000000              -0.284728735              -0.171985118               0.000000000              -0.308647764              -0.187597883               0.000000000              -0.332566794              -0.203210648               0.000000000              -0.356485823              -0.218823412               0.000000000              -0.380404853              -0.234436177               0.000000000              -0.404323882              -0.250048941               0.000000000              -0.428242912              -0.265661706               0.000000000              -0.452161941              -0.281274471               0.000000000              -0.476080971              -0.296887235               0.000000000              -0.500000000              -0.312500000               0.000000000              -0.110585458              -0.073890841               0.000000000              -0.134923867              -0.092710163               0.000000000              -0.159262276              -0.111529486               0.000000000              -0.183600685              -0.130348808               0.000000000              -0.207939094              -0.149168131               0.000000000              -0.232277503              -0.167987453               0.000000000              -0.256615912              -0.186806776               0.000000000              -0.280954320              -0.205626098               0.000000000              -0.305292729              -0.224445420               0.000000000              -0.329631138              -0.243264743               0.000000000              -0.353969547              -0.262084065               0.000000000              -0.378307956              -0.280903388               0.000000000              -0.402646365              -0.299722710               0.000000000              -0.426984773              -0.318542033               0.000000000              -0.451323182              -0.337361355               0.000000000              -0.475661591              -0.356180678               0.000000000              -0.500000000              -0.375000000               0.000000000              -0.102810390              -0.084374307               0.000000000              -0.127634741              -0.106444663               0.000000000              -0.152459092              -0.128515018               0.000000000              -0.177283442              -0.150585374               0.000000000              -0.202107793              -0.172655730               0.000000000              -0.226932143              -0.194726086               0.000000000              -0.251756494              -0.216796442               0.000000000              -0.276580845              -0.238866798               0.000000000              -0.301405195              -0.260937153               0.000000000              -0.326229546              -0.283007509               0.000000000              -0.351053896              -0.305077865               0.000000000              -0.375878247              -0.327148221               0.000000000              -0.400702598              -0.349218577               0.000000000              -0.425526948              -0.371288933               0.000000000              -0.450351299              -0.393359288               0.000000000              -0.475175649              -0.415429644               0.000000000              -0.500000000              -0.437500000               0.000000000              -0.094045202              -0.094045202               0.000000000              -0.119417377              -0.119417377               0.000000000              -0.144789552              -0.144789552               0.000000000              -0.170161727              -0.170161727               0.000000000              -0.195533901              -0.195533901               0.000000000              -0.220906076              -0.220906076               0.000000000              -0.246278251              -0.246278251               0.000000000              -0.271650426              -0.271650426               0.000000000              -0.297022601              -0.297022601               0.000000000              -0.322394776              -0.322394776               0.000000000              -0.347766951              -0.347766951               0.000000000              -0.373139126              -0.373139126               0.000000000              -0.398511300              -0.398511300               0.000000000              -0.423883475              -0.423883475               0.000000000              -0.449255650              -0.449255650               0.000000000              -0.474627825              -0.474627825               0.000000000              -0.500000000              -0.500000000               0.000000000              -0.084374307              -0.102810390               0.000000000              -0.106444663              -0.127634741               0.000000000              -0.128515018              -0.152459092               0.000000000              -0.150585374              -0.177283442               0.000000000              -0.172655730              -0.202107793               0.000000000              -0.194726086              -0.226932143               0.000000000              -0.216796442              -0.251756494               0.000000000              -0.238866798              -0.276580845               0.000000000              -0.260937153              -0.301405195               0.000000000              -0.283007509              -0.326229546               0.000000000              -0.305077865              -0.351053896               0.000000000              -0.327148221              -0.375878247               0.000000000              -0.349218577              -0.400702598               0.000000000              -0.371288933              -0.425526948               0.000000000              -0.393359288              -0.450351299               0.000000000              -0.415429644              -0.475175649               0.000000000              -0.437500000              -0.500000000               0.000000000              -0.073890841              -0.110585458               0.000000000              -0.092710163              -0.134923867               0.000000000              -0.111529486              -0.159262276               0.000000000              -0.130348808              -0.183600685               0.000000000              -0.149168131              -0.207939094               0.000000000              -0.167987453              -0.232277503               0.000000000              -0.186806776              -0.256615912               0.000000000              -0.205626098              -0.280954320               0.000000000              -0.224445420              -0.305292729               0.000000000              -0.243264743              -0.329631138               0.000000000              -0.262084065              -0.353969547               0.000000000              -0.280903388              -0.378307956               0.000000000              -0.299722710              -0.402646365               0.000000000              -0.318542033              -0.426984773               0.000000000              -0.337361355              -0.451323182               0.000000000              -0.356180678              -0.475661591               0.000000000              -0.375000000              -0.500000000               0.000000000              -0.062695766              -0.117295528               0.000000000              -0.078308531              -0.141214558               0.000000000              -0.093921295              -0.165133587               0.000000000              -0.109534060              -0.189052617               0.000000000              -0.125146824              -0.212971646               0.000000000              -0.140759589              -0.236890676               0.000000000              -0.156372354              -0.260809705               0.000000000              -0.171985118              -0.284728735               0.000000000              -0.187597883              -0.308647764               0.000000000              -0.203210648              -0.332566794               0.000000000              -0.218823412              -0.356485823               0.000000000              -0.234436177              -0.380404853               0.000000000              -0.250048941              -0.404323882               0.000000000              -0.265661706              -0.428242912               0.000000000              -0.281274471              -0.452161941               0.000000000              -0.296887235              -0.476080971               0.000000000              -0.312500000              -0.500000000               0.000000000              -0.050896897              -0.122875978               0.000000000              -0.063340840              -0.146446229               0.000000000              -0.075784784              -0.170016481               0.000000000              -0.088228728              -0.193586732               0.000000000              -0.100672672              -0.217156983               0.000000000              -0.113116616              -0.240727235               0.000000000              -0.125560560              -0.264297486               0.000000000              -0.138004504              -0.287867738               0.000000000              -0.150448448              -0.311437989               0.000000000              -0.162892392              -0.335008240               0.000000000              -0.175336336              -0.358578492               0.000000000              -0.187780280              -0.382148743               0.000000000              -0.200224224              -0.405718994               0.000000000              -0.212668168              -0.429289246               0.000000000              -0.225112112              -0.452859497               0.000000000              -0.237556056              -0.476429749               0.000000000              -0.250000000              -0.500000000               0.000000000              -0.038607862              -0.127273065               0.000000000              -0.047913621              -0.150568498               0.000000000              -0.057219379              -0.173863932               0.000000000              -0.066525138              -0.197159365               0.000000000              -0.075830897              -0.220454798               0.000000000              -0.085136655              -0.243750232               0.000000000              -0.094442414              -0.267045665               0.000000000              -0.103748172              -0.290341099               0.000000000              -0.113053931              -0.313636532               0.000000000              -0.122359690              -0.336931966               0.000000000              -0.131665448              -0.360227399               0.000000000              -0.140971207              -0.383522833               0.000000000              -0.150276966              -0.406818266               0.000000000              -0.159582724              -0.430113700               0.000000000              -0.168888483              -0.453409133               0.000000000              -0.178194241              -0.476704567               0.000000000              -0.187500000              -0.500000000               0.000000000              -0.025947013              -0.130444442               0.000000000              -0.032137825              -0.153541665               0.000000000              -0.038328636              -0.176638887               0.000000000              -0.044519448              -0.199736109               0.000000000              -0.050710260              -0.222833332               0.000000000              -0.056901071              -0.245930554               0.000000000              -0.063091883              -0.269027776               0.000000000              -0.069282695              -0.292124999               0.000000000              -0.075473506              -0.315222221               0.000000000              -0.081664318              -0.338319444               0.000000000              -0.087855130              -0.361416666               0.000000000              -0.094045942              -0.384513888               0.000000000              -0.100236753              -0.407611111               0.000000000              -0.106427565              -0.430708333               0.000000000              -0.112618377              -0.453805555               0.000000000              -0.118809188              -0.476902778               0.000000000              -0.125000000              -0.500000000               0.000000000              -0.013036280              -0.132359569               0.000000000              -0.016127762              -0.155337096               0.000000000              -0.019219245              -0.178314623               0.000000000              -0.022310727              -0.201292150               0.000000000              -0.025402210              -0.224269676               0.000000000              -0.028493692              -0.247247203               0.000000000              -0.031585175              -0.270224730               0.000000000              -0.034676657              -0.293202257               0.000000000              -0.037768140              -0.316179784               0.000000000              -0.040859622              -0.339157311               0.000000000              -0.043951105              -0.362134838               0.000000000              -0.047042587              -0.385112365               0.000000000              -0.050134070              -0.408089892               0.000000000              -0.053225552              -0.431067419               0.000000000              -0.056317035              -0.454044946               0.000000000              -0.059408517              -0.477022473               0.000000000              -0.062500000              -0.500000000               0.000000000               0.000000000              -0.133000000               0.000000000               0.000000000              -0.155937500               0.000000000               0.000000000              -0.178875000               0.000000000               0.000000000              -0.201812500               0.000000000               0.000000000              -0.224750000               0.000000000               0.000000000              -0.247687500               0.000000000               0.000000000              -0.270625000               0.000000000               0.000000000              -0.293562500               0.000000000               0.000000000              -0.316500000               0.000000000               0.000000000              -0.339437500               0.000000000               0.000000000              -0.362375000               0.000000000               0.000000000              -0.385312500               0.000000000               0.000000000              -0.408250000               0.000000000               0.000000000              -0.431187500               0.000000000               0.000000000              -0.454125000               0.000000000               0.000000000              -0.477062500               0.000000000               0.000000000              -0.500000000               0.000000000              -0.133000000               0.000000000               0.000000000              -0.155937500               0.000000000               0.000000000              -0.178875000               0.000000000               0.000000000              -0.201812500               0.000000000               0.000000000              -0.224750000               0.000000000               0.000000000              -0.247687500               0.000000000               0.000000000              -0.270625000               0.000000000               0.000000000              -0.293562500               0.000000000               0.000000000              -0.316500000               0.000000000               0.000000000              -0.339437500               0.000000000               0.000000000              -0.362375000               0.000000000               0.000000000              -0.385312500               0.000000000               0.000000000              -0.408250000               0.000000000               0.000000000              -0.431187500               0.000000000               0.000000000              -0.454125000               0.000000000               0.000000000              -0.477062500               0.000000000               0.000000000              -0.500000000               0.000000000               0.000000000              -0.132359569               0.013036280               0.000000000              -0.155337096               0.016127762               0.000000000              -0.178314623               0.019219245               0.000000000              -0.201292150               0.022310727               0.000000000              -0.224269676               0.025402210               0.000000000              -0.247247203               0.028493692               0.000000000              -0.270224730               0.031585175               0.000000000              -0.293202257               0.034676657               0.000000000              -0.316179784               0.037768140               0.000000000              -0.339157311               0.040859622               0.000000000              -0.362134838               0.043951105               0.000000000              -0.385112365               0.047042587               0.000000000              -0.408089892               0.050134070               0.000000000              -0.431067419               0.053225552               0.000000000              -0.454044946               0.056317035               0.000000000              -0.477022473               0.059408517               0.000000000              -0.500000000               0.062500000               0.000000000              -0.130444442               0.025947013               0.000000000              -0.153541665               0.032137825               0.000000000              -0.176638887               0.038328636               0.000000000              -0.199736109               0.044519448               0.000000000              -0.222833332               0.050710260               0.000000000              -0.245930554               0.056901071               0.000000000              -0.269027776               0.063091883               0.000000000              -0.292124999               0.069282695               0.000000000              -0.315222221               0.075473506               0.000000000              -0.338319444               0.081664318               0.000000000              -0.361416666               0.087855130               0.000000000              -0.384513888               0.094045942               0.000000000              -0.407611111               0.100236753               0.000000000              -0.430708333               0.106427565               0.000000000              -0.453805555               0.112618377               0.000000000              -0.476902778               0.118809188               0.000000000              -0.500000000               0.125000000               0.000000000              -0.127273065               0.038607862               0.000000000              -0.150568498               0.047913621               0.000000000              -0.173863932               0.057219379               0.000000000              -0.197159365               0.066525138               0.000000000              -0.220454798               0.075830897               0.000000000              -0.243750232               0.085136655               0.000000000              -0.267045665               0.094442414               0.000000000              -0.290341099               0.103748172               0.000000000              -0.313636532               0.113053931               0.000000000              -0.336931966               0.122359690               0.000000000              -0.360227399               0.131665448               0.000000000              -0.383522833               0.140971207               0.000000000              -0.406818266               0.150276966               0.000000000              -0.430113700               0.159582724               0.000000000              -0.453409133               0.168888483               0.000000000              -0.476704567               0.178194241               0.000000000              -0.500000000               0.187500000               0.000000000              -0.122875978               0.050896897               0.000000000              -0.146446229               0.063340840               0.000000000              -0.170016481               0.075784784               0.000000000              -0.193586732               0.088228728               0.000000000              -0.217156983               0.100672672               0.000000000              -0.240727235               0.113116616               0.000000000              -0.264297486               0.125560560               0.000000000              -0.287867738               0.138004504               0.000000000              -0.311437989               0.150448448               0.000000000              -0.335008240               0.162892392               0.000000000              -0.358578492               0.175336336               0.000000000              -0.382148743               0.187780280               0.000000000              -0.405718994               0.200224224               0.000000000              -0.429289246               0.212668168               0.000000000              -0.452859497               0.225112112               0.000000000              -0.476429749               0.237556056               0.000000000              -0.500000000               0.250000000               0.000000000              -0.117295528               0.062695766               0.000000000              -0.141214558               0.078308531               0.000000000              -0.165133587               0.093921295               0.000000000              -0.189052617               0.109534060               0.000000000              -0.212971646               0.125146824               0.000000000              -0.236890676               0.140759589               0.000000000              -0.260809705               0.156372354               0.000000000              -0.284728735               0.171985118               0.000000000              -0.308647764               0.187597883               0.000000000              -0.332566794               0.203210648               0.000000000              -0.356485823               0.218823412               0.000000000              -0.380404853               0.234436177               0.000000000              -0.404323882               0.250048941               0.000000000              -0.428242912               0.265661706               0.000000000              -0.452161941               0.281274471               0.000000000              -0.476080971               0.296887235               0.000000000              -0.500000000               0.312500000               0.000000000              -0.110585458               0.073890841               0.000000000              -0.134923867               0.092710163               0.000000000              -0.159262276               0.111529486               0.000000000              -0.183600685               0.130348808               0.000000000              -0.207939094               0.149168131               0.000000000              -0.232277503               0.167987453               0.000000000              -0.256615912               0.186806776               0.000000000              -0.280954320               0.205626098               0.000000000              -0.305292729               0.224445420               0.000000000              -0.329631138               0.243264743               0.000000000              -0.353969547               0.262084065               0.000000000              -0.378307956               0.280903388               0.000000000              -0.402646365               0.299722710               0.000000000              -0.426984773               0.318542033               0.000000000              -0.451323182               0.337361355               0.000000000              -0.475661591               0.356180678               0.000000000              -0.500000000               0.375000000               0.000000000              -0.102810390               0.084374307               0.000000000              -0.127634741               0.106444663               0.000000000              -0.152459092               0.128515018               0.000000000              -0.177283442               0.150585374               0.000000000              -0.202107793               0.172655730               0.000000000              -0.226932143               0.194726086               0.000000000              -0.251756494               0.216796442               0.000000000              -0.276580845               0.238866798               0.000000000              -0.301405195               0.260937153               0.000000000              -0.326229546               0.283007509               0.000000000              -0.351053896               0.305077865               0.000000000              -0.375878247               0.327148221               0.000000000              -0.400702598               0.349218577               0.000000000              -0.425526948               0.371288933               0.000000000              -0.450351299               0.393359288               0.000000000              -0.475175649               0.415429644               0.000000000              -0.500000000               0.437500000               0.000000000              -0.094045202               0.094045202               0.000000000              -0.119417377               0.119417377               0.000000000              -0.144789552               0.144789552               0.000000000              -0.170161727               0.170161727               0.000000000              -0.195533901               0.195533901               0.000000000              -0.220906076               0.220906076               0.000000000              -0.246278251               0.246278251               0.000000000              -0.271650426               0.271650426               0.000000000              -0.297022601               0.297022601               0.000000000              -0.322394776               0.322394776               0.000000000              -0.347766951               0.347766951               0.000000000              -0.373139126               0.373139126               0.000000000              -0.398511300               0.398511300               0.000000000              -0.423883475               0.423883475               0.000000000              -0.449255650               0.449255650               0.000000000              -0.474627825               0.474627825               0.000000000              -0.500000000               0.500000000               0.000000000              -0.084374307               0.102810390               0.000000000              -0.106444663               0.127634741               0.000000000              -0.128515018               0.152459092               0.000000000              -0.150585374               0.177283442               0.000000000              -0.172655730               0.202107793               0.000000000              -0.194726086               0.226932143               0.000000000              -0.216796442               0.251756494               0.000000000              -0.238866798               0.276580845               0.000000000              -0.260937153               0.301405195               0.000000000              -0.283007509               0.326229546               0.000000000              -0.305077865               0.351053896               0.000000000              -0.327148221               0.375878247               0.000000000              -0.349218577               0.400702598               0.000000000              -0.371288933               0.425526948               0.000000000              -0.393359288               0.450351299               0.000000000              -0.415429644               0.475175649               0.000000000              -0.437500000               0.500000000               0.000000000              -0.073890841               0.110585458               0.000000000              -0.092710163               0.134923867               0.000000000              -0.111529486               0.159262276               0.000000000              -0.130348808               0.183600685               0.000000000              -0.149168131               0.207939094               0.000000000              -0.167987453               0.232277503               0.000000000              -0.186806776               0.256615912               0.000000000              -0.205626098               0.280954320               0.000000000              -0.224445420               0.305292729               0.000000000              -0.243264743               0.329631138               0.000000000              -0.262084065               0.353969547               0.000000000              -0.280903388               0.378307956               0.000000000              -0.299722710               0.402646365               0.000000000              -0.318542033               0.426984773               0.000000000              -0.337361355               0.451323182               0.000000000              -0.356180678               0.475661591               0.000000000              -0.375000000               0.500000000               0.000000000              -0.062695766               0.117295528               0.000000000              -0.078308531               0.141214558               0.000000000              -0.093921295               0.165133587               0.000000000              -0.109534060               0.189052617               0.000000000              -0.125146824               0.212971646               0.000000000              -0.140759589               0.236890676               0.000000000              -0.156372354               0.260809705               0.000000000              -0.171985118               0.284728735               0.000000000              -0.187597883               0.308647764               0.000000000              -0.203210648               0.332566794               0.000000000              -0.218823412               0.356485823               0.000000000              -0.234436177               0.380404853               0.000000000              -0.250048941               0.404323882               0.000000000              -0.265661706               0.428242912               0.000000000              -0.281274471               0.452161941               0.000000000              -0.296887235               0.476080971               0.000000000              -0.312500000               0.500000000               0.000000000              -0.050896897               0.122875978               0.000000000              -0.063340840               0.146446229               0.000000000              -0.075784784               0.170016481               0.000000000              -0.088228728               0.193586732               0.000000000              -0.100672672               0.217156983               0.000000000              -0.113116616               0.240727235               0.000000000              -0.125560560               0.264297486               0.000000000              -0.138004504               0.287867738               0.000000000              -0.150448448               0.311437989               0.000000000              -0.162892392               0.335008240               0.000000000              -0.175336336               0.358578492               0.000000000              -0.187780280               0.382148743               0.000000000              -0.200224224               0.405718994               0.000000000              -0.212668168               0.429289246               0.000000000              -0.225112112               0.452859497               0.000000000              -0.237556056               0.476429749               0.000000000              -0.250000000               0.500000000               0.000000000              -0.038607862               0.127273065               0.000000000              -0.047913621               0.150568498               0.000000000              -0.057219379               0.173863932               0.000000000              -0.066525138               0.197159365               0.000000000              -0.075830897               0.220454798               0.000000000              -0.085136655               0.243750232               0.000000000              -0.094442414               0.267045665               0.000000000              -0.103748172               0.290341099               0.000000000              -0.113053931               0.313636532               0.000000000              -0.122359690               0.336931966               0.000000000              -0.131665448               0.360227399               0.000000000              -0.140971207               0.383522833               0.000000000              -0.150276966               0.406818266               0.000000000              -0.159582724               0.430113700               0.000000000              -0.168888483               0.453409133               0.000000000              -0.178194241               0.476704567               0.000000000              -0.187500000               0.500000000               0.000000000              -0.025947013               0.130444442               0.000000000              -0.032137825               0.153541665               0.000000000              -0.038328636               0.176638887               0.000000000              -0.044519448               0.199736109               0.000000000              -0.050710260               0.222833332               0.000000000              -0.056901071               0.245930554               0.000000000              -0.063091883               0.269027776               0.000000000              -0.069282695               0.292124999               0.000000000              -0.075473506               0.315222221               0.000000000              -0.081664318               0.338319444               0.000000000              -0.087855130               0.361416666               0.000000000              -0.094045942               0.384513888               0.000000000              -0.100236753               0.407611111               0.000000000              -0.106427565               0.430708333               0.000000000              -0.112618377               0.453805555               0.000000000              -0.118809188               0.476902778               0.000000000              -0.125000000               0.500000000               0.000000000              -0.013036280               0.132359569               0.000000000              -0.016127762               0.155337096               0.000000000              -0.019219245               0.178314623               0.000000000              -0.022310727               0.201292150               0.000000000              -0.025402210               0.224269676               0.000000000              -0.028493692               0.247247203               0.000000000              -0.031585175               0.270224730               0.000000000              -0.034676657               0.293202257               0.000000000              -0.037768140               0.316179784               0.000000000              -0.040859622               0.339157311               0.000000000              -0.043951105               0.362134838               0.000000000              -0.047042587               0.385112365               0.000000000              -0.050134070               0.408089892               0.000000000              -0.053225552               0.431067419               0.000000000              -0.056317035               0.454044946               0.000000000              -0.059408517               0.477022473               0.000000000              -0.062500000               0.500000000               0.000000000               0.000000000               0.133000000               0.000000000               0.000000000               0.155937500               0.000000000               0.000000000               0.178875000               0.000000000               0.000000000               0.201812500               0.000000000               0.000000000               0.224750000               0.000000000               0.000000000               0.247687500               0.000000000               0.000000000               0.270625000               0.000000000               0.000000000               0.293562500               0.000000000               0.000000000               0.316500000               0.000000000               0.000000000               0.339437500               0.000000000               0.000000000               0.362375000               0.000000000               0.000000000               0.385312500               0.000000000               0.000000000               0.408250000               0.000000000               0.000000000               0.431187500               0.000000000               0.000000000               0.454125000               0.000000000               0.000000000               0.477062500               0.000000000               0.000000000               0.500000000               0.000000000 </DataArray>
</Points>
<Cells>
<DataArray type="Int32"                                    Name="connectivity"                                                      NumberOfComponents=" 1" format="ascii">
         0          1         18         17          1          2         19         18          2          3         20         19          3          4         21         20          4          5         22         21          5          6         23         22          6          7         24         23          7          8         25         24          8          9         26         25          9         10         27         26         10         11         28         27         11         12         29         28         12         13         30         29         13         14         31         30         14         15         32         31         15         16         33         32         17         18         35         34         18         19         36         35         19         20         37         36         20         21         38         37         21         22         39         38         22         23         40         39         23         24         41         40         24         25         42         41         25         26         43         42         26         27         44         43         27         28         45         44         28         29         46         45         29         30         47         46         30         31         48         47         31         32         49         48         32         33         50         49         34         35         52         51         35         36         53         52         36         37         54         53         37         38         55         54         38         39         56         55         39         40         57         56         40         41         58         57         41         42         59         58         42         43         60         59         43         44         61         60         44         45         62         61         45         46         63         62         46         47         64         63         47         48         65         64         48         49         66         65         49         50         67         66         51         52         69         68         52         53         70         69         53         54         71         70         54         55         72         71         55         56         73         72         56         57         74         73         57         58         75         74         58         59         76         75         59         60         77         76         60         61         78         77         61         62         79         78         62         63         80         79         63         64         81         80         64         65         82         81         65         66         83         82         66         67         84         83         68         69         86         85         69         70         87         86         70         71         88         87         71         72         89         88         72         73         90         89         73         74         91         90         74         75         92         91         75         76         93         92         76         77         94         93         77         78         95         94         78         79         96         95         79         80         97         96         80         81         98         97         81         82         99         98         82         83        100         99         83         84        101        100         85         86        103        102         86         87        104        103         87         88        105        104         88         89        106        105         89         90        107        106         90         91        108        107         91         92        109        108         92         93        110        109         93         94        111        110         94         95        112        111         95         96        113        112         96         97        114        113         97         98        115        114         98         99        116        115         99        100        117        116        100        101        118        117        102        103        120        119        103        104        121        120        104        105        122        121        105        106        123        122        106        107        124        123        107        108        125        124        108        109        126        125        109        110        127        126        110        111        128        127        111        112        129        128        112        113        130        129        113        114        131        130        114        115        132        131        115        116        133        132        116        117        134        133        117        118        135        134        119        120        137        136        120        121        138        137        121        122        139        138        122        123        140        139        123        124        141        140        124        125        142        141        125        126        143        142        126        127        144        143        127        128        145        144        128        129        146        145        129        130        147        146        130        131        148        147        131        132        149        148        132        133        150        149        133        134        151        150        134        135        152        151        136        137        154        153        137        138        155        154        138        139        156        155        139        140        157        156        140        141        158        157        141        142        159        158        142        143        160        159        143        144        161        160        144        145        162        161        145        146        163        162        146        147        164        163        147        148        165        164        148        149        166        165        149        150        167        166        150        151        168        167        151        152        169        168        153        154        171        170        154        155        172        171        155        156        173        172        156        157        174        173        157        158        175        174        158        159        176        175        159        160        177        176        160        161        178        177        161        162        179        178        162        163        180        179        163        164        181        180        164        165        182        181        165        166        183        182        166        167        184        183        167        168        185        184        168        169        186        185        170        171        188        187        171        172        189        188        172        173        190        189        173        174        191        190        174        175        192        191        175        176        193        192        176        177        194        193        177        178        195        194        178        179        196        195        179        180        197        196        180        181        198        197        181        182        199        198        182        183        200        199        183        184        201        200        184        185        202        201        185        186        203        202        187        188        205        204        188        189        206        205        189        190        207        206        190        191        208        207        191        192        209        208        192        193        210        209        193        194        211        210        194        195        212        211        195        196        213        212        196        197        214        213        197        198        215        214        198        199        216        215        199        200        217        216        200        201        218        217        201        202        219        218        202        203        220        219        204        205        222        221        205        206        223        222        206        207        224        223        207        208        225        224        208        209        226        225        209        210        227        226        210        211        228        227        211        212        229        228        212        213        230        229        213        214        231        230        214        215        232        231        215        216        233        232        216        217        234        233        217        218        235        234        218        219        236        235        219        220        237        236        221        222        239        238        222        223        240        239        223        224        241        240        224        225        242        241        225        226        243        242        226        227        244        243        227        228        245        244        228        229        246        245        229        230        247        246        230        231        248        247        231        232        249        248        232        233        250        249        233        234        251        250        234        235        252        251        235        236        253        252        236        237        254        253        238        239        256        255        239        240        257        256        240        241        258        257        241        242        259        258        242        243        260        259        243        244        261        260        244        245        262        261        245        246        263        262        246        247        264        263        247        248        265        264        248        249        266        265        249        250        267        266        250        251        268        267        251        252        269        268        252        253        270        269        253        254        271        270        255        256        273        272        256        257        274        273        257        258        275        274        258        259        276        275        259        260        277        276        260        261        278        277        261        262        279        278        262        263        280        279        263        264        281        280        264        265        282        281        265        266        283        282        266        267        284        283        267        268        285        284        268        269        286        285        269        270        287        286        270        271        288        287        306        307          1          0        307        308          2          1        308        309          3          2        309        310          4          3        310        311          5          4        311        312          6          5        312        313          7          6        313        314          8          7        314        315          9          8        315        316         10          9        316        317         11         10        317        318         12         11        318        319         13         12        319        320         14         13        320        321         15         14        321        322         16         15        323        324        307        306        324        325        308        307        325        326        309        308        326        327        310        309        327        328        311        310        328        329        312        311        329        330        313        312        330        331        314        313        331        332        315        314        332        333        316        315        333        334        317        316        334        335        318        317        335        336        319        318        336        337        320        319        337        338        321        320        338        339        322        321        340        341        324        323        341        342        325        324        342        343        326        325        343        344        327        326        344        345        328        327        345        346        329        328        346        347        330        329        347        348        331        330        348        349        332        331        349        350        333        332        350        351        334        333        351        352        335        334        352        353        336        335        353        354        337        336        354        355        338        337        355        356        339        338        357        358        341        340        358        359        342        341        359        360        343        342        360        361        344        343        361        362        345        344        362        363        346        345        363        364        347        346        364        365        348        347        365        366        349        348        366        367        350        349        367        368        351        350        368        369        352        351        369        370        353        352        370        371        354        353        371        372        355        354        372        373        356        355        374        375        358        357        375        376        359        358        376        377        360        359        377        378        361        360        378        379        362        361        379        380        363        362        380        381        364        363        381        382        365        364        382        383        366        365        383        384        367        366        384        385        368        367        385        386        369        368        386        387        370        369        387        388        371        370        388        389        372        371        389        390        373        372        391        392        375        374        392        393        376        375        393        394        377        376        394        395        378        377        395        396        379        378        396        397        380        379        397        398        381        380        398        399        382        381        399        400        383        382        400        401        384        383        401        402        385        384        402        403        386        385        403        404        387        386        404        405        388        387        405        406        389        388        406        407        390        389        408        409        392        391        409        410        393        392        410        411        394        393        411        412        395        394        412        413        396        395        413        414        397        396        414        415        398        397        415        416        399        398        416        417        400        399        417        418        401        400        418        419        402        401        419        420        403        402        420        421        404        403        421        422        405        404        422        423        406        405        423        424        407        406        425        426        409        408        426        427        410        409        427        428        411        410        428        429        412        411        429        430        413        412        430        431        414        413        431        432        415        414        432        433        416        415        433        434        417        416        434        435        418        417        435        436        419        418        436        437        420        419        437        438        421        420        438        439        422        421        439        440        423        422        440        441        424        423        442        443        426        425        443        444        427        426        444        445        428        427        445        446        429        428        446        447        430        429        447        448        431        430        448        449        432        431        449        450        433        432        450        451        434        433        451        452        435        434        452        453        436        435        453        454        437        436        454        455        438        437        455        456        439        438        456        457        440        439        457        458        441        440        459        460        443        442        460        461        444        443        461        462        445        444        462        463        446        445        463        464        447        446        464        465        448        447        465        466        449        448        466        467        450        449        467        468        451        450        468        469        452        451        469        470        453        452        470        471        454        453        471        472        455        454        472        473        456        455        473        474        457        456        474        475        458        457        476        477        460        459        477        478        461        460        478        479        462        461        479        480        463        462        480        481        464        463        481        482        465        464        482        483        466        465        483        484        467        466        484        485        468        467        485        486        469        468        486        487        470        469        487        488        471        470        488        489        472        471        489        490        473        472        490        491        474        473        491        492        475        474        493        494        477        476        494        495        478        477        495        496        479        478        496        497        480        479        497        498        481        480        498        499        482        481        499        500        483        482        500        501        484        483        501        502        485        484        502        503        486        485        503        504        487        486        504        505        488        487        505        506        489        488        506        507        490        489        507        508        491        490        508        509        492        491        510        511        494        493        511        512        495        494        512        513        496        495        513        514        497        496        514        515        498        497        515        516        499        498        516        517        500        499        517        518        501        500        518        519        502        501        519        520        503        502        520        521        504        503        521        522        505        504        522        523        506        505        523        524        507        506        524        525        508        507        525        526        509        508        527        528        511        510        528        529        512        511        529        530        513        512        530        531        514        513        531        532        515        514        532        533        516        515        533        534        517        516        534        535        518        517        535        536        519        518        536        537        520        519        537        538        521        520        538        539        522        521        539        540        523        522        540        541        524        523        541        542        525        524        542        543        526        525        544        545        528        527        545        546        529        528        546        547        530        529        547        548        531        530        548        549        532        531        549        550        533        532        550        551        534        533        551        552        535        534        552        553        536        535        553        554        537        536        554        555        538        537        555        556        539        538        556        557        540        539        557        558        541        540        558        559        542        541        559        560        543        542        561        562        545        544        562        563        546        545        563        564        547        546        564        565        548        547        565        566        549        548        566        567        550        549        567        568        551        550        568        569        552        551        569        570        553        552        570        571        554        553        571        572        555        554        572        573        556        555        573        574        557        556        574        575        558        557        575        576        559        558        576        577        560        559        578        579        596        595        579        580        597        596        580        581        598        597        581        582        599        598        582        583        600        599        583        584        601        600        584        585        602        601        585        586        603        602        586        587        604        603        587        588        605        604        588        589        606        605        589        590        607        606        590        591        608        607        591        592        609        608        592        593        610        609        593        594        611        610        595        596        613        612        596        597        614        613        597        598        615        614        598        599        616        615        599        600        617        616        600        601        618        617        601        602        619        618        602        603        620        619        603        604        621        620        604        605        622        621        605        606        623        622        606        607        624        623        607        608        625        624        608        609        626        625        609        610        627        626        610        611        628        627        612        613        630        629        613        614        631        630        614        615        632        631        615        616        633        632        616        617        634        633        617        618        635        634        618        619        636        635        619        620        637        636        620        621        638        637        621        622        639        638        622        623        640        639        623        624        641        640        624        625        642        641        625        626        643        642        626        627        644        643        627        628        645        644        629        630        647        646        630        631        648        647        631        632        649        648        632        633        650        649        633        634        651        650        634        635        652        651        635        636        653        652        636        637        654        653        637        638        655        654        638        639        656        655        639        640        657        656        640        641        658        657        641        642        659        658        642        643        660        659        643        644        661        660        644        645        662        661        646        647        664        663        647        648        665        664        648        649        666        665        649        650        667        666        650        651        668        667        651        652        669        668        652        653        670        669        653        654        671        670        654        655        672        671        655        656        673        672        656        657        674        673        657        658        675        674        658        659        676        675        659        660        677        676        660        661        678        677        661        662        679        678        663        664        681        680        664        665        682        681        665        666        683        682        666        667        684        683        667        668        685        684        668        669        686        685        669        670        687        686        670        671        688        687        671        672        689        688        672        673        690        689        673        674        691        690        674        675        692        691        675        676        693        692        676        677        694        693        677        678        695        694        678        679        696        695        680        681        698        697        681        682        699        698        682        683        700        699        683        684        701        700        684        685        702        701        685        686        703        702        686        687        704        703        687        688        705        704        688        689        706        705        689        690        707        706        690        691        708        707        691        692        709        708        692        693        710        709        693        694        711        710        694        695        712        711        695        696        713        712        697        698        715        714        698        699        716        715        699        700        717        716        700        701        718        717        701        702        719        718        702        703        720        719        703        704        721        720        704        705        722        721        705        706        723        722        706        707        724        723        707        708        725        724        708        709        726        725        709        710        727        726        710        711        728        727        711        712        729        728        712        713        730        729        714        715        732        731        715        716        733        732        716        717        734        733        717        718        735        734        718        719        736        735        719        720        737        736        720        721        738        737        721        722        739        738        722        723        740        739        723        724        741        740        724        725        742        741        725        726        743        742        726        727        744        743        727        728        745        744        728        729        746        745        729        730        747        746        731        732        749        748        732        733        750        749        733        734        751        750        734        735        752        751        735        736        753        752        736        737        754        753        737        738        755        754        738        739        756        755        739        740        757        756        740        741        758        757        741        742        759        758        742        743        760        759        743        744        761        760        744        745        762        761        745        746        763        762        746        747        764        763        748        749        766        765        749        750        767        766        750        751        768        767        751        752        769        768        752        753        770        769        753        754        771        770        754        755        772        771        755        756        773        772        756        757        774        773        757        758        775        774        758        759        776        775        759        760        777        776        760        761        778        777        761        762        779        778        762        763        780        779        763        764        781        780        765        766        783        782        766        767        784        783        767        768        785        784        768        769        786        785        769        770        787        786        770        771        788        787        771        772        789        788        772        773        790        789        773        774        791        790        774        775        792        791        775        776        793        792        776        777        794        793        777        778        795        794        778        779        796        795        779        780        797        796        780        781        798        797        782        783        800        799        783        784        801        800        784        785        802        801        785        786        803        802        786        787        804        803        787        788        805        804        788        789        806        805        789        790        807        806        790        791        808        807        791        792        809        808        792        793        810        809        793        794        811        810        794        795        812        811        795        796        813        812        796        797        814        813        797        798        815        814        799        800        817        816        800        801        818        817        801        802        819        818        802        803        820        819        803        804        821        820        804        805        822        821        805        806        823        822        806        807        824        823        807        808        825        824        808        809        826        825        809        810        827        826        810        811        828        827        811        812        829        828        812        813        830        829        813        814        831        830        814        815        832        831        816        817        834        833        817        818        835        834        818        819        836        835        819        820        837        836        820        821        838        837        821        822        839        838        822        823        840        839        823        824        841        840        824        825        842        841        825        826        843        842        826        827        844        843        827        828        845        844        828        829        846        845        829        830        847        846        830        831        848        847        831        832        849        848        833        834        562        561        834        835        563        562        835        836        564        563        836        837        565        564        837        838        566        565        838        839        567        566        839        840        568        567        840        841        569        568        841        842        570        569        842        843        571        570        843        844        572        571        844        845        573        572        845        846        574        573        846        847        575        574        847        848        576        575        848        849        577        576        884        885        579        578        885        886        580        579        886        887        581        580        887        888        582        581        888        889        583        582        889        890        584        583        890        891        585        584        891        892        586        585        892        893        587        586        893        894        588        587        894        895        589        588        895        896        590        589        896        897        591        590        897        898        592        591        898        899        593        592        899        900        594        593        901        902        885        884        902        903        886        885        903        904        887        886        904        905        888        887        905        906        889        888        906        907        890        889        907        908        891        890        908        909        892        891        909        910        893        892        910        911        894        893        911        912        895        894        912        913        896        895        913        914        897        896        914        915        898        897        915        916        899        898        916        917        900        899        918        919        902        901        919        920        903        902        920        921        904        903        921        922        905        904        922        923        906        905        923        924        907        906        924        925        908        907        925        926        909        908        926        927        910        909        927        928        911        910        928        929        912        911        929        930        913        912        930        931        914        913        931        932        915        914        932        933        916        915        933        934        917        916        935        936        919        918        936        937        920        919        937        938        921        920        938        939        922        921        939        940        923        922        940        941        924        923        941        942        925        924        942        943        926        925        943        944        927        926        944        945        928        927        945        946        929        928        946        947        930        929        947        948        931        930        948        949        932        931        949        950        933        932        950        951        934        933        952        953        936        935        953        954        937        936        954        955        938        937        955        956        939        938        956        957        940        939        957        958        941        940        958        959        942        941        959        960        943        942        960        961        944        943        961        962        945        944        962        963        946        945        963        964        947        946        964        965        948        947        965        966        949        948        966        967        950        949        967        968        951        950        969        970        953        952        970        971        954        953        971        972        955        954        972        973        956        955        973        974        957        956        974        975        958        957        975        976        959        958        976        977        960        959        977        978        961        960        978        979        962        961        979        980        963        962        980        981        964        963        981        982        965        964        982        983        966        965        983        984        967        966        984        985        968        967        986        987        970        969        987        988        971        970        988        989        972        971        989        990        973        972        990        991        974        973        991        992        975        974        992        993        976        975        993        994        977        976        994        995        978        977        995        996        979        978        996        997        980        979        997        998        981        980        998        999        982        981        999       1000        983        982       1000       1001        984        983       1001       1002        985        984       1003       1004        987        986       1004       1005        988        987       1005       1006        989        988       1006       1007        990        989       1007       1008        991        990       1008       1009        992        991       1009       1010        993        992       1010       1011        994        993       1011       1012        995        994       1012       1013        996        995       1013       1014        997        996       1014       1015        998        997       1015       1016        999        998       1016       1017       1000        999       1017       1018       1001       1000       1018       1019       1002       1001       1020       1021       1004       1003       1021       1022       1005       1004       1022       1023       1006       1005       1023       1024       1007       1006       1024       1025       1008       1007       1025       1026       1009       1008       1026       1027       1010       1009       1027       1028       1011       1010       1028       1029       1012       1011       1029       1030       1013       1012       1030       1031       1014       1013       1031       1032       1015       1014       1032       1033       1016       1015       1033       1034       1017       1016       1034       1035       1018       1017       1035       1036       1019       1018       1037       1038       1021       1020       1038       1039       1022       1021       1039       1040       1023       1022       1040       1041       1024       1023       1041       1042       1025       1024       1042       1043       1026       1025       1043       1044       1027       1026       1044       1045       1028       1027       1045       1046       1029       1028       1046       1047       1030       1029       1047       1048       1031       1030       1048       1049       1032       1031       1049       1050       1033       1032       1050       1051       1034       1033       1051       1052       1035       1034       1052       1053       1036       1035       1054       1055       1038       1037       1055       1056       1039       1038       1056       1057       1040       1039       1057       1058       1041       1040       1058       1059       1042       1041       1059       1060       1043       1042       1060       1061       1044       1043       1061       1062       1045       1044       1062       1063       1046       1045       1063       1064       1047       1046       1064       1065       1048       1047       1065       1066       1049       1048       1066       1067       1050       1049       1067       1068       1051       1050       1068       1069       1052       1051       1069       1070       1053       1052       1071       1072       1055       1054       1072       1073       1056       1055       1073       1074       1057       1056       1074       1075       1058       1057       1075       1076       1059       1058       1076       1077       1060       1059       1077       1078       1061       1060       1078       1079       1062       1061       1079       1080       1063       1062       1080       1081       1064       1063       1081       1082       1065       1064       1082       1083       1066       1065       1083       1084       1067       1066       1084       1085       1068       1067       1085       1086       1069       1068       1086       1087       1070       1069       1088       1089       1072       1071       1089       1090       1073       1072       1090       1091       1074       1073       1091       1092       1075       1074       1092       1093       1076       1075       1093       1094       1077       1076       1094       1095       1078       1077       1095       1096       1079       1078       1096       1097       1080       1079       1097       1098       1081       1080       1098       1099       1082       1081       1099       1100       1083       1082       1100       1101       1084       1083       1101       1102       1085       1084       1102       1103       1086       1085       1103       1104       1087       1086       1105       1106       1089       1088       1106       1107       1090       1089       1107       1108       1091       1090       1108       1109       1092       1091       1109       1110       1093       1092       1110       1111       1094       1093       1111       1112       1095       1094       1112       1113       1096       1095       1113       1114       1097       1096       1114       1115       1098       1097       1115       1116       1099       1098       1116       1117       1100       1099       1117       1118       1101       1100       1118       1119       1102       1101       1119       1120       1103       1102       1120       1121       1104       1103       1122       1123       1106       1105       1123       1124       1107       1106       1124       1125       1108       1107       1125       1126       1109       1108       1126       1127       1110       1109       1127       1128       1111       1110       1128       1129       1112       1111       1129       1130       1113       1112       1130       1131       1114       1113       1131       1132       1115       1114       1132       1133       1116       1115       1133       1134       1117       1116       1134       1135       1118       1117       1135       1136       1119       1118       1136       1137       1120       1119       1137       1138       1121       1120        272        273       1123       1122        273        274       1124       1123        274        275       1125       1124        275        276       1126       1125        276        277       1127       1126        277        278       1128       1127        278        279       1129       1128        279        280       1130       1129        280        281       1131       1130        281        282       1132       1131        282        283       1133       1132        283        284       1134       1133        284        285       1135       1134        285        286       1136       1135        286        287       1137       1136        287        288       1138       1137 </DataArray>
<DataArray type="Int32"                                    Name="offsets"                                                      NumberOfComponents=" 1" format="ascii">
         4          8         12         16         20         24         28         32         36         40         44         48         52         56         60         64         68         72         76         80         84         88         92         96        100        104        108        112        116        120        124        128        132        136        140        144        148        152        156        160        164        168        172        176        180        184        188        192        196        200        204        208        212        216        220        224        228        232        236        240        244        248        252        256        260        264        268        272        276        280        284        288        292        296        300        304        308        312        316        320        324        328        332        336        340        344        348        352        356        360        364        368        372        376        380        384        388        392        396        400        404        408        412        416        420        424        428        432        436        440        444        448        452        456        460        464        468        472        476        480        484        488        492        496        500        504        508        512        516        520        524        528        532        536        540        544        548        552        556        560        564        568        572        576        580        584        588        592        596        600        604        608        612        616        620        624        628        632        636        640        644        648        652        656        660        664        668        672        676        680        684        688        692        696        700        704        708        712        716        720        724        728        732        736        740        744        748        752        756        760        764        768        772        776        780        784        788        792        796        800        804        808        812        816        820        824        828        832        836        840        844        848        852        856        860        864        868        872        876        880        884        888        892        896        900        904        908        912        916        920        924        928        932        936        940        944        948        952        956        960        964        968        972        976        980        984        988        992        996       1000       1004       1008       1012       1016       1020       1024       1028       1032       1036       1040       1044       1048       1052       1056       1060       1064       1068       1072       1076       1080       1084       1088       1092       1096       1100       1104       1108       1112       1116       1120       1124       1128       1132       1136       1140       1144       1148       1152       1156       1160       1164       1168       1172       1176       1180       1184       1188       1192       1196       1200       1204       1208       1212       1216       1220       1224       1228       1232       1236       1240       1244       1248       1252       1256       1260       1264       1268       1272       1276       1280       1284       1288       1292       1296       1300       1304       1308       1312       1316       1320       1324       1328       1332       1336       1340       1344       1348       1352       1356       1360       1364       1368       1372       1376       1380       1384       1388       1392       1396       1400       1404       1408       1412       1416       1420       1424       1428       1432       1436       1440       1444       1448       1452       1456       1460       1464       1468       1472       1476       1480       1484       1488       1492       1496       1500       1504       1508       1512       1516       1520       1524       1528       1532       1536       1540       1544       1548       1552       1556       1560       1564       1568       1572       1576       1580       1584       1588       1592       1596       1600       1604       1608       1612       1616       1620       1624       1628       1632       1636       1640       1644       1648       1652       1656       1660       1664       1668       1672       1676       1680       1684       1688       1692       1696       1700       1704       1708       1712       1716       1720       1724       1728       1732       1736       1740       1744       1748       1752       1756       1760       1764       1768       1772       1776       1780       1784       1788       1792       1796       1800       1804       1808       1812       1816       1820       1824       1828       1832       1836       1840       1844       1848       1852       1856       1860       1864       1868       1872       1876       1880       1884       1888       1892       1896       1900       1904       1908       1912       1916       1920       1924       1928       1932       1936       1940       1944       1948       1952       1956       1960       1964       1968       1972       1976       1980       1984       1988       1992       1996       2000       2004       2008       2012       2016       2020       2024       2028       2032       2036       2040       2044       2048       2052       2056       2060       2064       2068       2072       2076       2080       2084       2088       2092       2096       2100       2104       2108       2112       2116       2120       2124       2128       2132       2136       2140       2144       2148       2152       2156       2160       2164       2168       2172       2176       2180       2184       2188       2192       2196       2200       2204       2208       2212       2216       2220       2224       2228       2232       2236       2240       2244       2248       2252       2256       2260       2264       2268       2272       2276       2280       2284       2288       2292       2296       2300       2304       2308       2312       2316       2320       2324       2328       2332       2336       2340       2344       2348       2352       2356       2360       2364       2368       2372       2376       2380       2384       2388       2392       2396       2400       2404       2408       2412       2416       2420       2424       2428       2432       2436       2440       2444       2448       2452       2456       2460       2464       2468       2472       2476       2480       2484       2488       2492       2496       2500       2504       2508       2512       2516       2520       2524       2528       2532       2536       2540       2544       2548       2552       2556       2560       2564       2568       2572       2576       2580       2584       2588       2592       2596       2600       2604       2608       2612       2616       2620       2624       2628       2632       2636       2640       2644       2648       2652       2656       2660       2664       2668       2672       2676       2680       2684       2688       2692       2696       2700       2704       2708       2712       2716       2720       2724       2728       2732       2736       2740       2744       2748       2752       2756       2760       2764       2768       2772       2776       2780       2784       2788       2792       2796       2800       2804       2808       2812       2816       2820       2824       2828       2832       2836       2840       2844       2848       2852       2856       2860       2864       2868       2872       2876       2880       2884       2888       2892       2896       2900       2904       2908       2912       2916       2920       2924       2928       2932       2936       2940       2944       2948       2952       2956       2960       2964       2968       2972       2976       2980       2984       2988       2992       2996       3000       3004       3008       3012       3016       3020       3024       3028       3032       3036       3040       3044       3048       3052       3056       3060       3064       3068       3072       3076       3080       3084       3088       3092       3096       3100       3104       3108       3112       3116       3120       3124       3128       3132       3136       3140       3144       3148       3152       3156       3160       3164       3168       3172       3176       3180       3184       3188       3192       3196       3200       3204       3208       3212       3216       3220       3224       3228       3232       3236       3240       3244       3248       3252       3256       3260       3264       3268       3272       3276       3280       3284       3288       3292       3296       3300       3304       3308       3312       3316       3320       3324       3328       3332       3336       3340       3344       3348       3352       3356       3360       3364       3368       3372       3376       3380       3384       3388       3392       3396       3400       3404       3408       3412       3416       3420       3424       3428       3432       3436       3440       3444       3448       3452       3456       3460       3464       3468       3472       3476       3480       3484       3488       3492       3496       3500       3504       3508       3512       3516       3520       3524       3528       3532       3536       3540       3544       3548       3552       3556       3560       3564       3568       3572       3576       3580       3584       3588       3592       3596       3600       3604       3608       3612       3616       3620       3624       3628       3632       3636       3640       3644       3648       3652       3656       3660       3664       3668       3672       3676       3680       3684       3688       3692       3696       3700       3704       3708       3712       3716       3720       3724       3728       3732       3736       3740       3744       3748       3752       3756       3760       3764       3768       3772       3776       3780       3784       3788       3792       3796       3800       3804       3808       3812       3816       3820       3824       3828       3832       3836       3840       3844       3848       3852       3856       3860       3864       3868       3872       3876       3880       3884       3888       3892       3896       3900       3904       3908       3912       3916       3920       3924       3928       3932       3936       3940       3944       3948       3952       3956       3960       3964       3968       3972       3976       3980       3984       3988       3992       3996       4000       4004       4008       4012       4016       4020       4024       4028       4032       4036       4040       4044       4048       4052       4056       4060       4064       4068       4072       4076       4080       4084       4088       4092       4096 </DataArray>
<DataArray type="UInt8"                                    Name="types"                                                      NumberOfComponents=" 1" format="ascii">
         9          9          9          9          9          9          9          9          9          9          9          9          9          9          9          9          9          9          9          9          9          9          9          9          9          9          9          9          9          9          9          9          9          9          9          9          9          9          9          9          9          9          9          9          9          9          9          9          9          9          9          9          9          9          9          9          9          9          9          9          9          9          9          9          9          9          9          9          9          9          9          9          9          9          9          9          9          9          9          9          9          9          9          9          9          9          9          9          9          9          9          9          9          9          9          9          9          9          9          9          9          9          9          9          9          9          9          9          9          9          9          9          9          9          9          9          9          9          9          9          9          9          9          9          9          9          9          9          9          9          9          9          9          9          9          9          9          9          9          9          9          9          9          9          9          9          9          9          9          9          9          9          9          9          9          9          9          9          9          9          9          9          9          9          9          9          9          9          9          9          9          9          9          9          9          9          9          9          9          9          9          9          9          9          9          9          9          9          9          9          9          9          9          9          9          9          9          9          9          9          9          9          9          9          9          9          9          9          9          9          9          9          9          9          9          9          9          9          9          9          9          9          9          9          9          9          9          9          9          9          9          9          9          9          9          9          9          9          9          9          9          9          9          9          9          9          9          9          9          9          9          9          9          9          9          9          9          9          9          9          9          9          9          9          9          9          9          9          9          9          9          9          9          9          9          9          9          9          9          9          9          9          9          9          9          9          9          9          9          9          9          9          9          9          9          9          9          9          9          9          9          9          9          9          9          9          9          9          9          9          9          9          9          9          9          9          9          9          9          9          9          9          9          9          9          9          9          9          9          9          9          9          9          9          9          9          9          9          9          9          9          9          9          9          9          9          9          9          9          9          9          9          9          9          9          9          9          9          9          9          9          9          9          9          9          9          9          9          9          9          9          9          9          9          9          9          9          9          9          9          9          9          9          9          9          9          9          9          9          9          9          9          9          9          9          9          9          9          9          9          9          9          9          9          9          9          9          9          9          9          9          9          9          9          9          9          9          9          9          9          9          9          9          9          9          9          9          9          9          9          9          9          9          9          9          9          9          9          9          9          9          9          9          9          9          9          9          9          9          9          9          9          9          9          9          9          9          9          9          9          9          9          9          9          9          9          9          9          9          9          9          9          9          9          9          9          9          9          9          9          9          9          9          9          9          9          9          9          9          9          9          9          9          9          9          9          9          9          9          9          9          9          9          9          9          9          9          9          9          9          9          9          9          9          9          9          9          9          9          9          9          9          9          9          9          9          9          9          9          9          9          9          9          9          9          9          9          9          9          9          9          9          9          9          9          9          9          9          9          9          9          9          9          9          9          9          9          9          9          9          9          9          9          9          9          9          9          9          9          9          9          9          9          9          9          9          9          9          9          9          9          9          9          9          9          9          9          9          9          9          9          9          9          9          9          9          9          9          9          9          9          9          9          9          9          9          9          9          9          9          9          9          9          9          9          9          9          9          9          9          9          9          9          9          9          9          9          9          9          9          9          9          9          9          9          9          9          9          9          9          9          9          9          9          9          9          9          9          9          9          9          9          9          9          9          9          9          9          9          9          9          9          9          9          9          9          9          9          9          9          9          9          9          9          9          9          9          9          9          9          9          9          9          9          9          9          9          9          9          9          9          9          9          9          9          9          9          9          9          9          9          9          9          9          9          9          9          9          9          9          9          9          9          9          9          9          9          9          9          9          9          9          9          9          9          9          9          9          9          9          9          9          9          9          9          9          9          9          9          9          9          9          9          9          9          9          9          9          9          9          9          9          9          9          9          9          9          9          9          9          9          9          9          9          9          9          9          9          9          9          9          9          9          9          9          9          9          9          9          9          9          9          9          9          9          9          9          9          9          9          9          9          9          9          9          9          9          9          9          9          9          9          9          9          9          9          9          9          9          9          9          9          9          9          9          9          9          9          9          9          9          9          9          9          9          9          9          9          9          9          9          9          9          9          9          9          9          9          9          9          9          9          9          9          9          9          9          9          9          9          9          9          9          9          9          9          9          9          9          9          9          9          9          9          9          9          9          9          9          9          9          9          9          9          9          9          9          9          9          9          9          9          9          9          9          9          9          9          9          9          9          9          9          9          9          9          9          9          9          9          9          9          9          9          9          9          9          9          9          9          9          9          9          9          9          9          9          9          9          9          9          9          9          9          9          9          9          9          9          9          9          9          9          9          9          9          9          9          9          9          9          9          9          9          9          9          9          9          9          9          9          9          9          9          9          9          9          9          9          9          9          9          9          9          9          9          9          9          9          9          9          9          9          9          9          9          9          9          9          9          9          9          9          9          9          9          9          9          9          9          9          9          9          9          9          9          9          9          9          9          9          9          9          9          9          9          9          9          9          9          9          9          9          9          9          9          9          9          9          9          9          9          9          9 </DataArray>
</Cells>
<CellData>
<DataArray type="Int32"                                    Name="material"                                                      NumberOfComponents=" 1" format="ascii">
         1          1          1          1          1          1          1          1          1          1          1          1          1          1          1          1          1          1          1          1          1          1          1          1          1          1          1          1          1          1          1          1          1          1          1          1          1          1          1          1          1          1          1          1          1          1          1          1          1          1          1          1          1          1          1          1          1          1          1          1          1          1          1          1          1          1          1          1          1          1          1          1          1          1          1          1          1          1          1          1          1          1          1          1          1          1          1          1          1          1          1          1          1          1          1          1          1          1          1          1          1          1          1          1          1          1          1          1          1          1          1          1          1          1          1          1          1          1          1          1          1          1          1          1          1          1          1          1          1          1          1          1          1          1          1          1          1          1          1          1          1          1          1          1          1          1          1          1          1          1          1          1          1          1          1          1          1          1          1          1          1          1          1          1          1          1          1          1          1          1          1          1          1          1          1          1          1          1          1          1          1          1          1          1          1          1          1          1          1          1          1          1          1          1          1          1          1          1          1          1          1          1          1          1          1          1          1          1          1          1          1          1          1          1          1          1          1          1          1          1          1          1          1          1          1          1          1          1          1          1          1          1          1          1          1          1          1          1          1          1          1          1          1          1          1          1          1          1          1          1          1          1          1          1          1          1          1          1          1          1          1          1          1          1          1          1          1          1          1          1          1          1          1          1          1          1          1          1          1          1          1          1          1          1          1          1          1          1          1          1          1          1          1          1          1          1          1          1          1          1          1          1          1          1          1          1          1          1          1          1          1          1          1          1          1          1          1          1          1          1          1          1          1          1          1          1          1          1          1          1          1          1          1          1          1          1          1          1          1          1          1          1          1          1          1          1          1          1          1          1          1          1          1          1          1          1          1          1          1          1          1          1          1          1          1          1          1          1          1          1          1          1          1          1          1          1          1          1          1          1          1          1          1          1          1          1          1          1          1          1          1          1          1          1          1          1          1          1          1          1          1          1          1          1          1          1          1          1          1          1          1          1          1          1          1          1          1          1          1          1          1          1          1          1          1          1          1          1          1          1          1          1          1          1          1          1          1          1          1          1          1          1          1          1          1          1          1          1          1          1          1          1          1          1          1          1          1          1          1          1          1          1          1          1          1          1          1          1          1          1          1          1          1          1          1          1          1          1          1          1          1          1          1          1          1          1          1          1          1          1          1          1          1          1          1          1          1          1          1          1          1          1          1          1          1          1          1          1          1          1          1          1          1          1          1          1          1          1          1          1          1          1          1          1          1          1          1          1          1          1          1          1          1          1          1          1          1          1          1          1          1          1          1          1          1          1          1          1          1          1          1          1          1          1          1          1          1          1          1          1          1          1          1          1          1          1          1          1          1          1          1          1          1          1          1          1          1          1          1          1          1          1          1          1          1          1          1          1          1          1          1          1          1          1          1          1          1          1          1          1          1          1          1          1          1          1          1          1          1          1          1          1          1          1          1          1          1          1          1          1          1          1          1          1          1          1          1          1          1          1          1          1          1          1          1          1          1          1          1          1          1          1          1          1          1          1          1          1          1          1          1          1          1          1          1          1          1          1          1          1          1          1          1          1          1          1          1          1          1          1          1          1          1          1          1          1          1          1          1          1          1          1          1          1          1          1          1          1          1          1          1          1          1          1          1          1          1          1          1          1          1          1          1          1          1          1          1          1          1          1          1          1          1          1          1          1          1          1          1          1          1          1          1          1          1          1          1          1          1          1          1          1          1          1          1          1          1          1          1          1          1          1          1          1          1          1          1          1          1          1          1          1          1          1          1          1          1          1          1          1          1          1          1          1          1          1          1          1          1          1          1          1          1          1          1          1          1          1          1          1          1          1          1          1          1          1          1          1          1          1          1          1          1          1          1          1          1          1          1          1          1          1          1          1          1          1          1          1          1          1          1          1          1          1          1          1          1          1          1          1          1          1          1          1          1          1          1          1          1          1          1          1          1          1          1          1          1          1          1          1          1          1          1          1          1          1          1          1          1          1          1          1          1          1          1          1          1          1          1          1          1          1          1          1          1          1          1          1          1          1          1          1          1          1          1          1          1          1          1          1          1          1          1          1          1          1          1          1          1          1          1          1          1          1          1          1          1          1          1          1          1          1          1          1          1          1          1          1          1          1          1          1          1          1          1          1          1          1          1          1          1          1          1          1          1          1          1          1          1          1          1          1          1          1          1          1          1          1          1          1          1          1          1          1          1          1          1          1          1          1          1          1          1          1          1          1          1          1          1          1          1          1          1          1          1          1          1          1          1          1          1          1          1          1          1          1          1          1          1          1          1          1          1          1          1          1          1          1          1          1          1          1          1          1          1          1          1          1          1          1          1          1          1          1          1          1          1          1          1          1          1          1          1          1          1          1          1          1          1          1          1          1          1          1 </DataArray>
</CellData>
<PointData>
<DataArray type="Float64"                                    Name="u"                                                      NumberOfComponents=" 3" format="ascii">
             -0.000100895               0.000000000               0.999999993              -0.000124398               0.000000000               0.999999993              -0.000135449               0.000000000               0.999999993              -0.000141801               0.000000000               0.999999993              -0.000146576               0.000000000               0.999999993              -0.000151153               0.000000000               0.999999993              -0.000156197              -0.000000000               0.999999993              -0.000161954               0.000000000               0.999999993              -0.000168588               0.000000000               0.999999993              -0.000176092               0.000000000               0.999999993              -0.000184529              -0.000000000               0.999999993              -0.000193815               0.000000000               0.999999993              -0.000203909               0.000000000               0.999999993              -0.000214829               0.000000000               0.999999993              -0.000226498               0.000000000               0.999999993              -0.000238824               0.000000000               0.999999993              -0.000251699               0.000000000               0.999999993              -0.000100293               0.000058884               0.999999993              -0.000122646               0.000051298               0.999999993              -0.000133007               0.000048925               0.999999993              -0.000138946               0.000049435               0.999999993              -0.000143490               0.000051542               0.999999993              -0.000147975               0.000054874               0.999999993              -0.000153052               0.000059002               0.999999993              -0.000158948               0.000063657               0.999999993              -0.000165679               0.000068540               0.999999993              -0.000173217               0.000073634               0.999999993              -0.000181621               0.000078889               0.999999993              -0.000190886               0.000084175               0.999999993              -0.000200979               0.000089412               0.999999993              -0.000211860               0.000094572               0.999999993              -0.000223502               0.000099533               0.999999993              -0.000235831               0.000104131               0.999999993              -0.000248737               0.000107916               0.999999993              -0.000098572               0.000117198               0.999999993              -0.000117523               0.000102046               0.999999993              -0.000125910               0.000097673               0.999999993              -0.000130831               0.000099005               0.999999993              -0.000134938               0.000103608               0.999999993              -0.000139394               0.000110485               0.999999993              -0.000144621               0.000118832               0.999999993              -0.000150731               0.000128012               0.999999993              -0.000157693               0.000137733               0.999999993              -0.000165431               0.000147895               0.999999993              -0.000173956               0.000158383               0.999999993              -0.000183267               0.000169031               0.999999993              -0.000193387               0.000179738               0.999999993              -0.000204305               0.000190412               0.999999993              -0.000215980               0.000200872               0.999999993              -0.000228321               0.000210780               0.999999993              -0.000241246               0.000219698               0.999999993              -0.000095664               0.000174351               0.999999993              -0.000109194               0.000151818               0.999999993              -0.000114802               0.000146103               0.999999993              -0.000118491               0.000148830               0.999999993              -0.000122296               0.000156355               0.999999993              -0.000126998               0.000166959               0.999999993              -0.000132715               0.000179541               0.999999993              -0.000139387               0.000193291               0.999999993              -0.000146920               0.000207810               0.999999993              -0.000155238               0.000222931               0.999999993              -0.000164356               0.000238620               0.999999993              -0.000174205               0.000254632               0.999999993              -0.000184787               0.000270882               0.999999993              -0.000196127               0.000287339               0.999999993              -0.000208112               0.000303615               0.999999993              -0.000220610               0.000319377               0.999999993              -0.000233570               0.000334296               0.999999993              -0.000091545               0.000229681               0.999999993              -0.000098045               0.000200363               0.999999993              -0.000100654               0.000194074               0.999999993              -0.000103376               0.000198757               0.999999993              -0.000107359               0.000209467               0.999999993              -0.000112752               0.000223937               0.999999993              -0.000119402               0.000240807               0.999999993              -0.000127084               0.000259080               0.999999993              -0.000135643               0.000278283               0.999999993              -0.000144949               0.000298323               0.999999993              -0.000154995               0.000319093               0.999999993              -0.000165712               0.000340383               0.999999993              -0.000177054               0.000362141               0.999999993              -0.000188942               0.000384223               0.999999993              -0.000201311               0.000406191               0.999999993              -0.000214021               0.000427754               0.999999993              -0.000226980               0.000448599               0.999999993              -0.000086350               0.000282542               0.999999993              -0.000084872               0.000247441               0.999999993              -0.000084888               0.000241314               0.999999993              -0.000087366               0.000248323               0.999999993              -0.000092151               0.000262443               0.999999993              -0.000098735               0.000280820               0.999999993              -0.000106628               0.000301916               0.999999993              -0.000115618               0.000324637               0.999999993              -0.000125454               0.000348456               0.999999993              -0.000135958               0.000373268               0.999999993              -0.000147101               0.000398940               0.999999993              -0.000158786               0.000425244               0.999999993              -0.000170972               0.000452277               0.999999993              -0.000183545               0.000479619               0.999999993              -0.000196374               0.000506897               0.999999993              -0.000209374               0.000533758               0.999999993              -0.000222459               0.000560130               0.999999993              -0.000080279               0.000332382               0.999999993              -0.000070633               0.000292822               0.999999993              -0.000068887               0.000287500               0.999999993              -0.000071974               0.000297104               0.999999993              -0.000078043               0.000314640               0.999999993              -0.000086127               0.000336849               0.999999993              -0.000095624               0.000362091               0.999999993              -0.000106116               0.000389191               0.999999993              -0.000117298               0.000417534               0.999999993              -0.000129046               0.000446855               0.999999993              -0.000141313               0.000477116               0.999999993              -0.000154044               0.000508195               0.999999993              -0.000167172               0.000539965               0.999999993              -0.000180558               0.000572071               0.999999993              -0.000193989               0.000603995               0.999999993              -0.000207363               0.000635479               0.999999993              -0.000220562               0.000666494               0.999999993              -0.000073558               0.000378656               0.999999993              -0.000056171               0.000336342               0.999999993              -0.000053655               0.000332274               0.999999993              -0.000057960               0.000344599               0.999999993              -0.000065718               0.000365473               0.999999993              -0.000075684               0.000391477               0.999999993              -0.000086948               0.000420629               0.999999993              -0.000098962               0.000451863               0.999999993              -0.000111480               0.000484480               0.999999993              -0.000124392               0.000518099               0.999999993              -0.000137817               0.000552786               0.999999993              -0.000151646               0.000588255               0.999999993              -0.000165721               0.000624394               0.999999993              -0.000179776               0.000660725               0.999999993              -0.000193605               0.000696632               0.999999993              -0.000207044               0.000732041               0.999999993              -0.000220023               0.000766722               0.999999993              -0.000066584               0.000420589               0.999999993              -0.000041978               0.000377953               0.999999993              -0.000039941               0.000375264               0.999999993              -0.000045945               0.000390164               0.999999993              -0.000055802               0.000414296               0.999999993              -0.000067754               0.000443887               0.999999993              -0.000080617               0.000476816               0.999999993              -0.000093919               0.000512043               0.999999993              -0.000107525               0.000548757               0.999999993              -0.000121633               0.000586644               0.999999993              -0.000136078               0.000625612               0.999999993              -0.000150785               0.000665299               0.999999993              -0.000165483               0.000705318               0.999999993              -0.000179798               0.000745183               0.999999993              -0.000193627               0.000784523               0.999999993              -0.000207060               0.000823249               0.999999993              -0.000220148               0.000861361               0.999999993              -0.000059944               0.000459691               0.999999993              -0.000031169               0.000421676               0.999999993              -0.000027104               0.000415454               0.999999993              -0.000031911               0.000426098               0.999999993              -0.000040608               0.000446216               0.999999993              -0.000051463               0.000472081               0.999999993              -0.000063205               0.000501525               0.999999993              -0.000075288               0.000533382               0.999999993              -0.000087537               0.000566977               0.999999993              -0.000099978               0.000601913               0.999999993              -0.000112580               0.000637866               0.999999993              -0.000125463               0.000674679               0.999999993              -0.000138428               0.000712034               0.999999993              -0.000151192               0.000749575               0.999999993              -0.000163561               0.000787047               0.999999993              -0.000175529               0.000824101               0.999999993              -0.000187434               0.000860725               0.999999993              -0.000052510               0.000494771               0.999999993              -0.000022293               0.000463206               0.999999993              -0.000016273               0.000455791               0.999999993              -0.000019345               0.000463173               0.999999993              -0.000026540               0.000479776               0.999999993              -0.000036013               0.000502330               0.999999993              -0.000046562               0.000528652               0.999999993              -0.000057367               0.000557473               0.999999993              -0.000068211               0.000588130               0.999999993              -0.000078986               0.000620205               0.999999993              -0.000089716               0.000653474               0.999999993              -0.000100537               0.000687567               0.999999993              -0.000111403               0.000722334               0.999999993              -0.000122239               0.000757404               0.999999993              -0.000132584               0.000792685               0.999999993              -0.000142367               0.000827900               0.999999993              -0.000151790               0.000863015               0.999999993              -0.000044572               0.000525152               0.999999993              -0.000015293               0.000501396               0.999999993              -0.000007811               0.000494695               0.999999993              -0.000009067               0.000500060               0.999999993              -0.000014421               0.000513944               0.999999993              -0.000022307               0.000533685               0.999999993              -0.000031485               0.000557320               0.999999993              -0.000040878               0.000583601               0.999999993              -0.000050192               0.000611805               0.999999993              -0.000059273               0.000641499               0.999999993              -0.000068073               0.000672385               0.999999993              -0.000076756               0.000704188               0.999999993              -0.000085473               0.000736615               0.999999993              -0.000094038               0.000769471               0.999999993              -0.000102066               0.000802580               0.999999993              -0.000109119               0.000835838               0.999999993              -0.000115308               0.000869205               0.999999993              -0.000036225               0.000550458               0.999999993              -0.000010049               0.000534863               0.999999993              -0.000001961               0.000530277               0.999999993              -0.000001644               0.000535051               0.999999993              -0.000005225               0.000547023               0.999999993              -0.000011351               0.000564551               0.999999993              -0.000018815               0.000586043               0.999999993              -0.000026602               0.000610372               0.999999993              -0.000034302               0.000636677               0.999999993              -0.000041665               0.000664582               0.999999993              -0.000048643               0.000693671               0.999999993              -0.000055401               0.000723586               0.999999993              -0.000061918               0.000754172               0.999999993              -0.000068077               0.000785281               0.999999993              -0.000073492               0.000816771               0.999999993              -0.000077637               0.000848502               0.999999993              -0.000080117               0.000880434               0.999999993              -0.000027542               0.000570387               0.999999993              -0.000006236               0.000562448               0.999999993               0.000001295               0.000560585               0.999999993               0.000002577               0.000565705               0.999999993               0.000000540               0.000576803               0.999999993              -0.000003764               0.000592853               0.999999993              -0.000009397               0.000612726               0.999999993              -0.000015390               0.000635442               0.999999993              -0.000021357               0.000660340               0.999999993              -0.000027015               0.000686926               0.999999993              -0.000032327               0.000714758               0.999999993              -0.000037312               0.000743523               0.999999993              -0.000041888               0.000772964               0.999999993              -0.000045778               0.000802958               0.999999993              -0.000048629               0.000833522               0.999999993              -0.000050097               0.000864405               0.999999993              -0.000049429               0.000895505               0.999999993              -0.000018553               0.000584767               0.999999993              -0.000003543               0.000583006               0.999999993               0.000002290               0.000583881               0.999999993               0.000003786               0.000589788               0.999999993               0.000002800               0.000600644               0.999999993               0.000000146               0.000615797               0.999999993              -0.000003595               0.000634519               0.999999993              -0.000007605               0.000656151               0.999999993              -0.000011634               0.000680017               0.999999993              -0.000015536               0.000705737               0.999999993              -0.000019172               0.000732915               0.999999993              -0.000022479               0.000761174               0.999999993              -0.000025413               0.000790216               0.999999993              -0.000027623               0.000819849               0.999999993              -0.000028717               0.000849965               0.999999993              -0.000028325               0.000880429               0.999999993              -0.000025915               0.000911158               0.999999993              -0.000009342               0.000593471               0.999999993              -0.000001595               0.000595698               0.999999993               0.000001612               0.000598608               0.999999993               0.000002565               0.000605283               0.999999993               0.000002229               0.000616103               0.999999993               0.000000979               0.000630830               0.999999993              -0.000000892               0.000648972               0.999999993              -0.000002868               0.000669921               0.999999993              -0.000004906               0.000693192               0.999999993              -0.000006843               0.000718438               0.999999993              -0.000008700               0.000745262               0.999999993              -0.000010422               0.000773401               0.999999993              -0.000011892               0.000802524               0.999999993              -0.000012949               0.000832385               0.999999993              -0.000013250               0.000862805               0.999999993              -0.000012424               0.000893561               0.999999993              -0.000010076               0.000924386               0.999999993               0.000000000               0.000596397               0.999999993               0.000000000               0.000600022               0.999999993               0.000000000               0.000603637               0.999999993               0.000000000               0.000610585               0.999999993               0.000000000               0.000621452               0.999999993               0.000000000               0.000636039               0.999999993               0.000000000               0.000654004               0.999999993               0.000000000               0.000674802               0.999999993               0.000000000               0.000697877               0.999999993               0.000000000               0.000722912               0.999999993               0.000000000               0.000749658               0.999999993              -0.000000000               0.000777809               0.999999993              -0.000000000               0.000807086               0.999999993              -0.000000000               0.000837284               0.999999993               0.000000000               0.000868126               0.999999993               0.000000000               0.000899296               0.999999993               0.000000000               0.000930335               0.999999993              -0.000100895               0.000000000               0.999999993              -0.000124398               0.000000000               0.999999993              -0.000135449               0.000000000               0.999999993              -0.000141801               0.000000000               0.999999993              -0.000146576               0.000000000               0.999999993              -0.000151153               0.000000000               0.999999993              -0.000156197              -0.000000000               0.999999993              -0.000161954               0.000000000               0.999999993              -0.000168588               0.000000000               0.999999993              -0.000176092               0.000000000               0.999999993              -0.000184529              -0.000000000               0.999999993              -0.000193815               0.000000000               0.999999993              -0.000203909               0.000000000               0.999999993              -0.000214829               0.000000000               0.999999993              -0.000226498               0.000000000               0.999999993              -0.000238824               0.000000000               0.999999993              -0.000251699               0.000000000               0.999999993              -0.000100293              -0.000058884               0.999999993              -0.000122646              -0.000051298               0.999999993              -0.000133007              -0.000048925               0.999999993              -0.000138946              -0.000049435               0.999999993              -0.000143490              -0.000051542               0.999999993              -0.000147975              -0.000054874               0.999999993              -0.000153052              -0.000059002               0.999999993              -0.000158948              -0.000063657               0.999999993              -0.000165679              -0.000068540               0.999999993              -0.000173217              -0.000073634               0.999999993              -0.000181621              -0.000078889               0.999999993              -0.000190886              -0.000084175               0.999999993              -0.000200979              -0.000089412               0.999999993              -0.000211860              -0.000094572               0.999999993              -0.000223502              -0.000099533               0.999999993              -0.000235831              -0.000104131               0.999999993              -0.000248737              -0.000107916               0.999999993              -0.000098572              -0.000117198               0.999999993              -0.000117523              -0.000102046               0.999999993              -0.000125910              -0.000097673               0.999999993              -0.000130831              -0.000099005               0.999999993              -0.000134938              -0.000103608               0.999999993              -0.000139394              -0.000110485               0.999999993              -0.000144621              -0.000118832               0.999999993              -0.000150731              -0.000128012               0.999999993              -0.000157693              -0.000137733               0.999999993              -0.000165431              -0.000147895               0.999999993              -0.000173956              -0.000158383               0.999999993              -0.000183267              -0.000169031               0.999999993              -0.000193387              -0.000179738               0.999999993              -0.000204305              -0.000190412               0.999999993              -0.000215980              -0.000200872               0.999999993              -0.000228321              -0.000210780               0.999999993              -0.000241246              -0.000219698               0.999999993              -0.000095664              -0.000174351               0.999999993              -0.000109194              -0.000151818               0.999999993              -0.000114802              -0.000146103               0.999999993              -0.000118491              -0.000148830               0.999999993              -0.000122296              -0.000156355               0.999999993              -0.000126998              -0.000166959               0.999999993              -0.000132715              -0.000179541               0.999999993              -0.000139387              -0.000193291               0.999999993              -0.000146920              -0.000207810               0.999999993              -0.000155238              -0.000222931               0.999999993              -0.000164356              -0.000238620               0.999999993              -0.000174205              -0.000254632               0.999999993              -0.000184787              -0.000270882               0.999999993              -0.000196127              -0.000287339               0.999999993              -0.000208112              -0.000303615               0.999999993              -0.000220610              -0.000319377               0.999999993              -0.000233570              -0.000334296               0.999999993              -0.000091545              -0.000229681               0.999999993              -0.000098045              -0.000200363               0.999999993              -0.000100654              -0.000194074               0.999999993              -0.000103376              -0.000198757               0.999999993              -0.000107359              -0.000209467               0.999999993              -0.000112752              -0.000223937               0.999999993              -0.000119402              -0.000240807               0.999999993              -0.000127084              -0.000259080               0.999999993              -0.000135643              -0.000278283               0.999999993              -0.000144949              -0.000298323               0.999999993              -0.000154995              -0.000319093               0.999999993              -0.000165712              -0.000340383               0.999999993              -0.000177054              -0.000362141               0.999999993              -0.000188942              -0.000384223               0.999999993              -0.000201311              -0.000406191               0.999999993              -0.000214021              -0.000427754               0.999999993              -0.000226980              -0.000448599               0.999999993              -0.000086350              -0.000282542               0.999999993              -0.000084872              -0.000247441               0.999999993              -0.000084888              -0.000241314               0.999999993              -0.000087366              -0.000248323               0.999999993              -0.000092151              -0.000262443               0.999999993              -0.000098735              -0.000280820               0.999999993              -0.000106628              -0.000301916               0.999999993              -0.000115618              -0.000324637               0.999999993              -0.000125454              -0.000348456               0.999999993              -0.000135958              -0.000373268               0.999999993              -0.000147101              -0.000398940               0.999999993              -0.000158786              -0.000425244               0.999999993              -0.000170972              -0.000452277               0.999999993              -0.000183545              -0.000479619               0.999999993              -0.000196374              -0.000506897               0.999999993              -0.000209374              -0.000533758               0.999999993              -0.000222459              -0.000560130               0.999999993              -0.000080279              -0.000332382               0.999999993              -0.000070633              -0.000292822               0.999999993              -0.000068887              -0.000287500               0.999999993              -0.000071974              -0.000297104               0.999999993              -0.000078043              -0.000314640               0.999999993              -0.000086127              -0.000336849               0.999999993              -0.000095624              -0.000362091               0.999999993              -0.000106116              -0.000389191               0.999999993              -0.000117298              -0.000417534               0.999999993              -0.000129046              -0.000446855               0.999999993              -0.000141313              -0.000477116               0.999999993              -0.000154044              -0.000508195               0.999999993              -0.000167172              -0.000539965               0.999999993              -0.000180558              -0.000572071               0.999999993              -0.000193989              -0.000603995               0.999999993              -0.000207363              -0.000635479               0.999999993              -0.000220562              -0.000666494               0.999999993              -0.000073558              -0.000378656               0.999999993              -0.000056171              -0.000336342               0.999999993              -0.000053655              -0.000332274               0.999999993              -0.000057960              -0.000344599               0.999999993              -0.000065718              -0.000365473               0.999999993              -0.000075684              -0.000391477               0.999999993              -0.000086948              -0.000420629               0.999999993              -0.000098962              -0.000451863               0.999999993              -0.000111480              -0.000484480               0.999999993              -0.000124392              -0.000518099               0.999999993              -0.000137817              -0.000552786               0.999999993              -0.000151646              -0.000588255               0.999999993              -0.000165721              -0.000624394               0.999999993              -0.000179776              -0.000660725               0.999999993              -0.000193605              -0.000696632               0.999999993              -0.000207044              -0.000732041               0.999999993              -0.000220023              -0.000766722               0.999999993              -0.000066584              -0.000420589               0.999999993              -0.000041978              -0.000377953               0.999999993              -0.000039941              -0.000375264               0.999999993              -0.000045945              -0.000390164               0.999999993              -0.000055802              -0.000414296               0.999999993              -0.000067754              -0.000443887               0.999999993              -0.000080617              -0.000476816               0.999999993              -0.000093919              -0.000512043               0.999999993              -0.000107525              -0.000548757               0.999999993              -0.000121633              -0.000586644               0.999999993              -0.000136078              -0.000625612               0.999999993              -0.000150785              -0.000665299               0.999999993              -0.000165483              -0.000705318               0.999999993              -0.000179798              -0.000745183               0.999999993              -0.000193627              -0.000784523               0.999999993              -0.000207060              -0.000823249               0.999999993              -0.000220148              -0.000861361               0.999999993              -0.000059944              -0.000459691               0.999999993              -0.000031169              -0.000421676               0.999999993              -0.000027104              -0.000415454               0.999999993              -0.000031911              -0.000426098               0.999999993              -0.000040608              -0.000446216               0.999999993              -0.000051463              -0.000472081               0.999999993              -0.000063205              -0.000501525               0.999999993              -0.000075288              -0.000533382               0.999999993              -0.000087537              -0.000566977               0.999999993              -0.000099978              -0.000601913               0.999999993              -0.000112580              -0.000637866               0.999999993              -0.000125463              -0.000674679               0.999999993              -0.000138428              -0.000712034               0.999999993              -0.000151192              -0.000749575               0.999999993              -0.000163561              -0.000787047               0.999999993              -0.000175529              -0.000824101               0.999999993              -0.000187434              -0.000860725               0.999999993              -0.000052510              -0.000494771               0.999999993              -0.000022293              -0.000463206               0.999999993              -0.000016273              -0.000455791               0.999999993              -0.000019345              -0.000463173               0.999999993              -0.000026540              -0.000479776               0.999999993              -0.000036013              -0.000502330               0.999999993              -0.000046562              -0.000528652               0.999999993              -0.000057367              -0.000557473               0.999999993              -0.000068211              -0.000588130               0.999999993              -0.000078986              -0.000620205               0.999999993              -0.000089716              -0.000653474               0.999999993              -0.000100537              -0.000687567               0.999999993              -0.000111403              -0.000722334               0.999999993              -0.000122239              -0.000757404               0.999999993              -0.000132584              -0.000792685               0.999999993              -0.000142367              -0.000827900               0.999999993              -0.000151790              -0.000863015               0.999999993              -0.000044572              -0.000525152               0.999999993              -0.000015293              -0.000501396               0.999999993              -0.000007811              -0.000494695               0.999999993              -0.000009067              -0.000500060               0.999999993              -0.000014421              -0.000513944               0.999999993              -0.000022307              -0.000533685               0.999999993              -0.000031485              -0.000557320               0.999999993              -0.000040878              -0.000583601               0.999999993              -0.000050192              -0.000611805               0.999999993              -0.000059273              -0.000641499               0.999999993              -0.000068073              -0.000672385               0.999999993              -0.000076756              -0.000704188               0.999999993              -0.000085473              -0.000736615               0.999999993              -0.000094038              -0.000769471               0.999999993              -0.000102066              -0.000802580               0.999999993              -0.000109119              -0.000835838               0.999999993              -0.000115308              -0.000869205               0.999999993              -0.000036225              -0.000550458               0.999999993              -0.000010049              -0.000534863               0.999999993              -0.000001961              -0.000530277               0.999999993              -0.000001644              -0.000535051               0.999999993              -0.000005225              -0.000547023               0.999999993              -0.000011351              -0.000564551               0.999999993              -0.000018815              -0.000586043               0.999999993              -0.000026602              -0.000610372               0.999999993              -0.000034302              -0.000636677               0.999999993              -0.000041665              -0.000664582               0.999999993              -0.000048643              -0.000693671               0.999999993              -0.000055401              -0.000723586               0.999999993              -0.000061918              -0.000754172               0.999999993              -0.000068077              -0.000785281               0.999999993              -0.000073492              -0.000816771               0.999999993              -0.000077637              -0.000848502               0.999999993              -0.000080117              -0.000880434               0.999999993              -0.000027542              -0.000570387               0.999999993              -0.000006236              -0.000562448               0.999999993               0.000001295              -0.000560585               0.999999993               0.000002577              -0.000565705               0.999999993               0.000000540              -0.000576803               0.999999993              -0.000003764              -0.000592853               0.999999993              -0.000009397              -0.000612726               0.999999993              -0.000015390              -0.000635442               0.999999993              -0.000021357              -0.000660340               0.999999993              -0.000027015              -0.000686926               0.999999993              -0.000032327              -0.000714758               0.999999993              -0.000037312              -0.000743523               0.999999993              -0.000041888              -0.000772964               0.999999993              -0.000045778              -0.000802958               0.999999993              -0.000048629              -0.000833522               0.999999993              -0.000050097              -0.000864405               0.999999993              -0.000049429              -0.000895505               0.999999993              -0.000018553              -0.000584767               0.999999993              -0.000003543              -0.000583006               0.999999993               0.000002290              -0.000583881               0.999999993               0.000003786              -0.000589788               0.999999993               0.000002800              -0.000600644               0.999999993               0.000000146              -0.000615797               0.999999993              -0.000003595              -0.000634519               0.999999993              -0.000007605              -0.000656151               0.999999993              -0.000011634              -0.000680017               0.999999993              -0.000015536              -0.000705737               0.999999993              -0.000019172              -0.000732915               0.999999993              -0.000022479              -0.000761174               0.999999993              -0.000025413              -0.000790216               0.999999993              -0.000027623              -0.000819849               0.999999993              -0.000028717              -0.000849965               0.999999993              -0.000028325              -0.000880429               0.999999993              -0.000025915              -0.000911158               0.999999993              -0.000009342              -0.000593471               0.999999993              -0.000001595              -0.000595698               0.999999993               0.000001612              -0.000598608               0.999999993               0.000002565              -0.000605283               0.999999993               0.000002229              -0.000616103               0.999999993               0.000000979              -0.000630830               0.999999993              -0.000000892              -0.000648972               0.999999993              -0.000002868              -0.000669921               0.999999993              -0.000004906              -0.000693192               0.999999993              -0.000006843              -0.000718438               0.999999993              -0.000008700              -0.000745262               0.999999993              -0.000010422              -0.000773401               0.999999993              -0.000011892              -0.000802524               0.999999993              -0.000012949              -0.000832385               0.999999993              -0.000013250              -0.000862805               0.999999993              -0.000012424              -0.000893561               0.999999993              -0.000010076              -0.000924386               0.999999993              -0.000000000              -0.000596397               0.999999993               0.000000000              -0.000600022               0.999999993              -0.000000000              -0.000603637               0.999999993               0.000000000              -0.000610585               0.999999993              -0.000000000              -0.000621452               0.999999993               0.000000000              -0.000636039               0.999999993               0.000000000              -0.000654004               0.999999993              -0.000000000              -0.000674802               0.999999993              -0.000000000              -0.000697877               0.999999993              -0.000000000              -0.000722912               0.999999993               0.000000000              -0.000749658               0.999999993              -0.000000000              -0.000777809               0.999999993              -0.000000000              -0.000807086               0.999999993               0.000000000              -0.000837284               0.999999993              -0.000000000              -0.000868126               0.999999993               0.000000000              -0.000899296               0.999999993               0.000000000              -0.000930335               0.999999993               0.000100895              -0.000000000               0.999999993               0.000124398               0.000000000               0.999999993               0.000135449              -0.000000000               0.999999993               0.000141801              -0.000000000               0.999999993               0.000146576               0.000000000               0.999999993               0.000151153              -0.000000000               0.999999993               0.000156197              -0.000000000               0.999999993               0.000161954               0.000000000               0.999999993               0.000168588               0.000000000               0.999999993               0.000176092               0.000000000               0.999999993               0.000184529              -0.000000000               0.999999993               0.000193815               0.000000000               0.999999993               0.000203909               0.000000000               0.999999993               0.000214829              -0.000000000               0.999999993               0.000226498              -0.000000000               0.999999993               0.000238824               0.000000000               0.999999993               0.000251699               0.000000000               0.999999993               0.000100293              -0.000058884               0.999999993               0.000122646              -0.000051298               0.999999993               0.000133007              -0.000048925               0.999999993               0.000138946              -0.000049435               0.999999993               0.000143490              -0.000051542               0.999999993               0.000147975              -0.000054874               0.999999993               0.000153052              -0.000059002               0.999999993               0.000158948              -0.000063657               0.999999993               0.000165679              -0.000068540               0.999999993               0.000173217              -0.000073634               0.999999993               0.000181621              -0.000078889               0.999999993               0.000190886              -0.000084175               0.999999993               0.000200979              -0.000089412               0.999999993               0.000211860              -0.000094572               0.999999993               0.000223502              -0.000099533               0.999999993               0.000235831              -0.000104131               0.999999993               0.000248737              -0.000107916               0.999999993               0.000098572              -0.000117198               0.999999993               0.000117523              -0.000102046               0.999999993               0.000125910              -0.000097673               0.999999993               0.000130831              -0.000099005               0.999999993               0.000134938              -0.000103608               0.999999993               0.000139394              -0.000110485               0.999999993               0.000144621              -0.000118832               0.999999993               0.000150731              -0.000128012               0.999999993               0.000157693              -0.000137733               0.999999993               0.000165431              -0.000147895               0.999999993               0.000173956              -0.000158383               0.999999993               0.000183267              -0.000169031               0.999999993               0.000193387              -0.000179738               0.999999993               0.000204305              -0.000190412               0.999999993               0.000215980              -0.000200872               0.999999993               0.000228321              -0.000210780               0.999999993               0.000241246              -0.000219698               0.999999993               0.000095664              -0.000174351               0.999999993               0.000109194              -0.000151818               0.999999993               0.000114802              -0.000146103               0.999999993               0.000118491              -0.000148830               0.999999993               0.000122296              -0.000156355               0.999999993               0.000126998              -0.000166959               0.999999993               0.000132715              -0.000179541               0.999999993               0.000139387              -0.000193291               0.999999993               0.000146920              -0.000207810               0.999999993               0.000155238              -0.000222931               0.999999993               0.000164356              -0.000238620               0.999999993               0.000174205              -0.000254632               0.999999993               0.000184787              -0.000270882               0.999999993               0.000196127              -0.000287339               0.999999993               0.000208112              -0.000303615               0.999999993               0.000220610              -0.000319377               0.999999993               0.000233570              -0.000334296               0.999999993               0.000091545              -0.000229681               0.999999993               0.000098045              -0.000200363               0.999999993               0.000100654              -0.000194074               0.999999993               0.000103376              -0.000198757               0.999999993               0.000107359              -0.000209467               0.999999993               0.000112752              -0.000223937               0.999999993               0.000119402              -0.000240807               0.999999993               0.000127084              -0.000259080               0.999999993               0.000135643              -0.000278283               0.999999993               0.000144949              -0.000298323               0.999999993               0.000154995              -0.000319093               0.999999993               0.000165712              -0.000340383               0.999999993               0.000177054              -0.000362141               0.999999993               0.000188942              -0.000384223               0.999999993               0.000201311              -0.000406191               0.999999993               0.000214021              -0.000427754               0.999999993               0.000226980              -0.000448599               0.999999993               0.000086350              -0.000282542               0.999999993               0.000084872              -0.000247441               0.999999993               0.000084888              -0.000241314               0.999999993               0.000087366              -0.000248323               0.999999993               0.000092151              -0.000262443               0.999999993               0.000098735              -0.000280820               0.999999993               0.000106628              -0.000301916               0.999999993               0.000115618              -0.000324637               0.999999993               0.000125454              -0.000348456               0.999999993               0.000135958              -0.000373268               0.999999993               0.000147101              -0.000398940               0.999999993               0.000158786              -0.000425244               0.999999993               0.000170972              -0.000452277               0.999999993               0.000183545              -0.000479619               0.999999993               0.000196374              -0.000506897               0.999999993               0.000209374              -0.000533758               0.999999993               0.000222459              -0.000560130               0.999999993               0.000080279              -0.000332382               0.999999993               0.000070633              -0.000292822               0.999999993               0.000068887              -0.000287500               0.999999993               0.000071974              -0.000297104               0.999999993               0.000078043              -0.000314640               0.999999993               0.000086127              -0.000336849               0.999999993               0.000095624              -0.000362091               0.999999993               0.000106116              -0.000389191               0.999999993               0.000117298              -0.000417534               0.999999993               0.000129046              -0.000446855               0.999999993               0.000141313              -0.000477116               0.999999993               0.000154044              -0.000508195               0.999999993               0.000167172              -0.000539965               0.999999993               0.000180558              -0.000572071               0.999999993               0.000193989              -0.000603995               0.999999993               0.000207363              -0.000635479               0.999999993               0.000220562              -0.000666494               0.999999993               0.000073558              -0.000378656               0.999999993               0.000056171              -0.000336342               0.999999993               0.000053655              -0.000332274               0.999999993               0.000057960              -0.000344599               0.999999993               0.000065718              -0.000365473               0.999999993               0.000075684              -0.000391477               0.999999993               0.000086948              -0.000420629               0.999999993               0.000098962              -0.000451863               0.999999993               0.000111480              -0.000484480               0.999999993               0.000124392              -0.000518099               0.999999993               0.000137817              -0.000552786               0.999999993               0.000151646              -0.000588255               0.999999993               0.000165721              -0.000624394               0.999999993               0.000179776              -0.000660725               0.999999993               0.000193605              -0.000696632               0.999999993               0.000207044              -0.000732041               0.999999993               0.000220023              -0.000766722               0.999999993               0.000066584              -0.000420589               0.999999993               0.000041978              -0.000377953               0.999999993               0.000039941              -0.000375264               0.999999993               0.000045945              -0.000390164               0.999999993               0.000055802              -0.000414296               0.999999993               0.000067754              -0.000443887               0.999999993               0.000080617              -0.000476816               0.999999993               0.000093919              -0.000512043               0.999999993               0.000107525              -0.000548757               0.999999993               0.000121633              -0.000586644               0.999999993               0.000136078              -0.000625612               0.999999993               0.000150785              -0.000665299               0.999999993               0.000165483              -0.000705318               0.999999993               0.000179798              -0.000745183               0.999999993               0.000193627              -0.000784523               0.999999993               0.000207060              -0.000823249               0.999999993               0.000220148              -0.000861361               0.999999993               0.000059944              -0.000459691               0.999999993               0.000031169              -0.000421676               0.999999993               0.000027104              -0.000415454               0.999999993               0.000031911              -0.000426098               0.999999993               0.000040608              -0.000446216               0.999999993               0.000051463              -0.000472081               0.999999993               0.000063205              -0.000501525               0.999999993               0.000075288              -0.000533382               0.999999993               0.000087537              -0.000566977               0.999999993               0.000099978              -0.000601913               0.999999993               0.000112580              -0.000637866               0.999999993               0.000125463              -0.000674679               0.999999993               0.000138428              -0.000712034               0.999999993               0.000151192              -0.000749575               0.999999993               0.000163561              -0.000787047               0.999999993               0.000175529              -0.000824101               0.999999993               0.000187434              -0.000860725               0.999999993               0.000052510              -0.000494771               0.999999993               0.000022293              -0.000463206               0.999999993               0.000016273              -0.000455791               0.999999993               0.000019345              -0.000463173               0.999999993               0.000026540              -0.000479776               0.999999993               0.000036013              -0.000502330               0.999999993               0.000046562              -0.000528652               0.999999993               0.000057367              -0.000557473               0.999999993               0.000068211              -0.000588130               0.999999993               0.000078986              -0.000620205               0.999999993               0.000089716              -0.000653474               0.999999993               0.000100537              -0.000687567               0.999999993               0.000111403              -0.000722334               0.999999993               0.000122239              -0.000757404               0.999999993               0.000132584              -0.000792685               0.999999993               0.000142367              -0.000827900               0.999999993               0.000151790              -0.000863015               0.999999993               0.000044572              -0.000525152               0.999999993               0.000015293              -0.000501396               0.999999993               0.000007811              -0.000494695               0.999999993               0.000009067              -0.000500060               0.999999993               0.000014421              -0.000513944               0.999999993               0.000022307              -0.000533685               0.999999993               0.000031485              -0.000557320               0.999999993               0.000040878              -0.000583601               0.999999993               0.000050192              -0.000611805               0.999999993               0.000059273              -0.000641499               0.999999993               0.000068073              -0.000672385               0.999999993               0.000076756              -0.000704188               0.999999993               0.000085473              -0.000736615               0.999999993               0.000094038              -0.000769471               0.999999993               0.000102066              -0.000802580               0.999999993               0.000109119              -0.000835838               0.999999993               0.000115308              -0.000869205               0.999999993               0.000036225              -0.000550458               0.999999993               0.000010049              -0.000534863               0.999999993               0.000001961              -0.000530277               0.999999993               0.000001644              -0.000535051               0.999999993               0.000005225              -0.000547023               0.999999993               0.000011351              -0.000564551               0.999999993               0.000018815              -0.000586043               0.999999993               0.000026602              -0.000610372               0.999999993               0.000034302              -0.000636677               0.999999993               0.000041665              -0.000664582               0.999999993               0.000048643              -0.000693671               0.999999993               0.000055401              -0.000723586               0.999999993               0.000061918              -0.000754172               0.999999993               0.000068077              -0.000785281               0.999999993               0.000073492              -0.000816771               0.999999993               0.000077637              -0.000848502               0.999999993               0.000080117              -0.000880434               0.999999993               0.000027542              -0.000570387               0.999999993               0.000006236              -0.000562448               0.999999993              -0.000001295              -0.000560585               0.999999993              -0.000002577              -0.000565705               0.999999993              -0.000000540              -0.000576803               0.999999993               0.000003764              -0.000592853               0.999999993               0.000009397              -0.000612726               0.999999993               0.000015390              -0.000635442               0.999999993               0.000021357              -0.000660340               0.999999993               0.000027015              -0.000686926               0.999999993               0.000032327              -0.000714758               0.999999993               0.000037312              -0.000743523               0.999999993               0.000041888              -0.000772964               0.999999993               0.000045778              -0.000802958               0.999999993               0.000048629              -0.000833522               0.999999993               0.000050097              -0.000864405               0.999999993               0.000049429              -0.000895505               0.999999993               0.000018553              -0.000584767               0.999999993               0.000003543              -0.000583006               0.999999993              -0.000002290              -0.000583881               0.999999993              -0.000003786              -0.000589788               0.999999993              -0.000002800              -0.000600644               0.999999993              -0.000000146              -0.000615797               0.999999993               0.000003595              -0.000634519               0.999999993               0.000007605              -0.000656151               0.999999993               0.000011634              -0.000680017               0.999999993               0.000015536              -0.000705737               0.999999993               0.000019172              -0.000732915               0.999999993               0.000022479              -0.000761174               0.999999993               0.000025413              -0.000790216               0.999999993               0.000027623              -0.000819849               0.999999993               0.000028717              -0.000849965               0.999999993               0.000028325              -0.000880429               0.999999993               0.000025915              -0.000911158               0.999999993               0.000009342              -0.000593471               0.999999993               0.000001595              -0.000595698               0.999999993              -0.000001612              -0.000598608               0.999999993              -0.000002565              -0.000605283               0.999999993              -0.000002229              -0.000616103               0.999999993              -0.000000979              -0.000630830               0.999999993               0.000000892              -0.000648972               0.999999993               0.000002868              -0.000669921               0.999999993               0.000004906              -0.000693192               0.999999993               0.000006843              -0.000718438               0.999999993               0.000008700              -0.000745262               0.999999993               0.000010422              -0.000773401               0.999999993               0.000011892              -0.000802524               0.999999993               0.000012949              -0.000832385               0.999999993               0.000013250              -0.000862805               0.999999993               0.000012424              -0.000893561               0.999999993               0.000010076              -0.000924386               0.999999993              -0.000000000              -0.000596397               0.999999993               0.000000000              -0.000600022               0.999999993              -0.000000000              -0.000603637               0.999999993               0.000000000              -0.000610585               0.999999993              -0.000000000              -0.000621452               0.999999993               0.000000000              -0.000636039               0.999999993               0.000000000              -0.000654004               0.999999993              -0.000000000              -0.000674802               0.999999993              -0.000000000              -0.000697877               0.999999993              -0.000000000              -0.000722912               0.999999993               0.000000000              -0.000749658               0.999999993              -0.000000000              -0.000777809               0.999999993              -0.000000000              -0.000807086               0.999999993               0.000000000              -0.000837284               0.999999993              -0.000000000              -0.000868126               0.999999993               0.000000000              -0.000899296               0.999999993               0.000000000              -0.000930335               0.999999993               0.000100895              -0.000000000               0.999999993               0.000124398               0.000000000               0.999999993               0.000135449              -0.000000000               0.999999993               0.000141801              -0.000000000               0.999999993               0.000146576               0.000000000               0.999999993               0.000151153              -0.000000000               0.999999993               0.000156197              -0.000000000               0.999999993               0.000161954               0.000000000               0.999999993               0.000168588               0.000000000               0.999999993               0.000176092               0.000000000               0.999999993               0.000184529              -0.000000000               0.999999993               0.000193815               0.000000000               0.999999993               0.000203909               0.000000000               0.999999993               0.000214829              -0.000000000               0.999999993               0.000226498              -0.000000000               0.999999993               0.000238824               0.000000000               0.999999993               0.000251699               0.000000000               0.999999993               0.000100293               0.000058884               0.999999993               0.000122646               0.000051298               0.999999993               0.000133007               0.000048925               0.999999993               0.000138946               0.000049435               0.999999993               0.000143490               0.000051542               0.999999993               0.000147975               0.000054874               0.999999993               0.000153052               0.000059002               0.999999993               0.000158948               0.000063657               0.999999993               0.000165679               0.000068540               0.999999993               0.000173217               0.000073634               0.999999993               0.000181621               0.000078889               0.999999993               0.000190886               0.000084175               0.999999993               0.000200979               0.000089412               0.999999993               0.000211860               0.000094572               0.999999993               0.000223502               0.000099533               0.999999993               0.000235831               0.000104131               0.999999993               0.000248737               0.000107916               0.999999993               0.000098572               0.000117198               0.999999993               0.000117523               0.000102046               0.999999993               0.000125910               0.000097673               0.999999993               0.000130831               0.000099005               0.999999993               0.000134938               0.000103608               0.999999993               0.000139394               0.000110485               0.999999993               0.000144621               0.000118832               0.999999993               0.000150731               0.000128012               0.999999993               0.000157693               0.000137733               0.999999993               0.000165431               0.000147895               0.999999993               0.000173956               0.000158383               0.999999993               0.000183267               0.000169031               0.999999993               0.000193387               0.000179738               0.999999993               0.000204305               0.000190412               0.999999993               0.000215980               0.000200872               0.999999993               0.000228321               0.000210780               0.999999993               0.000241246               0.000219698               0.999999993               0.000095664               0.000174351               0.999999993               0.000109194               0.000151818               0.999999993               0.000114802               0.000146103               0.999999993               0.000118491               0.000148830               0.999999993               0.000122296               0.000156355               0.999999993               0.000126998               0.000166959               0.999999993               0.000132715               0.000179541               0.999999993               0.000139387               0.000193291               0.999999993               0.000146920               0.000207810               0.999999993               0.000155238               0.000222931               0.999999993               0.000164356               0.000238620               0.999999993               0.000174205               0.000254632               0.999999993               0.000184787               0.000270882               0.999999993               0.000196127               0.000287339               0.999999993               0.000208112               0.000303615               0.999999993               0.000220610               0.000319377               0.999999993               0.000233570               0.000334296               0.999999993               0.000091545               0.000229681               0.999999993               0.000098045               0.000200363               0.999999993               0.000100654               0.000194074               0.999999993               0.000103376               0.000198757               0.999999993               0.000107359               0.000209467               0.999999993               0.000112752               0.000223937               0.999999993               0.000119402               0.000240807               0.999999993               0.000127084               0.000259080               0.999999993               0.000135643               0.000278283               0.999999993               0.000144949               0.000298323               0.999999993               0.000154995               0.000319093               0.999999993               0.000165712               0.000340383               0.999999993               0.000177054               0.000362141               0.999999993               0.000188942               0.000384223               0.999999993               0.000201311               0.000406191               0.999999993               0.000214021               0.000427754               0.999999993               0.000226980               0.000448599               0.999999993               0.000086350               0.000282542               0.999999993               0.000084872               0.000247441               0.999999993               0.000084888               0.000241314               0.999999993               0.000087366               0.000248323               0.999999993               0.000092151               0.000262443               0.999999993               0.000098735               0.000280820               0.999999993               0.000106628               0.000301916               0.999999993               0.000115618               0.000324637               0.999999993               0.000125454               0.000348456               0.999999993               0.000135958               0.000373268               0.999999993               0.000147101               0.000398940               0.999999993               0.000158786               0.000425244               0.999999993               0.000170972               0.000452277               0.999999993               0.000183545               0.000479619               0.999999993               0.000196374               0.000506897               0.999999993               0.000209374               0.000533758               0.999999993               0.000222459               0.000560130               0.999999993               0.000080279               0.000332382               0.999999993               0.000070633               0.000292822               0.999999993               0.000068887               0.000287500               0.999999993               0.000071974               0.000297104               0.999999993               0.000078043               0.000314640               0.999999993               0.000086127               0.000336849               0.999999993               0.000095624               0.000362091               0.999999993               0.000106116               0.000389191               0.999999993               0.000117298               0.000417534               0.999999993               0.000129046               0.000446855               0.999999993               0.000141313               0.000477116               0.999999993               0.000154044               0.000508195               0.999999993               0.000167172               0.000539965               0.999999993               0.000180558               0.000572071               0.999999993               0.000193989               0.000603995               0.999999993               0.000207363               0.000635479               0.999999993               0.000220562               0.000666494               0.999999993               0.000073558               0.000378656               0.999999993               0.000056171               0.000336342               0.999999993               0.000053655               0.000332274               0.999999993               0.000057960               0.000344599               0.999999993               0.000065718               0.000365473               0.999999993               0.000075684               0.000391477               0.999999993               0.000086948               0.000420629               0.999999993               0.000098962               0.000451863               0.999999993               0.000111480               0.000484480               0.999999993               0.000124392               0.000518099               0.999999993               0.000137817               0.000552786               0.999999993               0.000151646               0.000588255               0.999999993               0.000165721               0.000624394               0.999999993               0.000179776               0.000660725               0.999999993               0.000193605               0.000696632               0.999999993               0.000207044               0.000732041               0.999999993               0.000220023               0.000766722               0.999999993               0.000066584               0.000420589               0.999999993               0.000041978               0.000377953               0.999999993               0.000039941               0.000375264               0.999999993               0.000045945               0.000390164               0.999999993               0.000055802               0.000414296               0.999999993               0.000067754               0.000443887               0.999999993               0.000080617               0.000476816               0.999999993               0.000093919               0.000512043               0.999999993               0.000107525               0.000548757               0.999999993               0.000121633               0.000586644               0.999999993               0.000136078               0.000625612               0.999999993               0.000150785               0.000665299               0.999999993               0.000165483               0.000705318               0.999999993               0.000179798               0.000745183               0.999999993               0.000193627               0.000784523               0.999999993               0.000207060               0.000823249               0.999999993               0.000220148               0.000861361               0.999999993               0.000059944               0.000459691               0.999999993               0.000031169               0.000421676               0.999999993               0.000027104               0.000415454               0.999999993               0.000031911               0.000426098               0.999999993               0.000040608               0.000446216               0.999999993               0.000051463               0.000472081               0.999999993               0.000063205               0.000501525               0.999999993               0.000075288               0.000533382               0.999999993               0.000087537               0.000566977               0.999999993               0.000099978               0.000601913               0.999999993               0.000112580               0.000637866               0.999999993               0.000125463               0.000674679               0.999999993               0.000138428               0.000712034               0.999999993               0.000151192               0.000749575               0.999999993               0.000163561               0.000787047               0.999999993               0.000175529               0.000824101               0.999999993               0.000187434               0.000860725               0.999999993               0.000052510               0.000494771               0.999999993               0.000022293               0.000463206               0.999999993               0.000016273               0.000455791               0.999999993               0.000019345               0.000463173               0.999999993               0.000026540               0.000479776               0.999999993               0.000036013               0.000502330               0.999999993               0.000046562               0.000528652               0.999999993               0.000057367               0.000557473               0.999999993               0.000068211               0.000588130               0.999999993               0.000078986               0.000620205               0.999999993               0.000089716               0.000653474               0.999999993               0.000100537               0.000687567               0.999999993               0.000111403               0.000722334               0.999999993               0.000122239               0.000757404               0.999999993               0.000132584               0.000792685               0.999999993               0.000142367               0.000827900               0.999999993               0.000151790               0.000863015               0.999999993               0.000044572               0.000525152               0.999999993               0.000015293               0.000501396               0.999999993               0.000007811               0.000494695               0.999999993               0.000009067               0.000500060               0.999999993               0.000014421               0.000513944               0.999999993               0.000022307               0.000533685               0.999999993               0.000031485               0.000557320               0.999999993               0.000040878               0.000583601               0.999999993               0.000050192               0.000611805               0.999999993               0.000059273               0.000641499               0.999999993               0.000068073               0.000672385               0.999999993               0.000076756               0.000704188               0.999999993               0.000085473               0.000736615               0.999999993               0.000094038               0.000769471               0.999999993               0.000102066               0.000802580               0.999999993               0.000109119               0.000835838               0.999999993               0.000115308               0.000869205               0.999999993               0.000036225               0.000550458               0.999999993               0.000010049               0.000534863               0.999999993               0.000001961               0.000530277               0.999999993               0.000001644               0.000535051               0.999999993               0.000005225               0.000547023               0.999999993               0.000011351               0.000564551               0.999999993               0.000018815               0.000586043               0.999999993               0.000026602               0.000610372               0.999999993               0.000034302               0.000636677               0.999999993               0.000041665               0.000664582               0.999999993               0.000048643               0.000693671               0.999999993               0.000055401               0.000723586               0.999999993               0.000061918               0.000754172               0.999999993               0.000068077               0.000785281               0.999999993               0.000073492               0.000816771               0.999999993               0.000077637               0.000848502               0.999999993               0.000080117               0.000880434               0.999999993               0.000027542               0.000570387               0.999999993               0.000006236               0.000562448               0.999999993              -0.000001295               0.000560585               0.999999993              -0.000002577               0.000565705               0.999999993              -0.000000540               0.000576803               0.999999993               0.000003764               0.000592853               0.999999993               0.000009397               0.000612726               0.999999993               0.000015390               0.000635442               0.999999993               0.000021357               0.000660340               0.999999993               0.000027015               0.000686926               0.999999993               0.000032327               0.000714758               0.999999993               0.000037312               0.000743523               0.999999993               0.000041888               0.000772964               0.999999993               0.000045778               0.000802958               0.999999993               0.000048629               0.000833522               0.999999993               0.000050097               0.000864405               0.999999993               0.000049429               0.000895505               0.999999993               0.000018553               0.000584767               0.999999993               0.000003543               0.000583006               0.999999993              -0.000002290               0.000583881               0.999999993              -0.000003786               0.000589788               0.999999993              -0.000002800               0.000600644               0.999999993              -0.000000146               0.000615797               0.999999993               0.000003595               0.000634519               0.999999993               0.000007605               0.000656151               0.999999993               0.000011634               0.000680017               0.999999993               0.000015536               0.000705737               0.999999993               0.000019172               0.000732915               0.999999993               0.000022479               0.000761174               0.999999993               0.000025413               0.000790216               0.999999993               0.000027623               0.000819849               0.999999993               0.000028717               0.000849965               0.999999993               0.000028325               0.000880429               0.999999993               0.000025915               0.000911158               0.999999993               0.000009342               0.000593471               0.999999993               0.000001595               0.000595698               0.999999993              -0.000001612               0.000598608               0.999999993              -0.000002565               0.000605283               0.999999993              -0.000002229               0.000616103               0.999999993              -0.000000979               0.000630830               0.999999993               0.000000892               0.000648972               0.999999993               0.000002868               0.000669921               0.999999993               0.000004906               0.000693192               0.999999993               0.000006843               0.000718438               0.999999993               0.000008700               0.000745262               0.999999993               0.000010422               0.000773401               0.999999993               0.000011892               0.000802524               0.999999993               0.000012949               0.000832385               0.999999993               0.000013250               0.000862805               0.999999993               0.000012424               0.000893561               0.999999993               0.000010076               0.000924386               0.999999993               0.000000000               0.000596397               0.999999993               0.000000000               0.000600022               0.999999993               0.000000000               0.000603637               0.999999993               0.000000000               0.000610585               0.999999993               0.000000000               0.000621452               0.999999993               0.000000000               0.000636039               0.999999993               0.000000000               0.000654004               0.999999993               0.000000000               0.000674802               0.999999993               0.000000000               0.000697877               0.999999993               0.000000000               0.000722912               0.999999993               0.000000000               0.000749658               0.999999993              -0.000000000               0.000777809               0.999999993              -0.000000000               0.000807086               0.999999993              -0.000000000               0.000837284               0.999999993               0.000000000               0.000868126               0.999999993               0.000000000               0.000899296               0.999999993               0.000000000               0.000930335               0.999999993 </DataArray>
<DataArray type="Float64"                                    Name="defo"                                                      NumberOfComponents=" 3" format="ascii">
             -0.000100895               0.000000000               0.999999993              -0.000124398               0.000000000               0.999999993              -0.000135449               0.000000000               0.999999993              -0.000141801               0.000000000               0.999999993              -0.000146576               0.000000000               0.999999993              -0.000151153               0.000000000               0.999999993              -0.000156197              -0.000000000               0.999999993              -0.000161954               0.000000000               0.999999993              -0.000168588               0.000000000               0.999999993              -0.000176092               0.000000000               0.999999993              -0.000184529              -0.000000000               0.999999993              -0.000193815               0.000000000               0.999999993              -0.000203909               0.000000000               0.999999993              -0.000214829               0.000000000               0.999999993              -0.000226498               0.000000000               0.999999993              -0.000238824               0.000000000               0.999999993              -0.000251699               0.000000000               0.999999993              -0.000100293               0.000058884               0.999999993              -0.000122646               0.000051298               0.999999993              -0.000133007               0.000048925               0.999999993              -0.000138946               0.000049435               0.999999993              -0.000143490               0.000051542               0.999999993              -0.000147975               0.000054874               0.999999993              -0.000153052               0.000059002               0.999999993              -0.000158948               0.000063657               0.999999993              -0.000165679               0.000068540               0.999999993              -0.000173217               0.000073634               0.999999993              -0.000181621               0.000078889               0.999999993              -0.000190886               0.000084175               0.999999993              -0.000200979               0.000089412               0.999999993              -0.000211860               0.000094572               0.999999993              -0.000223502               0.000099533               0.999999993              -0.000235831               0.000104131               0.999999993              -0.000248737               0.000107916               0.999999993              -0.000098572               0.000117198               0.999999993              -0.000117523               0.000102046               0.999999993              -0.000125910               0.000097673               0.999999993              -0.000130831               0.000099005               0.999999993              -0.000134938               0.000103608               0.999999993              -0.000139394               0.000110485               0.999999993              -0.000144621               0.000118832               0.999999993              -0.000150731               0.000128012               0.999999993              -0.000157693               0.000137733               0.999999993              -0.000165431               0.000147895               0.999999993              -0.000173956               0.000158383               0.999999993              -0.000183267               0.000169031               0.999999993              -0.000193387               0.000179738               0.999999993              -0.000204305               0.000190412               0.999999993              -0.000215980               0.000200872               0.999999993              -0.000228321               0.000210780               0.999999993              -0.000241246               0.000219698               0.999999993              -0.000095664               0.000174351               0.999999993              -0.000109194               0.000151818               0.999999993              -0.000114802               0.000146103               0.999999993              -0.000118491               0.000148830               0.999999993              -0.000122296               0.000156355               0.999999993              -0.000126998               0.000166959               0.999999993              -0.000132715               0.000179541               0.999999993              -0.000139387               0.000193291               0.999999993              -0.000146920               0.000207810               0.999999993              -0.000155238               0.000222931               0.999999993              -0.000164356               0.000238620               0.999999993              -0.000174205               0.000254632               0.999999993              -0.000184787               0.000270882               0.999999993              -0.000196127               0.000287339               0.999999993              -0.000208112               0.000303615               0.999999993              -0.000220610               0.000319377               0.999999993              -0.000233570               0.000334296               0.999999993              -0.000091545               0.000229681               0.999999993              -0.000098045               0.000200363               0.999999993              -0.000100654               0.000194074               0.999999993              -0.000103376               0.000198757               0.999999993              -0.000107359               0.000209467               0.999999993              -0.000112752               0.000223937               0.999999993              -0.000119402               0.000240807               0.999999993              -0.000127084               0.000259080               0.999999993              -0.000135643               0.000278283               0.999999993              -0.000144949               0.000298323               0.999999993              -0.000154995               0.000319093               0.999999993              -0.000165712               0.000340383               0.999999993              -0.000177054               0.000362141               0.999999993              -0.000188942               0.000384223               0.999999993              -0.000201311               0.000406191               0.999999993              -0.000214021               0.000427754               0.999999993              -0.000226980               0.000448599               0.999999993              -0.000086350               0.000282542               0.999999993              -0.000084872               0.000247441               0.999999993              -0.000084888               0.000241314               0.999999993              -0.000087366               0.000248323               0.999999993              -0.000092151               0.000262443               0.999999993              -0.000098735               0.000280820               0.999999993              -0.000106628               0.000301916               0.999999993              -0.000115618               0.000324637               0.999999993              -0.000125454               0.000348456               0.999999993              -0.000135958               0.000373268               0.999999993              -0.000147101               0.000398940               0.999999993              -0.000158786               0.000425244               0.999999993              -0.000170972               0.000452277               0.999999993              -0.000183545               0.000479619               0.999999993              -0.000196374               0.000506897               0.999999993              -0.000209374               0.000533758               0.999999993              -0.000222459               0.000560130               0.999999993              -0.000080279               0.000332382               0.999999993              -0.000070633               0.000292822               0.999999993              -0.000068887               0.000287500               0.999999993              -0.000071974               0.000297104               0.999999993              -0.000078043               0.000314640               0.999999993              -0.000086127               0.000336849               0.999999993              -0.000095624               0.000362091               0.999999993              -0.000106116               0.000389191               0.999999993              -0.000117298               0.000417534               0.999999993              -0.000129046               0.000446855               0.999999993              -0.000141313               0.000477116               0.999999993              -0.000154044               0.000508195               0.999999993              -0.000167172               0.000539965               0.999999993              -0.000180558               0.000572071               0.999999993              -0.000193989               0.000603995               0.999999993              -0.000207363               0.000635479               0.999999993              -0.000220562               0.000666494               0.999999993              -0.000073558               0.000378656               0.999999993              -0.000056171               0.000336342               0.999999993              -0.000053655               0.000332274               0.999999993              -0.000057960               0.000344599               0.999999993              -0.000065718               0.000365473               0.999999993              -0.000075684               0.000391477               0.999999993              -0.000086948               0.000420629               0.999999993              -0.000098962               0.000451863               0.999999993              -0.000111480               0.000484480               0.999999993              -0.000124392               0.000518099               0.999999993              -0.000137817               0.000552786               0.999999993              -0.000151646               0.000588255               0.999999993              -0.000165721               0.000624394               0.999999993              -0.000179776               0.000660725               0.999999993              -0.000193605               0.000696632               0.999999993              -0.000207044               0.000732041               0.999999993              -0.000220023               0.000766722               0.999999993              -0.000066584               0.000420589               0.999999993              -0.000041978               0.000377953               0.999999993              -0.000039941               0.000375264               0.999999993              -0.000045945               0.000390164               0.999999993              -0.000055802               0.000414296               0.999999993              -0.000067754               0.000443887               0.999999993              -0.000080617               0.000476816               0.999999993              -0.000093919               0.000512043               0.999999993              -0.000107525               0.000548757               0.999999993              -0.000121633               0.000586644               0.999999993              -0.000136078               0.000625612               0.999999993              -0.000150785               0.000665299               0.999999993              -0.000165483               0.000705318               0.999999993              -0.000179798               0.000745183               0.999999993              -0.000193627               0.000784523               0.999999993              -0.000207060               0.000823249               0.999999993              -0.000220148               0.000861361               0.999999993              -0.000059944               0.000459691               0.999999993              -0.000031169               0.000421676               0.999999993              -0.000027104               0.000415454               0.999999993              -0.000031911               0.000426098               0.999999993              -0.000040608               0.000446216               0.999999993              -0.000051463               0.000472081               0.999999993              -0.000063205               0.000501525               0.999999993              -0.000075288               0.000533382               0.999999993              -0.000087537               0.000566977               0.999999993              -0.000099978               0.000601913               0.999999993              -0.000112580               0.000637866               0.999999993              -0.000125463               0.000674679               0.999999993              -0.000138428               0.000712034               0.999999993              -0.000151192               0.000749575               0.999999993              -0.000163561               0.000787047               0.999999993              -0.000175529               0.000824101               0.999999993              -0.000187434               0.000860725               0.999999993              -0.000052510               0.000494771               0.999999993              -0.000022293               0.000463206               0.999999993              -0.000016273               0.000455791               0.999999993              -0.000019345               0.000463173               0.999999993              -0.000026540               0.000479776               0.999999993              -0.000036013               0.000502330               0.999999993              -0.000046562               0.000528652               0.999999993              -0.000057367               0.000557473               0.999999993              -0.000068211               0.000588130               0.999999993              -0.000078986               0.000620205               0.999999993              -0.000089716               0.000653474               0.999999993              -0.000100537               0.000687567               0.999999993              -0.000111403               0.000722334               0.999999993              -0.000122239               0.000757404               0.999999993              -0.000132584               0.000792685               0.999999993              -0.000142367               0.000827900               0.999999993              -0.000151790               0.000863015               0.999999993              -0.000044572               0.000525152               0.999999993              -0.000015293               0.000501396               0.999999993              -0.000007811               0.000494695               0.999999993              -0.000009067               0.000500060               0.999999993              -0.000014421               0.000513944               0.999999993              -0.000022307               0.000533685               0.999999993              -0.000031485               0.000557320               0.999999993              -0.000040878               0.000583601               0.999999993              -0.000050192               0.000611805               0.999999993              -0.000059273               0.000641499               0.999999993              -0.000068073               0.000672385               0.999999993              -0.000076756               0.000704188               0.999999993              -0.000085473               0.000736615               0.999999993              -0.000094038               0.000769471               0.999999993              -0.000102066               0.000802580               0.999999993              -0.000109119               0.000835838               0.999999993              -0.000115308               0.000869205               0.999999993              -0.000036225               0.000550458               0.999999993              -0.000010049               0.000534863               0.999999993              -0.000001961               0.000530277               0.999999993              -0.000001644               0.000535051               0.999999993              -0.000005225               0.000547023               0.999999993              -0.000011351               0.000564551               0.999999993              -0.000018815               0.000586043               0.999999993              -0.000026602               0.000610372               0.999999993              -0.000034302               0.000636677               0.999999993              -0.000041665               0.000664582               0.999999993              -0.000048643               0.000693671               0.999999993              -0.000055401               0.000723586               0.999999993              -0.000061918               0.000754172               0.999999993              -0.000068077               0.000785281               0.999999993              -0.000073492               0.000816771               0.999999993              -0.000077637               0.000848502               0.999999993              -0.000080117               0.000880434               0.999999993              -0.000027542               0.000570387               0.999999993              -0.000006236               0.000562448               0.999999993               0.000001295               0.000560585               0.999999993               0.000002577               0.000565705               0.999999993               0.000000540               0.000576803               0.999999993              -0.000003764               0.000592853               0.999999993              -0.000009397               0.000612726               0.999999993              -0.000015390               0.000635442               0.999999993              -0.000021357               0.000660340               0.999999993              -0.000027015               0.000686926               0.999999993              -0.000032327               0.000714758               0.999999993              -0.000037312               0.000743523               0.999999993              -0.000041888               0.000772964               0.999999993              -0.000045778               0.000802958               0.999999993              -0.000048629               0.000833522               0.999999993              -0.000050097               0.000864405               0.999999993              -0.000049429               0.000895505               0.999999993              -0.000018553               0.000584767               0.999999993              -0.000003543               0.000583006               0.999999993               0.000002290               0.000583881               0.999999993               0.000003786               0.000589788               0.999999993               0.000002800               0.000600644               0.999999993               0.000000146               0.000615797               0.999999993              -0.000003595               0.000634519               0.999999993              -0.000007605               0.000656151               0.999999993              -0.000011634               0.000680017               0.999999993              -0.000015536               0.000705737               0.999999993              -0.000019172               0.000732915               0.999999993              -0.000022479               0.000761174               0.999999993              -0.000025413               0.000790216               0.999999993              -0.000027623               0.000819849               0.999999993              -0.000028717               0.000849965               0.999999993              -0.000028325               0.000880429               0.999999993              -0.000025915               0.000911158               0.999999993              -0.000009342               0.000593471               0.999999993              -0.000001595               0.000595698               0.999999993               0.000001612               0.000598608               0.999999993               0.000002565               0.000605283               0.999999993               0.000002229               0.000616103               0.999999993               0.000000979               0.000630830               0.999999993              -0.000000892               0.000648972               0.999999993              -0.000002868               0.000669921               0.999999993              -0.000004906               0.000693192               0.999999993              -0.000006843               0.000718438               0.999999993              -0.000008700               0.000745262               0.999999993              -0.000010422               0.000773401               0.999999993              -0.000011892               0.000802524               0.999999993              -0.000012949               0.000832385               0.999999993              -0.000013250               0.000862805               0.999999993              -0.000012424               0.000893561               0.999999993              -0.000010076               0.000924386               0.999999993               0.000000000               0.000596397               0.999999993               0.000000000               0.000600022               0.999999993               0.000000000               0.000603637               0.999999993               0.000000000               0.000610585               0.999999993               0.000000000               0.000621452               0.999999993               0.000000000               0.000636039               0.999999993               0.000000000               0.000654004               0.999999993               0.000000000               0.000674802               0.999999993               0.000000000               0.000697877               0.999999993               0.000000000               0.000722912               0.999999993               0.000000000               0.000749658               0.999999993              -0.000000000               0.000777809               0.999999993              -0.000000000               0.000807086               0.999999993              -0.000000000               0.000837284               0.999999993               0.000000000               0.000868126               0.999999993               0.000000000               0.000899296               0.999999993               0.000000000               0.000930335               0.999999993              -0.000100895               0.000000000               0.999999993              -0.000124398               0.000000000               0.999999993              -0.000135449               0.000000000               0.999999993              -0.000141801               0.000000000               0.999999993              -0.000146576               0.000000000               0.999999993              -0.000151153               0.000000000               0.999999993              -0.000156197              -0.000000000               0.999999993              -0.000161954               0.000000000               0.999999993              -0.000168588               0.000000000               0.999999993              -0.000176092               0.000000000               0.999999993              -0.000184529              -0.000000000               0.999999993              -0.000193815               0.000000000               0.999999993              -0.000203909               0.000000000               0.999999993              -0.000214829               0.000000000               0.999999993              -0.000226498               0.000000000               0.999999993              -0.000238824               0.000000000               0.999999993              -0.000251699               0.000000000               0.999999993              -0.000100293              -0.000058884               0.999999993              -0.000122646              -0.000051298               0.999999993              -0.000133007              -0.000048925               0.999999993              -0.000138946              -0.000049435               0.999999993              -0.000143490              -0.000051542               0.999999993              -0.000147975              -0.000054874               0.999999993              -0.000153052              -0.000059002               0.999999993              -0.000158948              -0.000063657               0.999999993              -0.000165679              -0.000068540               0.999999993              -0.000173217              -0.000073634               0.999999993              -0.000181621              -0.000078889               0.999999993              -0.000190886              -0.000084175               0.999999993              -0.000200979              -0.000089412               0.999999993              -0.000211860              -0.000094572               0.999999993              -0.000223502              -0.000099533               0.999999993              -0.000235831              -0.000104131               0.999999993              -0.000248737              -0.000107916               0.999999993              -0.000098572              -0.000117198               0.999999993              -0.000117523              -0.000102046               0.999999993              -0.000125910              -0.000097673               0.999999993              -0.000130831              -0.000099005               0.999999993              -0.000134938              -0.000103608               0.999999993              -0.000139394              -0.000110485               0.999999993              -0.000144621              -0.000118832               0.999999993              -0.000150731              -0.000128012               0.999999993              -0.000157693              -0.000137733               0.999999993              -0.000165431              -0.000147895               0.999999993              -0.000173956              -0.000158383               0.999999993              -0.000183267              -0.000169031               0.999999993              -0.000193387              -0.000179738               0.999999993              -0.000204305              -0.000190412               0.999999993              -0.000215980              -0.000200872               0.999999993              -0.000228321              -0.000210780               0.999999993              -0.000241246              -0.000219698               0.999999993              -0.000095664              -0.000174351               0.999999993              -0.000109194              -0.000151818               0.999999993              -0.000114802              -0.000146103               0.999999993              -0.000118491              -0.000148830               0.999999993              -0.000122296              -0.000156355               0.999999993              -0.000126998              -0.000166959               0.999999993              -0.000132715              -0.000179541               0.999999993              -0.000139387              -0.000193291               0.999999993              -0.000146920              -0.000207810               0.999999993              -0.000155238              -0.000222931               0.999999993              -0.000164356              -0.000238620               0.999999993              -0.000174205              -0.000254632               0.999999993              -0.000184787              -0.000270882               0.999999993              -0.000196127              -0.000287339               0.999999993              -0.000208112              -0.000303615               0.999999993              -0.000220610              -0.000319377               0.999999993              -0.000233570              -0.000334296               0.999999993              -0.000091545              -0.000229681               0.999999993              -0.000098045              -0.000200363               0.999999993              -0.000100654              -0.000194074               0.999999993              -0.000103376              -0.000198757               0.999999993              -0.000107359              -0.000209467               0.999999993              -0.000112752              -0.000223937               0.999999993              -0.000119402              -0.000240807               0.999999993              -0.000127084              -0.000259080               0.999999993              -0.000135643              -0.000278283               0.999999993              -0.000144949              -0.000298323               0.999999993              -0.000154995              -0.000319093               0.999999993              -0.000165712              -0.000340383               0.999999993              -0.000177054              -0.000362141               0.999999993              -0.000188942              -0.000384223               0.999999993              -0.000201311              -0.000406191               0.999999993              -0.000214021              -0.000427754               0.999999993              -0.000226980              -0.000448599               0.999999993              -0.000086350              -0.000282542               0.999999993              -0.000084872              -0.000247441               0.999999993              -0.000084888              -0.000241314               0.999999993              -0.000087366              -0.000248323               0.999999993              -0.000092151              -0.000262443               0.999999993              -0.000098735              -0.000280820               0.999999993              -0.000106628              -0.000301916               0.999999993              -0.000115618              -0.000324637               0.999999993              -0.000125454              -0.000348456               0.999999993              -0.000135958              -0.000373268               0.999999993              -0.000147101              -0.000398940               0.999999993              -0.000158786              -0.000425244               0.999999993              -0.000170972              -0.000452277               0.999999993              -0.000183545              -0.000479619               0.999999993              -0.000196374              -0.000506897               0.999999993              -0.000209374              -0.000533758               0.999999993              -0.000222459              -0.000560130               0.999999993              -0.000080279              -0.000332382               0.999999993              -0.000070633              -0.000292822               0.999999993              -0.000068887              -0.000287500               0.999999993              -0.000071974              -0.000297104               0.999999993              -0.000078043              -0.000314640               0.999999993              -0.000086127              -0.000336849               0.999999993              -0.000095624              -0.000362091               0.999999993              -0.000106116              -0.000389191               0.999999993              -0.000117298              -0.000417534               0.999999993              -0.000129046              -0.000446855               0.999999993              -0.000141313              -0.000477116               0.999999993              -0.000154044              -0.000508195               0.999999993              -0.000167172              -0.000539965               0.999999993              -0.000180558              -0.000572071               0.999999993              -0.000193989              -0.000603995               0.999999993              -0.000207363              -0.000635479               0.999999993              -0.000220562              -0.000666494               0.999999993              -0.000073558              -0.000378656               0.999999993              -0.000056171              -0.000336342               0.999999993              -0.000053655              -0.000332274               0.999999993              -0.000057960              -0.000344599               0.999999993              -0.000065718              -0.000365473               0.999999993              -0.000075684              -0.000391477               0.999999993              -0.000086948              -0.000420629               0.999999993              -0.000098962              -0.000451863               0.999999993              -0.000111480              -0.000484480               0.999999993              -0.000124392              -0.000518099               0.999999993              -0.000137817              -0.000552786               0.999999993              -0.000151646              -0.000588255               0.999999993              -0.000165721              -0.000624394               0.999999993              -0.000179776              -0.000660725               0.999999993              -0.000193605              -0.000696632               0.999999993              -0.000207044              -0.000732041               0.999999993              -0.000220023              -0.000766722               0.999999993              -0.000066584              -0.000420589               0.999999993              -0.000041978              -0.000377953               0.999999993              -0.000039941              -0.000375264               0.999999993              -0.000045945              -0.000390164               0.999999993              -0.000055802              -0.000414296               0.999999993              -0.000067754              -0.000443887               0.999999993              -0.000080617              -0.000476816               0.999999993              -0.000093919              -0.000512043               0.999999993              -0.000107525              -0.000548757               0.999999993              -0.000121633              -0.000586644               0.999999993              -0.000136078              -0.000625612               0.999999993              -0.000150785              -0.000665299               0.999999993              -0.000165483              -0.000705318               0.999999993              -0.000179798              -0.000745183               0.999999993              -0.000193627              -0.000784523               0.999999993              -0.000207060              -0.000823249               0.999999993              -0.000220148              -0.000861361               0.999999993              -0.000059944              -0.000459691               0.999999993              -0.000031169              -0.000421676               0.999999993              -0.000027104              -0.000415454               0.999999993              -0.000031911              -0.000426098               0.999999993              -0.000040608              -0.000446216               0.999999993              -0.000051463              -0.000472081               0.999999993              -0.000063205              -0.000501525               0.999999993              -0.000075288              -0.000533382               0.999999993              -0.000087537              -0.000566977               0.999999993              -0.000099978              -0.000601913               0.999999993              -0.000112580              -0.000637866               0.999999993              -0.000125463              -0.000674679               0.999999993              -0.000138428              -0.000712034               0.999999993              -0.000151192              -0.000749575               0.999999993              -0.000163561              -0.000787047               0.999999993              -0.000175529              -0.000824101               0.999999993              -0.000187434              -0.000860725               0.999999993              -0.000052510              -0.000494771               0.999999993              -0.000022293              -0.000463206               0.999999993              -0.000016273              -0.000455791               0.999999993              -0.000019345              -0.000463173               0.999999993              -0.000026540              -0.000479776               0.999999993              -0.000036013              -0.000502330               0.999999993              -0.000046562              -0.000528652               0.999999993              -0.000057367              -0.000557473               0.999999993              -0.000068211              -0.000588130               0.999999993              -0.000078986              -0.000620205               0.999999993              -0.000089716              -0.000653474               0.999999993              -0.000100537              -0.000687567               0.999999993              -0.000111403              -0.000722334               0.999999993              -0.000122239              -0.000757404               0.999999993              -0.000132584              -0.000792685               0.999999993              -0.000142367              -0.000827900               0.999999993              -0.000151790              -0.000863015               0.999999993              -0.000044572              -0.000525152               0.999999993              -0.000015293              -0.000501396               0.999999993              -0.000007811              -0.000494695               0.999999993              -0.000009067              -0.000500060               0.999999993              -0.000014421              -0.000513944               0.999999993              -0.000022307              -0.000533685               0.999999993              -0.000031485              -0.000557320               0.999999993              -0.000040878              -0.000583601               0.999999993              -0.000050192              -0.000611805               0.999999993              -0.000059273              -0.000641499               0.999999993              -0.000068073              -0.000672385               0.999999993              -0.000076756              -0.000704188               0.999999993              -0.000085473              -0.000736615               0.999999993              -0.000094038              -0.000769471               0.999999993              -0.000102066              -0.000802580               0.999999993              -0.000109119              -0.000835838               0.999999993              -0.000115308              -0.000869205               0.999999993              -0.000036225              -0.000550458               0.999999993              -0.000010049              -0.000534863               0.999999993              -0.000001961              -0.000530277               0.999999993              -0.000001644              -0.000535051               0.999999993              -0.000005225              -0.000547023               0.999999993              -0.000011351              -0.000564551               0.999999993              -0.000018815              -0.000586043               0.999999993              -0.000026602              -0.000610372               0.999999993              -0.000034302              -0.000636677               0.999999993              -0.000041665              -0.000664582               0.999999993              -0.000048643              -0.000693671               0.999999993              -0.000055401              -0.000723586               0.999999993              -0.000061918              -0.000754172               0.999999993              -0.000068077              -0.000785281               0.999999993              -0.000073492              -0.000816771               0.999999993              -0.000077637              -0.000848502               0.999999993              -0.000080117              -0.000880434               0.999999993              -0.000027542              -0.000570387               0.999999993              -0.000006236              -0.000562448               0.999999993               0.000001295              -0.000560585               0.999999993               0.000002577              -0.000565705               0.999999993               0.000000540              -0.000576803               0.999999993              -0.000003764              -0.000592853               0.999999993              -0.000009397              -0.000612726               0.999999993              -0.000015390              -0.000635442               0.999999993              -0.000021357              -0.000660340               0.999999993              -0.000027015              -0.000686926               0.999999993              -0.000032327              -0.000714758               0.999999993              -0.000037312              -0.000743523               0.999999993              -0.000041888              -0.000772964               0.999999993              -0.000045778              -0.000802958               0.999999993              -0.000048629              -0.000833522               0.999999993              -0.000050097              -0.000864405               0.999999993              -0.000049429              -0.000895505               0.999999993              -0.000018553              -0.000584767               0.999999993              -0.000003543              -0.000583006               0.999999993               0.000002290              -0.000583881               0.999999993               0.000003786              -0.000589788               0.999999993               0.000002800              -0.000600644               0.999999993               0.000000146              -0.000615797               0.999999993              -0.000003595              -0.000634519               0.999999993              -0.000007605              -0.000656151               0.999999993              -0.000011634              -0.000680017               0.999999993              -0.000015536              -0.000705737               0.999999993              -0.000019172              -0.000732915               0.999999993              -0.000022479              -0.000761174               0.999999993              -0.000025413              -0.000790216               0.999999993              -0.000027623              -0.000819849               0.999999993              -0.000028717              -0.000849965               0.999999993              -0.000028325              -0.000880429               0.999999993              -0.000025915              -0.000911158               0.999999993              -0.000009342              -0.000593471               0.999999993              -0.000001595              -0.000595698               0.999999993               0.000001612              -0.000598608               0.999999993               0.000002565              -0.000605283               0.999999993               0.000002229              -0.000616103               0.999999993               0.000000979              -0.000630830               0.999999993              -0.000000892              -0.000648972               0.999999993              -0.000002868              -0.000669921               0.999999993              -0.000004906              -0.000693192               0.999999993              -0.000006843              -0.000718438               0.999999993              -0.000008700              -0.000745262               0.999999993              -0.000010422              -0.000773401               0.999999993              -0.000011892              -0.000802524               0.999999993              -0.000012949              -0.000832385               0.999999993              -0.000013250              -0.000862805               0.999999993              -0.000012424              -0.000893561               0.999999993              -0.000010076              -0.000924386               0.999999993              -0.000000000              -0.000596397               0.999999993               0.000000000              -0.000600022               0.999999993              -0.000000000              -0.000603637               0.999999993               0.000000000              -0.000610585               0.999999993              -0.000000000              -0.000621452               0.999999993               0.000000000              -0.000636039               0.999999993               0.000000000              -0.000654004               0.999999993              -0.000000000              -0.000674802               0.999999993              -0.000000000              -0.000697877               0.999999993              -0.000000000              -0.000722912               0.999999993               0.000000000              -0.000749658               0.999999993              -0.000000000              -0.000777809               0.999999993              -0.000000000              -0.000807086               0.999999993               0.000000000              -0.000837284               0.999999993              -0.000000000              -0.000868126               0.999999993               0.000000000              -0.000899296               0.999999993               0.000000000              -0.000930335               0.999999993               0.000100895              -0.000000000               0.999999993               0.000124398               0.000000000               0.999999993               0.000135449              -0.000000000               0.999999993               0.000141801              -0.000000000               0.999999993               0.000146576               0.000000000               0.999999993               0.000151153              -0.000000000               0.999999993               0.000156197              -0.000000000               0.999999993               0.000161954               0.000000000               0.999999993               0.000168588               0.000000000               0.999999993               0.000176092               0.000000000               0.999999993               0.000184529              -0.000000000               0.999999993               0.000193815               0.000000000               0.999999993               0.000203909               0.000000000               0.999999993               0.000214829              -0.000000000               0.999999993               0.000226498              -0.000000000               0.999999993               0.000238824               0.000000000               0.999999993               0.000251699               0.000000000               0.999999993               0.000100293              -0.000058884               0.999999993               0.000122646              -0.000051298               0.999999993               0.000133007              -0.000048925               0.999999993               0.000138946              -0.000049435               0.999999993               0.000143490              -0.000051542               0.999999993               0.000147975              -0.000054874               0.999999993               0.000153052              -0.000059002               0.999999993               0.000158948              -0.000063657               0.999999993               0.000165679              -0.000068540               0.999999993               0.000173217              -0.000073634               0.999999993               0.000181621              -0.000078889               0.999999993               0.000190886              -0.000084175               0.999999993               0.000200979              -0.000089412               0.999999993               0.000211860              -0.000094572               0.999999993               0.000223502              -0.000099533               0.999999993               0.000235831              -0.000104131               0.999999993               0.000248737              -0.000107916               0.999999993               0.000098572              -0.000117198               0.999999993               0.000117523              -0.000102046               0.999999993               0.000125910              -0.000097673               0.999999993               0.000130831              -0.000099005               0.999999993               0.000134938              -0.000103608               0.999999993               0.000139394              -0.000110485               0.999999993               0.000144621              -0.000118832               0.999999993               0.000150731              -0.000128012               0.999999993               0.000157693              -0.000137733               0.999999993               0.000165431              -0.000147895               0.999999993               0.000173956              -0.000158383               0.999999993               0.000183267              -0.000169031               0.999999993               0.000193387              -0.000179738               0.999999993               0.000204305              -0.000190412               0.999999993               0.000215980              -0.000200872               0.999999993               0.000228321              -0.000210780               0.999999993               0.000241246              -0.000219698               0.999999993               0.000095664              -0.000174351               0.999999993               0.000109194              -0.000151818               0.999999993               0.000114802              -0.000146103               0.999999993               0.000118491              -0.000148830               0.999999993               0.000122296              -0.000156355               0.999999993               0.000126998              -0.000166959               0.999999993               0.000132715              -0.000179541               0.999999993               0.000139387              -0.000193291               0.999999993               0.000146920              -0.000207810               0.999999993               0.000155238              -0.000222931               0.999999993               0.000164356              -0.000238620               0.999999993               0.000174205              -0.000254632               0.999999993               0.000184787              -0.000270882               0.999999993               0.000196127              -0.000287339               0.999999993               0.000208112              -0.000303615               0.999999993               0.000220610              -0.000319377               0.999999993               0.000233570              -0.000334296               0.999999993               0.000091545              -0.000229681               0.999999993               0.000098045              -0.000200363               0.999999993               0.000100654              -0.000194074               0.999999993               0.000103376              -0.000198757               0.999999993               0.000107359              -0.000209467               0.999999993               0.000112752              -0.000223937               0.999999993               0.000119402              -0.000240807               0.999999993               0.000127084              -0.000259080               0.999999993               0.000135643              -0.000278283               0.999999993               0.000144949              -0.000298323               0.999999993               0.000154995              -0.000319093               0.999999993               0.000165712              -0.000340383               0.999999993               0.000177054              -0.000362141               0.999999993               0.000188942              -0.000384223               0.999999993               0.000201311              -0.000406191               0.999999993               0.000214021              -0.000427754               0.999999993               0.000226980              -0.000448599               0.999999993               0.000086350              -0.000282542               0.999999993               0.000084872              -0.000247441               0.999999993               0.000084888              -0.000241314               0.999999993               0.000087366              -0.000248323               0.999999993               0.000092151              -0.000262443               0.999999993               0.000098735              -0.000280820               0.999999993               0.000106628              -0.000301916               0.999999993               0.000115618              -0.000324637               0.999999993               0.000125454              -0.000348456               0.999999993               0.000135958              -0.000373268               0.999999993               0.000147101              -0.000398940               0.999999993               0.000158786              -0.000425244               0.999999993               0.000170972              -0.000452277               0.999999993               0.000183545              -0.000479619               0.999999993               0.000196374              -0.000506897               0.999999993               0.000209374              -0.000533758               0.999999993               0.000222459              -0.000560130               0.999999993               0.000080279              -0.000332382               0.999999993               0.000070633              -0.000292822               0.999999993               0.000068887              -0.000287500               0.999999993               0.000071974              -0.000297104               0.999999993               0.000078043              -0.000314640               0.999999993               0.000086127              -0.000336849               0.999999993               0.000095624              -0.000362091               0.999999993               0.000106116              -0.000389191               0.999999993               0.000117298              -0.000417534               0.999999993               0.000129046              -0.000446855               0.999999993               0.000141313              -0.000477116               0.999999993               0.000154044              -0.000508195               0.999999993               0.000167172              -0.000539965               0.999999993               0.000180558              -0.000572071               0.999999993               0.000193989              -0.000603995               0.999999993               0.000207363              -0.000635479               0.999999993               0.000220562              -0.000666494               0.999999993               0.000073558              -0.000378656               0.999999993               0.000056171              -0.000336342               0.999999993               0.000053655              -0.000332274               0.999999993               0.000057960              -0.000344599               0.999999993               0.000065718              -0.000365473               0.999999993               0.000075684              -0.000391477               0.999999993               0.000086948              -0.000420629               0.999999993               0.000098962              -0.000451863               0.999999993               0.000111480              -0.000484480               0.999999993               0.000124392              -0.000518099               0.999999993               0.000137817              -0.000552786               0.999999993               0.000151646              -0.000588255               0.999999993               0.000165721              -0.000624394               0.999999993               0.000179776              -0.000660725               0.999999993               0.000193605              -0.000696632               0.999999993               0.000207044              -0.000732041               0.999999993               0.000220023              -0.000766722               0.999999993               0.000066584              -0.000420589               0.999999993               0.000041978              -0.000377953               0.999999993               0.000039941              -0.000375264               0.999999993               0.000045945              -0.000390164               0.999999993               0.000055802              -0.000414296               0.999999993               0.000067754              -0.000443887               0.999999993               0.000080617              -0.000476816               0.999999993               0.000093919              -0.000512043               0.999999993               0.000107525              -0.000548757               0.999999993               0.000121633              -0.000586644               0.999999993               0.000136078              -0.000625612               0.999999993               0.000150785              -0.000665299               0.999999993               0.000165483              -0.000705318               0.999999993               0.000179798              -0.000745183               0.999999993               0.000193627              -0.000784523               0.999999993               0.000207060              -0.000823249               0.999999993               0.000220148              -0.000861361               0.999999993               0.000059944              -0.000459691               0.999999993               0.000031169              -0.000421676               0.999999993               0.000027104              -0.000415454               0.999999993               0.000031911              -0.000426098               0.999999993               0.000040608              -0.000446216               0.999999993               0.000051463              -0.000472081               0.999999993               0.000063205              -0.000501525               0.999999993               0.000075288              -0.000533382               0.999999993               0.000087537              -0.000566977               0.999999993               0.000099978              -0.000601913               0.999999993               0.000112580              -0.000637866               0.999999993               0.000125463              -0.000674679               0.999999993               0.000138428              -0.000712034               0.999999993               0.000151192              -0.000749575               0.999999993               0.000163561              -0.000787047               0.999999993               0.000175529              -0.000824101               0.999999993               0.000187434              -0.000860725               0.999999993               0.000052510              -0.000494771               0.999999993               0.000022293              -0.000463206               0.999999993               0.000016273              -0.000455791               0.999999993               0.000019345              -0.000463173               0.999999993               0.000026540              -0.000479776               0.999999993               0.000036013              -0.000502330               0.999999993               0.000046562              -0.000528652               0.999999993               0.000057367              -0.000557473               0.999999993               0.000068211              -0.000588130               0.999999993               0.000078986              -0.000620205               0.999999993               0.000089716              -0.000653474               0.999999993               0.000100537              -0.000687567               0.999999993               0.000111403              -0.000722334               0.999999993               0.000122239              -0.000757404               0.999999993               0.000132584              -0.000792685               0.999999993               0.000142367              -0.000827900               0.999999993               0.000151790              -0.000863015               0.999999993               0.000044572              -0.000525152               0.999999993               0.000015293              -0.000501396               0.999999993               0.000007811              -0.000494695               0.999999993               0.000009067              -0.000500060               0.999999993               0.000014421              -0.000513944               0.999999993               0.000022307              -0.000533685               0.999999993               0.000031485              -0.000557320               0.999999993               0.000040878              -0.000583601               0.999999993               0.000050192              -0.000611805               0.999999993               0.000059273              -0.000641499               0.999999993               0.000068073              -0.000672385               0.999999993               0.000076756              -0.000704188               0.999999993               0.000085473              -0.000736615               0.999999993               0.000094038              -0.000769471               0.999999993               0.000102066              -0.000802580               0.999999993               0.000109119              -0.000835838               0.999999993               0.000115308              -0.000869205               0.999999993               0.000036225              -0.000550458               0.999999993               0.000010049              -0.000534863               0.999999993               0.000001961              -0.000530277               0.999999993               0.000001644              -0.000535051               0.999999993               0.000005225              -0.000547023               0.999999993               0.000011351              -0.000564551               0.999999993               0.000018815              -0.000586043               0.999999993               0.000026602              -0.000610372               0.999999993               0.000034302              -0.000636677               0.999999993               0.000041665              -0.000664582               0.999999993               0.000048643              -0.000693671               0.999999993               0.000055401              -0.000723586               0.999999993               0.000061918              -0.000754172               0.999999993               0.000068077              -0.000785281               0.999999993               0.000073492              -0.000816771               0.999999993               0.000077637              -0.000848502               0.999999993               0.000080117              -0.000880434               0.999999993               0.000027542              -0.000570387               0.999999993               0.000006236              -0.000562448               0.999999993              -0.000001295              -0.000560585               0.999999993              -0.000002577              -0.000565705               0.999999993              -0.000000540              -0.000576803               0.999999993               0.000003764              -0.000592853               0.999999993               0.000009397              -0.000612726               0.999999993               0.000015390              -0.000635442               0.999999993               0.000021357              -0.000660340               0.999999993               0.000027015              -0.000686926               0.999999993               0.000032327              -0.000714758               0.999999993               0.000037312              -0.000743523               0.999999993               0.000041888              -0.000772964               0.999999993               0.000045778              -0.000802958               0.999999993               0.000048629              -0.000833522               0.999999993               0.000050097              -0.000864405               0.999999993               0.000049429              -0.000895505               0.999999993               0.000018553              -0.000584767               0.999999993               0.000003543              -0.000583006               0.999999993              -0.000002290              -0.000583881               0.999999993              -0.000003786              -0.000589788               0.999999993              -0.000002800              -0.000600644               0.999999993              -0.000000146              -0.000615797               0.999999993               0.000003595              -0.000634519               0.999999993               0.000007605              -0.000656151               0.999999993               0.000011634              -0.000680017               0.999999993               0.000015536              -0.000705737               0.999999993               0.000019172              -0.000732915               0.999999993               0.000022479              -0.000761174               0.999999993               0.000025413              -0.000790216               0.999999993               0.000027623              -0.000819849               0.999999993               0.000028717              -0.000849965               0.999999993               0.000028325              -0.000880429               0.999999993               0.000025915              -0.000911158               0.999999993               0.000009342              -0.000593471               0.999999993               0.000001595              -0.000595698               0.999999993              -0.000001612              -0.000598608               0.999999993              -0.000002565              -0.000605283               0.999999993              -0.000002229              -0.000616103               0.999999993              -0.000000979              -0.000630830               0.999999993               0.000000892              -0.000648972               0.999999993               0.000002868              -0.000669921               0.999999993               0.000004906              -0.000693192               0.999999993               0.000006843              -0.000718438               0.999999993               0.000008700              -0.000745262               0.999999993               0.000010422              -0.000773401               0.999999993               0.000011892              -0.000802524               0.999999993               0.000012949              -0.000832385               0.999999993               0.000013250              -0.000862805               0.999999993               0.000012424              -0.000893561               0.999999993               0.000010076              -0.000924386               0.999999993              -0.000000000              -0.000596397               0.999999993               0.000000000              -0.000600022               0.999999993              -0.000000000              -0.000603637               0.999999993               0.000000000              -0.000610585               0.999999993              -0.000000000              -0.000621452               0.999999993               0.000000000              -0.000636039               0.999999993               0.000000000              -0.000654004               0.999999993              -0.000000000              -0.000674802               0.999999993              -0.000000000              -0.000697877               0.999999993              -0.000000000              -0.000722912               0.999999993               0.000000000              -0.000749658               0.999999993              -0.000000000              -0.000777809               0.999999993              -0.000000000              -0.000807086               0.999999993               0.000000000              -0.000837284               0.999999993              -0.000000000              -0.000868126               0.999999993               0.000000000              -0.000899296               0.999999993               0.000000000              -0.000930335               0.999999993               0.000100895              -0.000000000               0.999999993               0.000124398               0.000000000               0.999999993               0.000135449              -0.000000000               0.999999993               0.000141801              -0.000000000               0.999999993               0.000146576               0.000000000               0.999999993               0.000151153              -0.000000000               0.999999993               0.000156197              -0.000000000               0.999999993               0.000161954               0.000000000               0.999999993               0.000168588               0.000000000               0.999999993               0.000176092               0.000000000               0.999999993               0.000184529              -0.000000000               0.999999993               0.000193815               0.000000000               0.999999993               0.000203909               0.000000000               0.999999993               0.000214829              -0.000000000               0.999999993               0.000226498              -0.000000000               0.999999993               0.000238824               0.000000000               0.999999993               0.000251699               0.000000000               0.999999993               0.000100293               0.000058884               0.999999993               0.000122646               0.000051298               0.999999993               0.000133007               0.000048925               0.999999993               0.000138946               0.000049435               0.999999993               0.000143490               0.000051542               0.999999993               0.000147975               0.000054874               0.999999993               0.000153052               0.000059002               0.999999993               0.000158948               0.000063657               0.999999993               0.000165679               0.000068540               0.999999993               0.000173217               0.000073634               0.999999993               0.000181621               0.000078889               0.999999993               0.000190886               0.000084175               0.999999993               0.000200979               0.000089412               0.999999993               0.000211860               0.000094572               0.999999993               0.000223502               0.000099533               0.999999993               0.000235831               0.000104131               0.999999993               0.000248737               0.000107916               0.999999993               0.000098572               0.000117198               0.999999993               0.000117523               0.000102046               0.999999993               0.000125910               0.000097673               0.999999993               0.000130831               0.000099005               0.999999993               0.000134938               0.000103608               0.999999993               0.000139394               0.000110485               0.999999993               0.000144621               0.000118832               0.999999993               0.000150731               0.000128012               0.999999993               0.000157693               0.000137733               0.999999993               0.000165431               0.000147895               0.999999993               0.000173956               0.000158383               0.999999993               0.000183267               0.000169031               0.999999993               0.000193387               0.000179738               0.999999993               0.000204305               0.000190412               0.999999993               0.000215980               0.000200872               0.999999993               0.000228321               0.000210780               0.999999993               0.000241246               0.000219698               0.999999993               0.000095664               0.000174351               0.999999993               0.000109194               0.000151818               0.999999993               0.000114802               0.000146103               0.999999993               0.000118491               0.000148830               0.999999993               0.000122296               0.000156355               0.999999993               0.000126998               0.000166959               0.999999993               0.000132715               0.000179541               0.999999993               0.000139387               0.000193291               0.999999993               0.000146920               0.000207810               0.999999993               0.000155238               0.000222931               0.999999993               0.000164356               0.000238620               0.999999993               0.000174205               0.000254632               0.999999993               0.000184787               0.000270882               0.999999993               0.000196127               0.000287339               0.999999993               0.000208112               0.000303615               0.999999993               0.000220610               0.000319377               0.999999993               0.000233570               0.000334296               0.999999993               0.000091545               0.000229681               0.999999993               0.000098045               0.000200363               0.999999993               0.000100654               0.000194074               0.999999993               0.000103376               0.000198757               0.999999993               0.000107359               0.000209467               0.999999993               0.000112752               0.000223937               0.999999993               0.000119402               0.000240807               0.999999993               0.000127084               0.000259080               0.999999993               0.000135643               0.000278283               0.999999993               0.000144949               0.000298323               0.999999993               0.000154995               0.000319093               0.999999993               0.000165712               0.000340383               0.999999993               0.000177054               0.000362141               0.999999993               0.000188942               0.000384223               0.999999993               0.000201311               0.000406191               0.999999993               0.000214021               0.000427754               0.999999993               0.000226980               0.000448599               0.999999993               0.000086350               0.000282542               0.999999993               0.000084872               0.000247441               0.999999993               0.000084888               0.000241314               0.999999993               0.000087366               0.000248323               0.999999993               0.000092151               0.000262443               0.999999993               0.000098735               0.000280820               0.999999993               0.000106628               0.000301916               0.999999993               0.000115618               0.000324637               0.999999993               0.000125454               0.000348456               0.999999993               0.000135958               0.000373268               0.999999993               0.000147101               0.000398940               0.999999993               0.000158786               0.000425244               0.999999993               0.000170972               0.000452277               0.999999993               0.000183545               0.000479619               0.999999993               0.000196374               0.000506897               0.999999993               0.000209374               0.000533758               0.999999993               0.000222459               0.000560130               0.999999993               0.000080279               0.000332382               0.999999993               0.000070633               0.000292822               0.999999993               0.000068887               0.000287500               0.999999993               0.000071974               0.000297104               0.999999993               0.000078043               0.000314640               0.999999993               0.000086127               0.000336849               0.999999993               0.000095624               0.000362091               0.999999993               0.000106116               0.000389191               0.999999993               0.000117298               0.000417534               0.999999993               0.000129046               0.000446855               0.999999993               0.000141313               0.000477116               0.999999993               0.000154044               0.000508195               0.999999993               0.000167172               0.000539965               0.999999993               0.000180558               0.000572071               0.999999993               0.000193989               0.000603995               0.999999993               0.000207363               0.000635479               0.999999993               0.000220562               0.000666494               0.999999993               0.000073558               0.000378656               0.999999993               0.000056171               0.000336342               0.999999993               0.000053655               0.000332274               0.999999993               0.000057960               0.000344599               0.999999993               0.000065718               0.000365473               0.999999993               0.000075684               0.000391477               0.999999993               0.000086948               0.000420629               0.999999993               0.000098962               0.000451863               0.999999993               0.000111480               0.000484480               0.999999993               0.000124392               0.000518099               0.999999993               0.000137817               0.000552786               0.999999993               0.000151646               0.000588255               0.999999993               0.000165721               0.000624394               0.999999993               0.000179776               0.000660725               0.999999993               0.000193605               0.000696632               0.999999993               0.000207044               0.000732041               0.999999993               0.000220023               0.000766722               0.999999993               0.000066584               0.000420589               0.999999993               0.000041978               0.000377953               0.999999993               0.000039941               0.000375264               0.999999993               0.000045945               0.000390164               0.999999993               0.000055802               0.000414296               0.999999993               0.000067754               0.000443887               0.999999993               0.000080617               0.000476816               0.999999993               0.000093919               0.000512043               0.999999993               0.000107525               0.000548757               0.999999993               0.000121633               0.000586644               0.999999993               0.000136078               0.000625612               0.999999993               0.000150785               0.000665299               0.999999993               0.000165483               0.000705318               0.999999993               0.000179798               0.000745183               0.999999993               0.000193627               0.000784523               0.999999993               0.000207060               0.000823249               0.999999993               0.000220148               0.000861361               0.999999993               0.000059944               0.000459691               0.999999993               0.000031169               0.000421676               0.999999993               0.000027104               0.000415454               0.999999993               0.000031911               0.000426098               0.999999993               0.000040608               0.000446216               0.999999993               0.000051463               0.000472081               0.999999993               0.000063205               0.000501525               0.999999993               0.000075288               0.000533382               0.999999993               0.000087537               0.000566977               0.999999993               0.000099978               0.000601913               0.999999993               0.000112580               0.000637866               0.999999993               0.000125463               0.000674679               0.999999993               0.000138428               0.000712034               0.999999993               0.000151192               0.000749575               0.999999993               0.000163561               0.000787047               0.999999993               0.000175529               0.000824101               0.999999993               0.000187434               0.000860725               0.999999993               0.000052510               0.000494771               0.999999993               0.000022293               0.000463206               0.999999993               0.000016273               0.000455791               0.999999993               0.000019345               0.000463173               0.999999993               0.000026540               0.000479776               0.999999993               0.000036013               0.000502330               0.999999993               0.000046562               0.000528652               0.999999993               0.000057367               0.000557473               0.999999993               0.000068211               0.000588130               0.999999993               0.000078986               0.000620205               0.999999993               0.000089716               0.000653474               0.999999993               0.000100537               0.000687567               0.999999993               0.000111403               0.000722334               0.999999993               0.000122239               0.000757404               0.999999993               0.000132584               0.000792685               0.999999993               0.000142367               0.000827900               0.999999993               0.000151790               0.000863015               0.999999993               0.000044572               0.000525152               0.999999993               0.000015293               0.000501396               0.999999993               0.000007811               0.000494695               0.999999993               0.000009067               0.000500060               0.999999993               0.000014421               0.000513944               0.999999993               0.000022307               0.000533685               0.999999993               0.000031485               0.000557320               0.999999993               0.000040878               0.000583601               0.999999993               0.000050192               0.000611805               0.999999993               0.000059273               0.000641499               0.999999993               0.000068073               0.000672385               0.999999993               0.000076756               0.000704188               0.999999993               0.000085473               0.000736615               0.999999993               0.000094038               0.000769471               0.999999993               0.000102066               0.000802580               0.999999993               0.000109119               0.000835838               0.999999993               0.000115308               0.000869205               0.999999993               0.000036225               0.000550458               0.999999993               0.000010049               0.000534863               0.999999993               0.000001961               0.000530277               0.999999993               0.000001644               0.000535051               0.999999993               0.000005225               0.000547023               0.999999993               0.000011351               0.000564551               0.999999993               0.000018815               0.000586043               0.999999993               0.000026602               0.000610372               0.999999993               0.000034302               0.000636677               0.999999993               0.000041665               0.000664582               0.999999993               0.000048643               0.000693671               0.999999993               0.000055401               0.000723586               0.999999993               0.000061918               0.000754172               0.999999993               0.000068077               0.000785281               0.999999993               0.000073492               0.000816771               0.999999993               0.000077637               0.000848502               0.999999993               0.000080117               0.000880434               0.999999993               0.000027542               0.000570387               0.999999993               0.000006236               0.000562448               0.999999993              -0.000001295               0.000560585               0.999999993              -0.000002577               0.000565705               0.999999993              -0.000000540               0.000576803               0.999999993               0.000003764               0.000592853               0.999999993               0.000009397               0.000612726               0.999999993               0.000015390               0.000635442               0.999999993               0.000021357               0.000660340               0.999999993               0.000027015               0.000686926               0.999999993               0.000032327               0.000714758               0.999999993               0.000037312               0.000743523               0.999999993               0.000041888               0.000772964               0.999999993               0.000045778               0.000802958               0.999999993               0.000048629               0.000833522               0.999999993               0.000050097               0.000864405               0.999999993               0.000049429               0.000895505               0.999999993               0.000018553               0.000584767               0.999999993               0.000003543               0.000583006               0.999999993              -0.000002290               0.000583881               0.999999993              -0.000003786               0.000589788               0.999999993              -0.000002800               0.000600644               0.999999993              -0.000000146               0.000615797               0.999999993               0.000003595               0.000634519               0.999999993               0.000007605               0.000656151               0.999999993               0.000011634               0.000680017               0.999999993               0.000015536               0.000705737               0.999999993               0.000019172               0.000732915               0.999999993               0.000022479               0.000761174               0.999999993               0.000025413               0.000790216               0.999999993               0.000027623               0.000819849               0.999999993               0.000028717               0.000849965               0.999999993               0.000028325               0.000880429               0.999999993               0.000025915               0.000911158               0.999999993               0.000009342               0.000593471               0.999999993               0.000001595               0.000595698               0.999999993              -0.000001612               0.000598608               0.999999993              -0.000002565               0.000605283               0.999999993              -0.000002229               0.000616103               0.999999993              -0.000000979               0.000630830               0.999999993               0.000000892               0.000648972               0.999999993               0.000002868               0.000669921               0.999999993               0.000004906               0.000693192               0.999999993               0.000006843               0.000718438               0.999999993               0.000008700               0.000745262               0.999999993               0.000010422               0.000773401               0.999999993               0.000011892               0.000802524               0.999999993               0.000012949               0.000832385               0.999999993               0.000013250               0.000862805               0.999999993               0.000012424               0.000893561               0.999999993               0.000010076               0.000924386               0.999999993               0.000000000               0.000596397               0.999999993               0.000000000               0.000600022               0.999999993               0.000000000               0.000603637               0.999999993               0.000000000               0.000610585               0.999999993               0.000000000               0.000621452               0.999999993               0.000000000               0.000636039               0.999999993               0.000000000               0.000654004               0.999999993               0.000000000               0.000674802               0.999999993               0.000000000               0.000697877               0.999999993               0.000000000               0.000722912               0.999999993               0.000000000               0.000749658               0.999999993              -0.000000000               0.000777809               0.999999993              -0.000000000               0.000807086               0.999999993              -0.000000000               0.000837284               0.999999993               0.000000000               0.000868126               0.999999993               0.000000000               0.000899296               0.999999993               0.000000000               0.000930335               0.999999993 </DataArray>
<DataArray type="Float64"                                    Name="stress"                                                      NumberOfComponents="10" format="ascii">
              0.000967951               0.010971721              -0.000000000              -0.001008481               0.003993364               0.002984883               0.000000000               0.000000000               0.000000000               0.000000000               0.001049241               0.008953794               0.000000000              -0.000725757               0.003226487               0.002500730               0.000000000               0.000000000               0.000000000               0.000000000               0.001454292               0.007329770               0.000000000              -0.000370861               0.002566852               0.002195992               0.000000000               0.000000000               0.000000000               0.000000000               0.001500901               0.006435747              -0.000000000              -0.000241630               0.002225771               0.001984141               0.000000000               0.000000000               0.000000000               0.000000000               0.001416618               0.005901803              -0.000000000              -0.000206493               0.002036079               0.001829586               0.000000000               0.000000000               0.000000000               0.000000000               0.001286801               0.005575585              -0.000000000              -0.000214397               0.001929976               0.001715578               0.000000000               0.000000000               0.000000000               0.000000000               0.001146369               0.005370282              -0.000000000              -0.000241396               0.001870541               0.001629145               0.000000000               0.000000000               0.000000000               0.000000000               0.001008745               0.005234122              -0.000000000              -0.000275985               0.001836685               0.001560700               0.000000000               0.000000000               0.000000000               0.000000000               0.000877198               0.005134093               0.000000000              -0.000312812               0.001815618               0.001502806               0.000000000               0.000000000               0.000000000               0.000000000               0.000750161               0.005057421               0.000000000              -0.000350866               0.001802746               0.001451879               0.000000000               0.000000000               0.000000000               0.000000000               0.000627928               0.004996069               0.000000000              -0.000389035               0.001795018               0.001405983               0.000000000               0.000000000               0.000000000               0.000000000               0.000513736               0.004942330               0.000000000              -0.000425139               0.001789140               0.001364001               0.000000000               0.000000000               0.000000000               0.000000000               0.000401881               0.004889157               0.000000000              -0.000460438               0.001783182               0.001322744               0.000000000               0.000000000               0.000000000               0.000000000               0.000292957               0.004834159               0.000000000              -0.000494410               0.001776174               0.001281764               0.000000000               0.000000000               0.000000000               0.000000000               0.000190712               0.004773681               0.000000000              -0.000525192               0.001766275               0.001241083               0.000000000               0.000000000               0.000000000               0.000000000               0.000095327               0.004699816               0.000000000              -0.000551728               0.001750499               0.001198771               0.000000000               0.000000000               0.000000000               0.000000000               0.000044298               0.004641672              -0.000000000              -0.000563596               0.001735074               0.001171478               0.000000000               0.000000000               0.000000000               0.000000000               0.001022548               0.010779647              -0.000802525              -0.000963998               0.003914513               0.002950514               0.000000000               0.000000000               0.000000000               0.000000000               0.001057428               0.008819560              -0.000483152              -0.000705908               0.003175127               0.002469219               0.000000000               0.000000000               0.000000000               0.000000000               0.001415364               0.007264262              -0.000155471              -0.000377270               0.002547153               0.002169883               0.000000000               0.000000000               0.000000000               0.000000000               0.001443641               0.006409465              -0.000006542              -0.000259817               0.002223073               0.001963256               0.000000000               0.000000000               0.000000000               0.000000000               0.001354124               0.005901606               0.000065245              -0.000229904               0.002043817               0.001813913               0.000000000               0.000000000               0.000000000               0.000000000               0.001222958               0.005587692               0.000100461              -0.000239852               0.001942496               0.001702644               0.000000000               0.000000000               0.000000000               0.000000000               0.001082188               0.005384338               0.000113507              -0.000267221               0.001883835               0.001616614               0.000000000               0.000000000               0.000000000               0.000000000               0.000947704               0.005243862               0.000113746              -0.000300093               0.001847968               0.001547875               0.000000000               0.000000000               0.000000000               0.000000000               0.000824914               0.005142563               0.000109851              -0.000333477               0.001825329               0.001491853               0.000000000               0.000000000               0.000000000               0.000000000               0.000707819               0.005066349               0.000106785              -0.000367860               0.001811386               0.001443526               0.000000000               0.000000000               0.000000000               0.000000000               0.000592592               0.005005364               0.000102693              -0.000403448               0.001802921               0.001399473               0.000000000               0.000000000               0.000000000               0.000000000               0.000481942               0.004953547               0.000096315              -0.000438464               0.001797321               0.001358856               0.000000000               0.000000000               0.000000000               0.000000000               0.000375185               0.004906436               0.000088646              -0.000472609               0.001792999               0.001320390               0.000000000               0.000000000               0.000000000               0.000000000               0.000272171               0.004860686               0.000078739              -0.000505520               0.001788719               0.001283199               0.000000000               0.000000000               0.000000000               0.000000000               0.000174888               0.004812403               0.000063633              -0.000535966               0.001782774               0.001246808               0.000000000               0.000000000               0.000000000               0.000000000               0.000085217               0.004755582               0.000037713              -0.000562490               0.001772675               0.001210185               0.000000000               0.000000000               0.000000000               0.000000000               0.000039912               0.004714431               0.000020994              -0.000574336               0.001762907               0.001188571               0.000000000               0.000000000               0.000000000               0.000000000               0.001168135               0.010225967              -0.001514825              -0.000840194               0.003688686               0.002848492               0.000000000               0.000000000               0.000000000               0.000000000               0.001075131               0.008439008              -0.000912014              -0.000651701               0.003030208               0.002378507               0.000000000               0.000000000               0.000000000               0.000000000               0.001300078               0.007080276              -0.000300696              -0.000397504               0.002492570               0.002095066               0.000000000               0.000000000               0.000000000               0.000000000               0.001276611               0.006332656              -0.000030790              -0.000312852               0.002215148               0.001902296               0.000000000               0.000000000               0.000000000               0.000000000               0.001172118               0.005886282               0.000094411              -0.000296240               0.002060821               0.001764581               0.000000000               0.000000000               0.000000000               0.000000000               0.001042796               0.005599858               0.000152702              -0.000308933               0.001969578               0.001660645               0.000000000               0.000000000               0.000000000               0.000000000               0.000914115               0.005404410               0.000173148              -0.000332757               0.001912371               0.001579614               0.000000000               0.000000000               0.000000000               0.000000000               0.000795360               0.005262772               0.000174607              -0.000359586               0.001874102               0.001514516               0.000000000               0.000000000               0.000000000               0.000000000               0.000690725               0.005159473               0.000170126              -0.000385911               0.001848444               0.001462533               0.000000000               0.000000000               0.000000000               0.000000000               0.000593364               0.005081664               0.000164617              -0.000412695               0.001831436               0.001418741               0.000000000               0.000000000               0.000000000               0.000000000               0.000498262               0.005021899               0.000156325              -0.000440888               0.001820912               0.001380024               0.000000000               0.000000000               0.000000000               0.000000000               0.000404215               0.004974425               0.000145369              -0.000470221               0.001814865               0.001344644               0.000000000               0.000000000               0.000000000               0.000000000               0.000310831               0.004936535               0.000133110              -0.000500504               0.001812330               0.001311826               0.000000000               0.000000000               0.000000000               0.000000000               0.000221863               0.004906726               0.000116477              -0.000530141               0.001812273               0.001282132               0.000000000               0.000000000               0.000000000               0.000000000               0.000140479               0.004880180               0.000091077              -0.000557341               0.001812491               0.001255149               0.000000000               0.000000000               0.000000000               0.000000000               0.000067478               0.004854194               0.000052482              -0.000581468               0.001811871               0.001230403               0.000000000               0.000000000               0.000000000               0.000000000               0.000034073               0.004841618               0.000028851              -0.000592423               0.001811331               0.001218908               0.000000000               0.000000000               0.000000000               0.000000000               0.001352299               0.009370441              -0.002059439              -0.000664193               0.003344846               0.002680653               0.000000000               0.000000000               0.000000000               0.000000000               0.001078319               0.007866947              -0.001245539              -0.000578998               0.002815289               0.002236291               0.000000000               0.000000000               0.000000000               0.000000000               0.001113566               0.006804821              -0.000431136              -0.000433014               0.002412589               0.001979575               0.000000000               0.000000000               0.000000000               0.000000000               0.001023444               0.006204386              -0.000085735              -0.000391756               0.002198693               0.001806937               0.000000000               0.000000000               0.000000000               0.000000000               0.000903940               0.005829490               0.000068599              -0.000389708               0.002073046               0.001683339               0.000000000               0.000000000               0.000000000               0.000000000               0.000785306               0.005575960               0.000138155              -0.000402504               0.001992803               0.001590298               0.000000000               0.000000000               0.000000000               0.000000000               0.000681561               0.005395121               0.000162537              -0.000418804               0.001937957               0.001519153               0.000000000               0.000000000               0.000000000               0.000000000               0.000591952               0.005260164               0.000164446              -0.000435537               0.001898549               0.001463012               0.000000000               0.000000000               0.000000000               0.000000000               0.000513557               0.005157275               0.000159671              -0.000452074               0.001869766               0.001417692               0.000000000               0.000000000               0.000000000               0.000000000               0.000439133               0.005078399               0.000154615              -0.000470124               0.001849491               0.001379367               0.000000000               0.000000000               0.000000000               0.000000000               0.000366940               0.005018319               0.000146912              -0.000489686               0.001835985               0.001346299               0.000000000               0.000000000               0.000000000               0.000000000               0.000296931               0.004973176               0.000136214              -0.000510297               0.001827808               0.001317511               0.000000000               0.000000000               0.000000000               0.000000000               0.000225224               0.004939987               0.000125862              -0.000533038               0.001824325               0.001291287               0.000000000               0.000000000               0.000000000               0.000000000               0.000156562               0.004916394               0.000110077              -0.000555837               0.001824060               0.001268223               0.000000000               0.000000000               0.000000000               0.000000000               0.000097813               0.004899401               0.000083535              -0.000575744               0.001825032               0.001249288               0.000000000               0.000000000               0.000000000               0.000000000               0.000047541               0.004888728               0.000046121              -0.000593262               0.001827314               0.001234052               0.000000000               0.000000000               0.000000000               0.000000000               0.000025425               0.004887977               0.000024154              -0.000601461               0.001829796               0.001228335               0.000000000               0.000000000               0.000000000               0.000000000               0.001518383               0.008304159              -0.002398989              -0.000468627               0.002924234               0.002455607               0.000000000               0.000000000               0.000000000               0.000000000               0.001050477               0.007170230              -0.001474220              -0.000502350               0.002557502               0.002055153               0.000000000               0.000000000               0.000000000               0.000000000               0.000878487               0.006463401              -0.000557853              -0.000478491               0.002313943               0.001835451               0.000000000               0.000000000               0.000000000               0.000000000               0.000730886               0.006021630              -0.000184867              -0.000478620               0.002166730               0.001688110               0.000000000               0.000000000               0.000000000               0.000000000               0.000611587               0.005722625              -0.000020667              -0.000485982               0.002069517               0.001583535               0.000000000               0.000000000               0.000000000               0.000000000               0.000517687               0.005506830               0.000055865              -0.000494220               0.002000332               0.001506112               0.000000000               0.000000000               0.000000000               0.000000000               0.000443700               0.005343404               0.000086904              -0.000501537               0.001948296               0.001446759               0.000000000               0.000000000               0.000000000               0.000000000               0.000384273               0.005215849               0.000093655              -0.000507877               0.001907891               0.001400014               0.000000000               0.000000000               0.000000000               0.000000000               0.000334883               0.005116448               0.000094518              -0.000513973               0.001876790               0.001362817               0.000000000               0.000000000               0.000000000               0.000000000               0.000286771               0.005038923               0.000096350              -0.000522325               0.001853733               0.001331407               0.000000000               0.000000000               0.000000000               0.000000000               0.000236824               0.004976364               0.000096377              -0.000533235               0.001836516               0.001303281               0.000000000               0.000000000               0.000000000               0.000000000               0.000188013               0.004927961               0.000095361              -0.000545489               0.001824467               0.001278978               0.000000000               0.000000000               0.000000000               0.000000000               0.000141089               0.004893471               0.000093517              -0.000558774               0.001817399               0.001258625               0.000000000               0.000000000               0.000000000               0.000000000               0.000096147               0.004864871               0.000084141              -0.000572052               0.001812292               0.001240239               0.000000000               0.000000000               0.000000000               0.000000000               0.000057668               0.004841902               0.000064044              -0.000583611               0.001808488               0.001224877               0.000000000               0.000000000               0.000000000               0.000000000               0.000027567               0.004826082               0.000034999              -0.000592921               0.001806318               0.001213397               0.000000000               0.000000000               0.000000000               0.000000000               0.000015117               0.004821881               0.000018151              -0.000597065               0.001806299               0.001209234               0.000000000               0.000000000               0.000000000               0.000000000               0.001619853               0.007134346              -0.002535508              -0.000284350               0.002472874               0.002188524               0.000000000               0.000000000               0.000000000               0.000000000               0.000987943               0.006414631              -0.001608804              -0.000431350               0.002281972               0.001850622               0.000000000               0.000000000               0.000000000               0.000000000               0.000630882               0.006082680              -0.000692221              -0.000523753               0.002202124               0.001678371               0.000000000               0.000000000               0.000000000               0.000000000               0.000455654               0.005798944              -0.000326164              -0.000553997               0.002117628               0.001563631               0.000000000               0.000000000               0.000000000               0.000000000               0.000354971               0.005574105              -0.000158350              -0.000563648               0.002045899               0.001482251               0.000000000               0.000000000               0.000000000               0.000000000               0.000294398               0.005394898              -0.000072768              -0.000563962               0.001986269               0.001422307               0.000000000               0.000000000               0.000000000               0.000000000               0.000253345               0.005250434              -0.000030715              -0.000561298               0.001937227               0.001375928               0.000000000               0.000000000               0.000000000               0.000000000               0.000221467               0.005133364              -0.000012608              -0.000558619               0.001897310               0.001338692               0.000000000               0.000000000               0.000000000               0.000000000               0.000196398               0.005039108               0.000000134              -0.000556238               0.001865098               0.001308861               0.000000000               0.000000000               0.000000000               0.000000000               0.000168411               0.004958638               0.000014555              -0.000556674               0.001838421               0.001281747               0.000000000               0.000000000               0.000000000               0.000000000               0.000136192               0.004889769               0.000027370              -0.000560148               0.001816622               0.001256475               0.000000000               0.000000000               0.000000000               0.000000000               0.000103866               0.004833806               0.000040272              -0.000565275               0.001799678               0.001234403               0.000000000               0.000000000               0.000000000               0.000000000               0.000073699               0.004787391               0.000049782              -0.000570785               0.001786043               0.001215257               0.000000000               0.000000000               0.000000000               0.000000000               0.000049505               0.004746048               0.000047834              -0.000574690               0.001773564               0.001198873               0.000000000               0.000000000               0.000000000               0.000000000               0.000029843               0.004707753               0.000035590              -0.000577277               0.001761661               0.001184384               0.000000000               0.000000000               0.000000000               0.000000000               0.000014498               0.004674356               0.000018056              -0.000578856               0.001751055               0.001172199               0.000000000               0.000000000               0.000000000               0.000000000               0.000007019               0.004656821               0.000009841              -0.000579469               0.001745414               0.001165945               0.000000000               0.000000000               0.000000000               0.000000000               0.001624809               0.005957935              -0.002495435              -0.000135441               0.002031105               0.001895664               0.000000000               0.000000000               0.000000000               0.000000000               0.000892468               0.005661011              -0.001663855              -0.000372951               0.002011301               0.001638350               0.000000000               0.000000000               0.000000000               0.000000000               0.000401352               0.005689350              -0.000828631              -0.000560661               0.002083318               0.001522657               0.000000000               0.000000000               0.000000000               0.000000000               0.000229652               0.005552501              -0.000486186              -0.000607942               0.002053462               0.001445521               0.000000000               0.000000000               0.000000000               0.000000000               0.000162417               0.005395076              -0.000314911              -0.000613477               0.002002833               0.001389356               0.000000000               0.000000000               0.000000000               0.000000000               0.000135260               0.005250672              -0.000218715              -0.000605610               0.001952077               0.001346466               0.000000000               0.000000000               0.000000000               0.000000000               0.000124928               0.005122774              -0.000161283              -0.000593497               0.001905407               0.001311910               0.000000000               0.000000000               0.000000000               0.000000000               0.000119151               0.005013955              -0.000125624              -0.000582061               0.001865322               0.001283261               0.000000000               0.000000000               0.000000000               0.000000000               0.000111547               0.004920764              -0.000098036              -0.000573264               0.001831326               0.001258063               0.000000000               0.000000000               0.000000000               0.000000000               0.000094153               0.004835563              -0.000069775              -0.000569136               0.001801550               0.001232414               0.000000000               0.000000000               0.000000000               0.000000000               0.000071520               0.004760811              -0.000042661              -0.000568280               0.001776348               0.001208068               0.000000000               0.000000000               0.000000000               0.000000000               0.000048796               0.004695043              -0.000017798              -0.000568580               0.001754526               0.001185945               0.000000000               0.000000000               0.000000000               0.000000000               0.000028864               0.004633561               0.000001819              -0.000568370               0.001733961               0.001165592               0.000000000               0.000000000               0.000000000               0.000000000               0.000017072               0.004574851               0.000008875              -0.000565453               0.001713420               0.001147966               0.000000000               0.000000000               0.000000000               0.000000000               0.000010528               0.004516216               0.000006644              -0.000560578               0.001692250               0.001131672               0.000000000               0.000000000               0.000000000               0.000000000               0.000006212               0.004460713               0.000002494              -0.000555258               0.001671976               0.001116717               0.000000000               0.000000000               0.000000000               0.000000000              -0.000001045               0.004423210               0.000004449              -0.000553292               0.001658819               0.001105527               0.000000000               0.000000000               0.000000000               0.000000000               0.001534073               0.004848247              -0.002310631              -0.000030756               0.001626318               0.001595561               0.000000000               0.000000000               0.000000000               0.000000000               0.000768194               0.004957628              -0.001652968              -0.000331632               0.001763070               0.001431438               0.000000000               0.000000000               0.000000000               0.000000000               0.000214010               0.005300116              -0.000959207              -0.000582260               0.001960774               0.001378514               0.000000000               0.000000000               0.000000000               0.000000000               0.000070694               0.005286196              -0.000643710              -0.000634263               0.001973469               0.001339206               0.000000000               0.000000000               0.000000000               0.000000000               0.000041563               0.005190418              -0.000469406              -0.000633215               0.001941194               0.001307979               0.000000000               0.000000000               0.000000000               0.000000000               0.000045303               0.005077483              -0.000360351              -0.000617695               0.001898376               0.001280681               0.000000000               0.000000000               0.000000000               0.000000000               0.000057595               0.004963867              -0.000282425              -0.000598884               0.001854234               0.001255350               0.000000000               0.000000000               0.000000000               0.000000000               0.000065572               0.004860507              -0.000223970              -0.000582972               0.001814477               0.001231505               0.000000000               0.000000000               0.000000000               0.000000000               0.000063539               0.004766959              -0.000178612              -0.000572041               0.001779651               0.001207609               0.000000000               0.000000000               0.000000000               0.000000000               0.000050391               0.004683308              -0.000137713              -0.000566516               0.001749926               0.001183410               0.000000000               0.000000000               0.000000000               0.000000000               0.000028864               0.004606462              -0.000099446              -0.000564983               0.001723800               0.001158817               0.000000000               0.000000000               0.000000000               0.000000000               0.000008653               0.004531945              -0.000064834              -0.000563247               0.001698382               0.001135135               0.000000000               0.000000000               0.000000000               0.000000000              -0.000004484               0.004455605              -0.000034923              -0.000558631               0.001671397               0.001112766               0.000000000               0.000000000               0.000000000               0.000000000              -0.000010619               0.004375796              -0.000016802              -0.000550955               0.001642236               0.001091280               0.000000000               0.000000000               0.000000000               0.000000000              -0.000011738               0.004296940              -0.000006869              -0.000541518               0.001612805               0.001071287               0.000000000               0.000000000               0.000000000               0.000000000              -0.000007616               0.004223575              -0.000001052              -0.000530802               0.001584778               0.001053976               0.000000000               0.000000000               0.000000000               0.000000000              -0.000010979               0.004175292               0.000004956              -0.000526027               0.001567092               0.001041065               0.000000000               0.000000000               0.000000000               0.000000000               0.001385661               0.003887683              -0.002030717               0.000033659               0.001284661               0.001318320               0.000000000               0.000000000               0.000000000               0.000000000               0.000658639               0.004327140              -0.001608032              -0.000293904               0.001540333               0.001246429               0.000000000               0.000000000               0.000000000               0.000000000               0.000102646               0.004929300              -0.001103449              -0.000577670               0.001835640               0.001257970               0.000000000               0.000000000               0.000000000               0.000000000              -0.000007179               0.005033316              -0.000809674              -0.000631855               0.001888374               0.001256518               0.000000000               0.000000000               0.000000000               0.000000000              -0.000013086               0.005003593              -0.000627081              -0.000630355               0.001877966               0.001247611               0.000000000               0.000000000               0.000000000               0.000000000               0.000009700               0.004927631              -0.000499555              -0.000612315               0.001846632               0.001234317               0.000000000               0.000000000               0.000000000               0.000000000               0.000035641               0.004836202              -0.000399266              -0.000591158               0.001809104               0.001217946               0.000000000               0.000000000               0.000000000               0.000000000               0.000049612               0.004741550              -0.000318793              -0.000574088               0.001771863               0.001197776               0.000000000               0.000000000               0.000000000               0.000000000               0.000046318               0.004651230              -0.000256438              -0.000564033               0.001738406               0.001174372               0.000000000               0.000000000               0.000000000               0.000000000               0.000032563               0.004573741              -0.000203999              -0.000559505               0.001711067               0.001151562               0.000000000               0.000000000               0.000000000               0.000000000               0.000011207               0.004498742              -0.000155964              -0.000558139               0.001685612               0.001127473               0.000000000               0.000000000               0.000000000               0.000000000              -0.000009960               0.004420078              -0.000114138              -0.000556243               0.001658759               0.001102516               0.000000000               0.000000000               0.000000000               0.000000000              -0.000024977               0.004331012              -0.000075566              -0.000550741               0.001627237               0.001076495               0.000000000               0.000000000               0.000000000               0.000000000              -0.000035657               0.004232859              -0.000043465              -0.000542477               0.001591765               0.001049287               0.000000000               0.000000000               0.000000000               0.000000000              -0.000046556               0.004134920              -0.000019724              -0.000534322               0.001556400               0.001022078               0.000000000               0.000000000               0.000000000               0.000000000              -0.000055282               0.004043048              -0.000003655              -0.000526110               0.001523039               0.000996929               0.000000000               0.000000000               0.000000000               0.000000000              -0.000057637               0.003993637               0.000003672              -0.000520817               0.001504805               0.000983988               0.000000000               0.000000000               0.000000000               0.000000000               0.001168822               0.002965392              -0.001709805               0.000067631               0.000965910               0.001033541               0.000000000               0.000000000               0.000000000               0.000000000               0.000592517               0.003589449              -0.001549065              -0.000226489               0.001271967               0.001045478               0.000000000               0.000000000               0.000000000               0.000000000               0.000091846               0.004375916              -0.001268138              -0.000512547               0.001629473               0.001116926               0.000000000               0.000000000               0.000000000               0.000000000              -0.000007821               0.004636366              -0.001000695              -0.000582478               0.001739599               0.001157121               0.000000000               0.000000000               0.000000000               0.000000000              -0.000013530               0.004709315              -0.000805129              -0.000593737               0.001767668               0.001173931               0.000000000               0.000000000               0.000000000               0.000000000               0.000007578               0.004702369              -0.000659935              -0.000584953               0.001762425               0.001177472               0.000000000               0.000000000               0.000000000               0.000000000               0.000035985               0.004656511              -0.000542034              -0.000568568               0.001741678               0.001173109               0.000000000               0.000000000               0.000000000               0.000000000               0.000053861               0.004592790              -0.000443177              -0.000553899               0.001715548               0.001161648               0.000000000               0.000000000               0.000000000               0.000000000               0.000057091               0.004527244              -0.000362312              -0.000544495               0.001690565               0.001146069               0.000000000               0.000000000               0.000000000               0.000000000               0.000043060               0.004463996              -0.000293281              -0.000541851               0.001668601               0.001126750               0.000000000               0.000000000               0.000000000               0.000000000               0.000017481               0.004400941              -0.000234319              -0.000543561               0.001648153               0.001104592               0.000000000               0.000000000               0.000000000               0.000000000              -0.000013158               0.004332838              -0.000182778              -0.000546538               0.001626444               0.001079906               0.000000000               0.000000000               0.000000000               0.000000000              -0.000043906               0.004252606              -0.000133812              -0.000548039               0.001600201               0.001052162               0.000000000               0.000000000               0.000000000               0.000000000              -0.000070564               0.004163565              -0.000087202              -0.000546906               0.001570143               0.001023237               0.000000000               0.000000000               0.000000000               0.000000000              -0.000099661               0.004067181              -0.000045700              -0.000545769               0.001537637               0.000991868               0.000000000               0.000000000               0.000000000               0.000000000              -0.000132689               0.003969994              -0.000015579              -0.000546006               0.001505320               0.000959314               0.000000000               0.000000000               0.000000000               0.000000000              -0.000150355               0.003920619              -0.000002858              -0.000546459               0.001489013               0.000942554               0.000000000               0.000000000               0.000000000               0.000000000               0.000842380               0.002108045              -0.001359968               0.000052385               0.000685212               0.000737597               0.000000000               0.000000000               0.000000000               0.000000000               0.000516732               0.002846077              -0.001444505              -0.000161987               0.001002678               0.000840691               0.000000000               0.000000000               0.000000000               0.000000000               0.000136501               0.003748951              -0.001388643              -0.000417431               0.001388781               0.000971350               0.000000000               0.000000000               0.000000000               0.000000000               0.000042122               0.004156672              -0.001175169              -0.000503788               0.001553472               0.001049685               0.000000000               0.000000000               0.000000000               0.000000000               0.000026647               0.004347091              -0.000982084              -0.000533393               0.001626813               0.001093420               0.000000000               0.000000000               0.000000000               0.000000000               0.000041202               0.004427035              -0.000829947              -0.000537928               0.001654973               0.001117045               0.000000000               0.000000000               0.000000000               0.000000000               0.000068861               0.004443285              -0.000702102              -0.000529587               0.001657609               0.001128022               0.000000000               0.000000000               0.000000000               0.000000000               0.000088532               0.004427703              -0.000590319              -0.000520262               0.001649307               0.001129045               0.000000000               0.000000000               0.000000000               0.000000000               0.000093607               0.004399080              -0.000493851              -0.000514781               0.001637939               0.001123158               0.000000000               0.000000000               0.000000000               0.000000000               0.000083111               0.004366151              -0.000409440              -0.000514601               0.001626903               0.001112302               0.000000000               0.000000000               0.000000000               0.000000000               0.000056687               0.004325443              -0.000338047              -0.000519422               0.001614940               0.001095519               0.000000000               0.000000000               0.000000000               0.000000000               0.000018290               0.004273713              -0.000276526              -0.000527354               0.001600342               0.001072987               0.000000000               0.000000000               0.000000000               0.000000000              -0.000024085               0.004208641              -0.000220214              -0.000535111               0.001581237               0.001046126               0.000000000               0.000000000               0.000000000               0.000000000              -0.000066504               0.004134555              -0.000161830              -0.000541757               0.001558757               0.001017000               0.000000000               0.000000000               0.000000000               0.000000000              -0.000113912               0.004052945              -0.000099682              -0.000549334               0.001534080               0.000984746               0.000000000               0.000000000               0.000000000               0.000000000              -0.000173542               0.003967659              -0.000044068              -0.000561034               0.001509551               0.000948517               0.000000000               0.000000000               0.000000000               0.000000000              -0.000217876               0.003917854              -0.000014190              -0.000571434               0.001496416               0.000924982               0.000000000               0.000000000               0.000000000               0.000000000               0.000427999               0.001372752              -0.000998671              -0.000011096               0.000461277               0.000450182               0.000000000               0.000000000               0.000000000               0.000000000               0.000394762               0.002141231              -0.001269990              -0.000119619               0.000753609               0.000633990               0.000000000               0.000000000               0.000000000               0.000000000               0.000200501               0.003061035              -0.001404574              -0.000307442               0.001122815               0.000815373               0.000000000               0.000000000               0.000000000               0.000000000               0.000143381               0.003576499              -0.001269800              -0.000393295               0.001323252               0.000929958               0.000000000               0.000000000               0.000000000               0.000000000               0.000127049               0.003877549              -0.001102804              -0.000437050               0.001438187               0.001001136               0.000000000               0.000000000               0.000000000               0.000000000               0.000129691               0.004049095              -0.000958017              -0.000457502               0.001502185               0.001044683               0.000000000               0.000000000               0.000000000               0.000000000               0.000143728               0.004139669              -0.000827277              -0.000463560               0.001534396               0.001070836               0.000000000               0.000000000               0.000000000               0.000000000               0.000156794               0.004185153              -0.000709190              -0.000464345               0.001549819               0.001085473               0.000000000               0.000000000               0.000000000               0.000000000               0.000160229               0.004206284              -0.000605444              -0.000465699               0.001557313               0.001091615               0.000000000               0.000000000               0.000000000               0.000000000               0.000151957               0.004213897              -0.000513364              -0.000469752               0.001561202               0.001091450               0.000000000               0.000000000               0.000000000               0.000000000               0.000128912               0.004204134              -0.000433969              -0.000477174               0.001560422               0.001083248               0.000000000               0.000000000               0.000000000               0.000000000               0.000092582               0.004175969              -0.000367357              -0.000487277               0.001554401               0.001067125               0.000000000               0.000000000               0.000000000               0.000000000               0.000046458               0.004132421              -0.000305983              -0.000499130               0.001543836               0.001044707               0.000000000               0.000000000               0.000000000               0.000000000              -0.000006612               0.004079100              -0.000239682              -0.000512366               0.001530475               0.001018109               0.000000000               0.000000000               0.000000000               0.000000000              -0.000066518               0.004018218              -0.000162303              -0.000527220               0.001515133               0.000987912               0.000000000               0.000000000               0.000000000               0.000000000              -0.000141167               0.003953318              -0.000080568              -0.000547101               0.001500126               0.000953026               0.000000000               0.000000000               0.000000000               0.000000000              -0.000202075               0.003908196              -0.000033613              -0.000564301               0.001490819               0.000926518               0.000000000               0.000000000               0.000000000               0.000000000              -0.000038479               0.000798337              -0.000663854              -0.000114222               0.000304183               0.000189961               0.000000000               0.000000000               0.000000000               0.000000000               0.000234175               0.001514328              -0.001042412              -0.000101476               0.000538596               0.000437119               0.000000000               0.000000000               0.000000000               0.000000000               0.000273820               0.002370226              -0.001304155              -0.000193597               0.000854599               0.000661002               0.000000000               0.000000000               0.000000000               0.000000000               0.000282790               0.002940177              -0.001251635              -0.000261476               0.001067207               0.000805731               0.000000000               0.000000000               0.000000000               0.000000000               0.000279917               0.003327311              -0.001129534              -0.000310945               0.001212741               0.000901795               0.000000000               0.000000000               0.000000000               0.000000000               0.000272636               0.003589655              -0.001004835              -0.000346468               0.001312029               0.000965561               0.000000000               0.000000000               0.000000000               0.000000000               0.000268424               0.003760455              -0.000881763              -0.000369397               0.001376605               0.001007207               0.000000000               0.000000000               0.000000000               0.000000000               0.000266269               0.003870109              -0.000766237              -0.000383912               0.001417994               0.001034082               0.000000000               0.000000000               0.000000000               0.000000000               0.000262790               0.003945563              -0.000663376              -0.000394649               0.001446724               0.001052075               0.000000000               0.000000000               0.000000000               0.000000000               0.000254603               0.003997965              -0.000572108              -0.000404269               0.001467398               0.001063129               0.000000000               0.000000000               0.000000000               0.000000000               0.000237117               0.004022611              -0.000494766              -0.000413907               0.001478826               0.001064919               0.000000000               0.000000000               0.000000000               0.000000000               0.000208774               0.004026101              -0.000428289              -0.000424971               0.001483677               0.001058706               0.000000000               0.000000000               0.000000000               0.000000000               0.000168347               0.004016301              -0.000364079              -0.000438906               0.001485056               0.001046149               0.000000000               0.000000000               0.000000000               0.000000000               0.000116128               0.003996698              -0.000293420              -0.000456038               0.001484232               0.001028194               0.000000000               0.000000000               0.000000000               0.000000000               0.000053733               0.003967385              -0.000209637              -0.000475772               0.001481039               0.001005267               0.000000000               0.000000000               0.000000000               0.000000000              -0.000019752               0.003929918              -0.000110977              -0.000498645               0.001476175               0.000977529               0.000000000               0.000000000               0.000000000               0.000000000              -0.000080120               0.003898344              -0.000052083              -0.000517337               0.001471881               0.000954544               0.000000000               0.000000000               0.000000000               0.000000000              -0.000502902               0.000396657              -0.000388584              -0.000238170               0.000211607              -0.000026563               0.000000000               0.000000000               0.000000000               0.000000000               0.000054318               0.001000511              -0.000785515              -0.000104695               0.000368398               0.000263703               0.000000000               0.000000000               0.000000000               0.000000000               0.000339721               0.001736156              -0.001093652              -0.000089625               0.000608587               0.000518962               0.000000000               0.000000000               0.000000000               0.000000000               0.000437861               0.002318645              -0.001101340              -0.000125633               0.000814751               0.000689118               0.000000000               0.000000000               0.000000000               0.000000000               0.000462778               0.002762826              -0.001027294              -0.000171812               0.000978203               0.000806391               0.000000000               0.000000000               0.000000000               0.000000000               0.000451608               0.003093748              -0.000933498              -0.000217366               0.001103694               0.000886328               0.000000000               0.000000000               0.000000000               0.000000000               0.000430090               0.003332289              -0.000830092              -0.000255252               0.001195836               0.000940583               0.000000000               0.000000000               0.000000000               0.000000000               0.000407618               0.003504779              -0.000727631              -0.000285241               0.001263328               0.000978088               0.000000000               0.000000000               0.000000000               0.000000000               0.000389514               0.003636185              -0.000635539              -0.000308455               0.001314868               0.001006413               0.000000000               0.000000000               0.000000000               0.000000000               0.000376139               0.003735790              -0.000555138              -0.000325921               0.001353891               0.001027970               0.000000000               0.000000000               0.000000000               0.000000000               0.000361532               0.003804993              -0.000487921              -0.000340049               0.001381668               0.001041619               0.000000000               0.000000000               0.000000000               0.000000000               0.000341015               0.003849340              -0.000429577              -0.000353286               0.001400862               0.001047576               0.000000000               0.000000000               0.000000000               0.000000000               0.000314585               0.003876655              -0.000370371              -0.000366612               0.001414409               0.001047798               0.000000000               0.000000000               0.000000000               0.000000000               0.000281761               0.003897465              -0.000301585              -0.000381522               0.001426316               0.001044794               0.000000000               0.000000000               0.000000000               0.000000000               0.000240523               0.003905925              -0.000220182              -0.000398044               0.001434643               0.001036600               0.000000000               0.000000000               0.000000000               0.000000000               0.000191658               0.003898483              -0.000119502              -0.000415438               0.001437960               0.001022523               0.000000000               0.000000000               0.000000000               0.000000000               0.000154892               0.003885902              -0.000059587              -0.000427652               0.001437839               0.001010186               0.000000000               0.000000000               0.000000000               0.000000000              -0.000903279               0.000145031              -0.000193830              -0.000356858               0.000167295              -0.000189563               0.000000000               0.000000000               0.000000000               0.000000000              -0.000111335               0.000624193              -0.000519413              -0.000119775               0.000247987               0.000128212               0.000000000               0.000000000               0.000000000               0.000000000               0.000389890               0.001226583              -0.000789147              -0.000007115               0.000411228               0.000404113               0.000000000               0.000000000               0.000000000               0.000000000               0.000579468               0.001791871              -0.000824772              -0.000006685               0.000599512               0.000592828               0.000000000               0.000000000               0.000000000               0.000000000               0.000637460               0.002260831              -0.000786803              -0.000043557               0.000768122               0.000724564               0.000000000               0.000000000               0.000000000               0.000000000               0.000629618               0.002634957              -0.000726236              -0.000093263               0.000909398               0.000816135               0.000000000               0.000000000               0.000000000               0.000000000               0.000595240               0.002928889              -0.000652281              -0.000142896               0.001023919               0.000881022               0.000000000               0.000000000               0.000000000               0.000000000               0.000554796               0.003156430              -0.000575160              -0.000186505               0.001114301               0.000927796               0.000000000               0.000000000               0.000000000               0.000000000               0.000520573               0.003338094              -0.000506372              -0.000222047               0.001186702               0.000964656               0.000000000               0.000000000               0.000000000               0.000000000               0.000496198               0.003486571              -0.000446838              -0.000249747               0.001245428               0.000995681               0.000000000               0.000000000               0.000000000               0.000000000               0.000478457               0.003602030              -0.000396617              -0.000270832               0.001290942               0.001020110               0.000000000               0.000000000               0.000000000               0.000000000               0.000463604               0.003687784              -0.000353917              -0.000287121               0.001324956               0.001037835               0.000000000               0.000000000               0.000000000               0.000000000               0.000451358               0.003750988              -0.000310370              -0.000299614               0.001350188               0.001050574               0.000000000               0.000000000               0.000000000               0.000000000               0.000445431               0.003802586              -0.000256811              -0.000308286               0.001370278               0.001061992               0.000000000               0.000000000               0.000000000               0.000000000               0.000444006               0.003841521              -0.000189825              -0.000313687               0.001385057               0.001071369               0.000000000               0.000000000               0.000000000               0.000000000               0.000445814               0.003866114              -0.000104951              -0.000316083               0.001394053               0.001077970               0.000000000               0.000000000               0.000000000               0.000000000               0.000450166               0.003874906              -0.000056152              -0.000315550               0.001396806               0.001081256               0.000000000               0.000000000               0.000000000               0.000000000              -0.001177396               0.000010922              -0.000075192              -0.000442888               0.000151269              -0.000291619               0.000000000               0.000000000               0.000000000               0.000000000              -0.000229782               0.000396912              -0.000257444              -0.000135782               0.000177563               0.000041781               0.000000000               0.000000000               0.000000000               0.000000000               0.000422445               0.000896520              -0.000413565               0.000046351               0.000283387               0.000329738               0.000000000               0.000000000               0.000000000               0.000000000               0.000679700               0.001433173              -0.000442198               0.000075740               0.000452473               0.000528213               0.000000000               0.000000000               0.000000000               0.000000000               0.000764034               0.001909610              -0.000427339               0.000047811               0.000620593               0.000668404               0.000000000               0.000000000               0.000000000               0.000000000               0.000762500               0.002312305              -0.000398671              -0.000003101               0.000771794               0.000768693               0.000000000               0.000000000               0.000000000               0.000000000               0.000720310               0.002640610              -0.000360607              -0.000059960               0.000900181               0.000840221               0.000000000               0.000000000               0.000000000               0.000000000               0.000670510               0.002904267              -0.000319743              -0.000111592               0.001005277               0.000893685               0.000000000               0.000000000               0.000000000               0.000000000               0.000627170               0.003123013              -0.000282846              -0.000155187               0.001092723               0.000937536               0.000000000               0.000000000               0.000000000               0.000000000               0.000593714               0.003306216              -0.000250598              -0.000190634               0.001165605               0.000974972               0.000000000               0.000000000               0.000000000               0.000000000               0.000570484               0.003457278              -0.000224659              -0.000218228               0.001225157               0.001006929               0.000000000               0.000000000               0.000000000               0.000000000               0.000556225               0.003578655              -0.000202684              -0.000238747               0.001272455               0.001033709               0.000000000               0.000000000               0.000000000               0.000000000               0.000551115               0.003673431              -0.000181024              -0.000252510               0.001308635               0.001056125               0.000000000               0.000000000               0.000000000               0.000000000               0.000562957               0.003751384              -0.000154102              -0.000257814               0.001336387               0.001078573               0.000000000               0.000000000               0.000000000               0.000000000               0.000597418               0.003813929              -0.000117079              -0.000252709               0.001355533               0.001102825               0.000000000               0.000000000               0.000000000               0.000000000               0.000657457               0.003856348              -0.000066752              -0.000235497               0.001363935               0.001128439               0.000000000               0.000000000               0.000000000               0.000000000               0.000713073               0.003877839              -0.000038037              -0.000217327               0.001365042               0.001147715               0.000000000               0.000000000               0.000000000               0.000000000              -0.001275469              -0.000029993               0.000000000              -0.000474551               0.000148185              -0.000326366               0.000000000               0.000000000               0.000000000               0.000000000              -0.000273486               0.000320120              -0.000000000              -0.000142572               0.000154230               0.000011657               0.000000000               0.000000000               0.000000000               0.000000000               0.000433777               0.000780182              -0.000000000               0.000065143               0.000238344               0.000303487               0.000000000               0.000000000               0.000000000               0.000000000               0.000716029               0.001305305               0.000000000               0.000105347               0.000399982               0.000505329               0.000000000               0.000000000               0.000000000               0.000000000               0.000811885               0.001783898               0.000000000               0.000081469               0.000567470               0.000648939               0.000000000               0.000000000               0.000000000               0.000000000               0.000812898               0.002195885              -0.000000000               0.000030351               0.000721837               0.000752188               0.000000000               0.000000000               0.000000000               0.000000000               0.000768165               0.002537546               0.000000000              -0.000029131               0.000855551               0.000826419               0.000000000               0.000000000               0.000000000               0.000000000               0.000715853               0.002813748               0.000000000              -0.000083274               0.000965664               0.000882391               0.000000000               0.000000000               0.000000000               0.000000000               0.000668451               0.003042563               0.000000000              -0.000129651               0.001057395               0.000927744               0.000000000               0.000000000               0.000000000               0.000000000               0.000633846               0.003239833               0.000000000              -0.000167286               0.001135696               0.000968409               0.000000000               0.000000000               0.000000000               0.000000000               0.000608801               0.003406605              -0.000000000              -0.000197525               0.001201365               0.001003840               0.000000000               0.000000000               0.000000000               0.000000000               0.000592313               0.003542569              -0.000000000              -0.000220703               0.001254412               0.001033709               0.000000000               0.000000000               0.000000000               0.000000000               0.000588884               0.003653499              -0.000000000              -0.000235855               0.001296439               0.001060584               0.000000000               0.000000000               0.000000000               0.000000000               0.000605799               0.003744770               0.000000000              -0.000240921               0.001328551               0.001087630               0.000000000               0.000000000               0.000000000               0.000000000               0.000653429               0.003815697              -0.000000000              -0.000231926               0.001349195               0.001117269               0.000000000               0.000000000               0.000000000               0.000000000               0.000740443               0.003860026              -0.000000000              -0.000204837               0.001354941               0.001150105               0.000000000               0.000000000               0.000000000               0.000000000               0.000823653               0.003884105               0.000000000              -0.000176643               0.001353570               0.001176927               0.000000000               0.000000000               0.000000000               0.000000000               0.000000000               0.000000000               0.000000000               0.000000000               0.000000000               0.000000000               0.000000000               0.000000000               0.000000000               0.000000000               0.000000000               0.000000000               0.000000000               0.000000000               0.000000000               0.000000000               0.000000000               0.000000000               0.000000000               0.000000000               0.000000000               0.000000000               0.000000000               0.000000000               0.000000000               0.000000000               0.000000000               0.000000000               0.000000000               0.000000000               0.000000000               0.000000000               0.000000000               0.000000000               0.000000000               0.000000000               0.000000000               0.000000000               0.000000000               0.000000000               0.000000000               0.000000000               0.000000000               0.000000000               0.000000000               0.000000000               0.000000000               0.000000000               0.000000000               0.000000000               0.000000000               0.000000000               0.000000000               0.000000000               0.000000000               0.000000000               0.000000000               0.000000000               0.000000000               0.000000000               0.000000000               0.000000000               0.000000000               0.000000000               0.000000000               0.000000000               0.000000000               0.000000000               0.000000000               0.000000000               0.000000000               0.000000000               0.000000000               0.000000000               0.000000000               0.000000000               0.000000000               0.000000000               0.000000000               0.000000000               0.000000000               0.000000000               0.000000000               0.000000000               0.000000000               0.000000000               0.000000000               0.000000000               0.000000000               0.000000000               0.000000000               0.000000000               0.000000000               0.000000000               0.000000000               0.000000000               0.000000000               0.000000000               0.000000000               0.000000000               0.000000000               0.000000000               0.000000000               0.000000000               0.000000000               0.000000000               0.000000000               0.000000000               0.000000000               0.000000000               0.000000000               0.000000000               0.000000000               0.000000000               0.000000000               0.000000000               0.000000000               0.000000000               0.000000000               0.000000000               0.000000000               0.000000000               0.000000000               0.000000000               0.000000000               0.000000000               0.000000000               0.000000000               0.000000000               0.000000000               0.000000000               0.000000000               0.000000000               0.000000000               0.000000000               0.000000000               0.000000000               0.000000000               0.000000000               0.000000000               0.000000000               0.000000000               0.000000000               0.000000000               0.000000000               0.000000000               0.000000000               0.000000000               0.000000000               0.000000000               0.000000000               0.000000000               0.000000000               0.000000000               0.000000000               0.000000000               0.000000000               0.000000000               0.000000000               0.000000000               0.000000000               0.000000000               0.000000000               0.000000000               0.000000000               0.000000000               0.000000000               0.000000000               0.000000000               0.000000000               0.001022548               0.010779647               0.000802525              -0.000963998               0.003914513               0.002950514               0.000000000               0.000000000               0.000000000               0.000000000               0.001057428               0.008819560               0.000483152              -0.000705908               0.003175127               0.002469219               0.000000000               0.000000000               0.000000000               0.000000000               0.001415364               0.007264262               0.000155471              -0.000377270               0.002547153               0.002169883               0.000000000               0.000000000               0.000000000               0.000000000               0.001443641               0.006409465               0.000006542              -0.000259817               0.002223073               0.001963256               0.000000000               0.000000000               0.000000000               0.000000000               0.001354124               0.005901606              -0.000065245              -0.000229904               0.002043817               0.001813913               0.000000000               0.000000000               0.000000000               0.000000000               0.001222958               0.005587692              -0.000100461              -0.000239852               0.001942496               0.001702644               0.000000000               0.000000000               0.000000000               0.000000000               0.001082188               0.005384338              -0.000113507              -0.000267221               0.001883835               0.001616614               0.000000000               0.000000000               0.000000000               0.000000000               0.000947704               0.005243862              -0.000113746              -0.000300093               0.001847968               0.001547875               0.000000000               0.000000000               0.000000000               0.000000000               0.000824914               0.005142563              -0.000109851              -0.000333477               0.001825329               0.001491853               0.000000000               0.000000000               0.000000000               0.000000000               0.000707819               0.005066349              -0.000106785              -0.000367860               0.001811386               0.001443526               0.000000000               0.000000000               0.000000000               0.000000000               0.000592592               0.005005364              -0.000102693              -0.000403448               0.001802921               0.001399473               0.000000000               0.000000000               0.000000000               0.000000000               0.000481942               0.004953547              -0.000096315              -0.000438464               0.001797321               0.001358856               0.000000000               0.000000000               0.000000000               0.000000000               0.000375185               0.004906436              -0.000088646              -0.000472609               0.001792999               0.001320390               0.000000000               0.000000000               0.000000000               0.000000000               0.000272171               0.004860686              -0.000078739              -0.000505520               0.001788719               0.001283199               0.000000000               0.000000000               0.000000000               0.000000000               0.000174888               0.004812403              -0.000063633              -0.000535966               0.001782774               0.001246808               0.000000000               0.000000000               0.000000000               0.000000000               0.000085217               0.004755582              -0.000037713              -0.000562490               0.001772675               0.001210185               0.000000000               0.000000000               0.000000000               0.000000000               0.000039912               0.004714431              -0.000020994              -0.000574336               0.001762907               0.001188571               0.000000000               0.000000000               0.000000000               0.000000000               0.001168135               0.010225967               0.001514825              -0.000840194               0.003688686               0.002848492               0.000000000               0.000000000               0.000000000               0.000000000               0.001075131               0.008439008               0.000912014              -0.000651701               0.003030208               0.002378507               0.000000000               0.000000000               0.000000000               0.000000000               0.001300078               0.007080276               0.000300696              -0.000397504               0.002492570               0.002095066               0.000000000               0.000000000               0.000000000               0.000000000               0.001276611               0.006332656               0.000030790              -0.000312852               0.002215148               0.001902296               0.000000000               0.000000000               0.000000000               0.000000000               0.001172118               0.005886282              -0.000094411              -0.000296240               0.002060821               0.001764581               0.000000000               0.000000000               0.000000000               0.000000000               0.001042796               0.005599858              -0.000152702              -0.000308933               0.001969578               0.001660645               0.000000000               0.000000000               0.000000000               0.000000000               0.000914115               0.005404410              -0.000173148              -0.000332757               0.001912371               0.001579614               0.000000000               0.000000000               0.000000000               0.000000000               0.000795360               0.005262772              -0.000174607              -0.000359586               0.001874102               0.001514516               0.000000000               0.000000000               0.000000000               0.000000000               0.000690725               0.005159473              -0.000170126              -0.000385911               0.001848444               0.001462533               0.000000000               0.000000000               0.000000000               0.000000000               0.000593364               0.005081664              -0.000164617              -0.000412695               0.001831436               0.001418741               0.000000000               0.000000000               0.000000000               0.000000000               0.000498262               0.005021899              -0.000156325              -0.000440888               0.001820912               0.001380024               0.000000000               0.000000000               0.000000000               0.000000000               0.000404215               0.004974425              -0.000145369              -0.000470221               0.001814865               0.001344644               0.000000000               0.000000000               0.000000000               0.000000000               0.000310831               0.004936535              -0.000133110              -0.000500504               0.001812330               0.001311826               0.000000000               0.000000000               0.000000000               0.000000000               0.000221863               0.004906726              -0.000116477              -0.000530141               0.001812273               0.001282132               0.000000000               0.000000000               0.000000000               0.000000000               0.000140479               0.004880180              -0.000091077              -0.000557341               0.001812491               0.001255149               0.000000000               0.000000000               0.000000000               0.000000000               0.000067478               0.004854194              -0.000052482              -0.000581468               0.001811871               0.001230403               0.000000000               0.000000000               0.000000000               0.000000000               0.000034073               0.004841618              -0.000028851              -0.000592423               0.001811331               0.001218908               0.000000000               0.000000000               0.000000000               0.000000000               0.001352299               0.009370441               0.002059439              -0.000664193               0.003344846               0.002680653               0.000000000               0.000000000               0.000000000               0.000000000               0.001078319               0.007866947               0.001245539              -0.000578998               0.002815289               0.002236291               0.000000000               0.000000000               0.000000000               0.000000000               0.001113566               0.006804821               0.000431136              -0.000433014               0.002412589               0.001979575               0.000000000               0.000000000               0.000000000               0.000000000               0.001023444               0.006204386               0.000085735              -0.000391756               0.002198693               0.001806937               0.000000000               0.000000000               0.000000000               0.000000000               0.000903940               0.005829490              -0.000068599              -0.000389708               0.002073046               0.001683339               0.000000000               0.000000000               0.000000000               0.000000000               0.000785306               0.005575960              -0.000138155              -0.000402504               0.001992803               0.001590298               0.000000000               0.000000000               0.000000000               0.000000000               0.000681561               0.005395121              -0.000162537              -0.000418804               0.001937957               0.001519153               0.000000000               0.000000000               0.000000000               0.000000000               0.000591952               0.005260164              -0.000164446              -0.000435537               0.001898549               0.001463012               0.000000000               0.000000000               0.000000000               0.000000000               0.000513557               0.005157275              -0.000159671              -0.000452074               0.001869766               0.001417692               0.000000000               0.000000000               0.000000000               0.000000000               0.000439133               0.005078399              -0.000154615              -0.000470124               0.001849491               0.001379367               0.000000000               0.000000000               0.000000000               0.000000000               0.000366940               0.005018319              -0.000146912              -0.000489686               0.001835985               0.001346299               0.000000000               0.000000000               0.000000000               0.000000000               0.000296931               0.004973176              -0.000136214              -0.000510297               0.001827808               0.001317511               0.000000000               0.000000000               0.000000000               0.000000000               0.000225224               0.004939987              -0.000125862              -0.000533038               0.001824325               0.001291287               0.000000000               0.000000000               0.000000000               0.000000000               0.000156562               0.004916394              -0.000110077              -0.000555837               0.001824060               0.001268223               0.000000000               0.000000000               0.000000000               0.000000000               0.000097813               0.004899401              -0.000083535              -0.000575744               0.001825032               0.001249288               0.000000000               0.000000000               0.000000000               0.000000000               0.000047541               0.004888728              -0.000046121              -0.000593262               0.001827314               0.001234052               0.000000000               0.000000000               0.000000000               0.000000000               0.000025425               0.004887977              -0.000024154              -0.000601461               0.001829796               0.001228335               0.000000000               0.000000000               0.000000000               0.000000000               0.001518383               0.008304159               0.002398989              -0.000468627               0.002924234               0.002455607               0.000000000               0.000000000               0.000000000               0.000000000               0.001050477               0.007170230               0.001474220              -0.000502350               0.002557502               0.002055153               0.000000000               0.000000000               0.000000000               0.000000000               0.000878487               0.006463401               0.000557853              -0.000478491               0.002313943               0.001835451               0.000000000               0.000000000               0.000000000               0.000000000               0.000730886               0.006021630               0.000184867              -0.000478620               0.002166730               0.001688110               0.000000000               0.000000000               0.000000000               0.000000000               0.000611587               0.005722625               0.000020667              -0.000485982               0.002069517               0.001583535               0.000000000               0.000000000               0.000000000               0.000000000               0.000517687               0.005506830              -0.000055865              -0.000494220               0.002000332               0.001506112               0.000000000               0.000000000               0.000000000               0.000000000               0.000443700               0.005343404              -0.000086904              -0.000501537               0.001948296               0.001446759               0.000000000               0.000000000               0.000000000               0.000000000               0.000384273               0.005215849              -0.000093655              -0.000507877               0.001907891               0.001400014               0.000000000               0.000000000               0.000000000               0.000000000               0.000334883               0.005116448              -0.000094518              -0.000513973               0.001876790               0.001362817               0.000000000               0.000000000               0.000000000               0.000000000               0.000286771               0.005038923              -0.000096350              -0.000522325               0.001853733               0.001331407               0.000000000               0.000000000               0.000000000               0.000000000               0.000236824               0.004976364              -0.000096377              -0.000533235               0.001836516               0.001303281               0.000000000               0.000000000               0.000000000               0.000000000               0.000188013               0.004927961              -0.000095361              -0.000545489               0.001824467               0.001278978               0.000000000               0.000000000               0.000000000               0.000000000               0.000141089               0.004893471              -0.000093517              -0.000558774               0.001817399               0.001258625               0.000000000               0.000000000               0.000000000               0.000000000               0.000096147               0.004864871              -0.000084141              -0.000572052               0.001812292               0.001240239               0.000000000               0.000000000               0.000000000               0.000000000               0.000057668               0.004841902              -0.000064044              -0.000583611               0.001808488               0.001224877               0.000000000               0.000000000               0.000000000               0.000000000               0.000027567               0.004826082              -0.000034999              -0.000592921               0.001806318               0.001213397               0.000000000               0.000000000               0.000000000               0.000000000               0.000015117               0.004821881              -0.000018151              -0.000597065               0.001806299               0.001209234               0.000000000               0.000000000               0.000000000               0.000000000               0.001619853               0.007134346               0.002535508              -0.000284350               0.002472874               0.002188524               0.000000000               0.000000000               0.000000000               0.000000000               0.000987943               0.006414631               0.001608804              -0.000431350               0.002281972               0.001850622               0.000000000               0.000000000               0.000000000               0.000000000               0.000630882               0.006082680               0.000692221              -0.000523753               0.002202124               0.001678371               0.000000000               0.000000000               0.000000000               0.000000000               0.000455654               0.005798944               0.000326164              -0.000553997               0.002117628               0.001563631               0.000000000               0.000000000               0.000000000               0.000000000               0.000354971               0.005574105               0.000158350              -0.000563648               0.002045899               0.001482251               0.000000000               0.000000000               0.000000000               0.000000000               0.000294398               0.005394898               0.000072768              -0.000563962               0.001986269               0.001422307               0.000000000               0.000000000               0.000000000               0.000000000               0.000253345               0.005250434               0.000030715              -0.000561298               0.001937227               0.001375928               0.000000000               0.000000000               0.000000000               0.000000000               0.000221467               0.005133364               0.000012608              -0.000558619               0.001897310               0.001338692               0.000000000               0.000000000               0.000000000               0.000000000               0.000196398               0.005039108              -0.000000134              -0.000556238               0.001865098               0.001308861               0.000000000               0.000000000               0.000000000               0.000000000               0.000168411               0.004958638              -0.000014555              -0.000556674               0.001838421               0.001281747               0.000000000               0.000000000               0.000000000               0.000000000               0.000136192               0.004889769              -0.000027370              -0.000560148               0.001816622               0.001256475               0.000000000               0.000000000               0.000000000               0.000000000               0.000103866               0.004833806              -0.000040272              -0.000565275               0.001799678               0.001234403               0.000000000               0.000000000               0.000000000               0.000000000               0.000073699               0.004787391              -0.000049782              -0.000570785               0.001786043               0.001215257               0.000000000               0.000000000               0.000000000               0.000000000               0.000049505               0.004746048              -0.000047834              -0.000574690               0.001773564               0.001198873               0.000000000               0.000000000               0.000000000               0.000000000               0.000029843               0.004707753              -0.000035590              -0.000577277               0.001761661               0.001184384               0.000000000               0.000000000               0.000000000               0.000000000               0.000014498               0.004674356              -0.000018056              -0.000578856               0.001751055               0.001172199               0.000000000               0.000000000               0.000000000               0.000000000               0.000007019               0.004656821              -0.000009841              -0.000579469               0.001745414               0.001165945               0.000000000               0.000000000               0.000000000               0.000000000               0.001624809               0.005957935               0.002495435              -0.000135441               0.002031105               0.001895664               0.000000000               0.000000000               0.000000000               0.000000000               0.000892468               0.005661011               0.001663855              -0.000372951               0.002011301               0.001638350               0.000000000               0.000000000               0.000000000               0.000000000               0.000401352               0.005689350               0.000828631              -0.000560661               0.002083318               0.001522657               0.000000000               0.000000000               0.000000000               0.000000000               0.000229652               0.005552501               0.000486186              -0.000607942               0.002053462               0.001445521               0.000000000               0.000000000               0.000000000               0.000000000               0.000162417               0.005395076               0.000314911              -0.000613477               0.002002833               0.001389356               0.000000000               0.000000000               0.000000000               0.000000000               0.000135260               0.005250672               0.000218715              -0.000605610               0.001952077               0.001346466               0.000000000               0.000000000               0.000000000               0.000000000               0.000124928               0.005122774               0.000161283              -0.000593497               0.001905407               0.001311910               0.000000000               0.000000000               0.000000000               0.000000000               0.000119151               0.005013955               0.000125624              -0.000582061               0.001865322               0.001283261               0.000000000               0.000000000               0.000000000               0.000000000               0.000111547               0.004920764               0.000098036              -0.000573264               0.001831326               0.001258063               0.000000000               0.000000000               0.000000000               0.000000000               0.000094153               0.004835563               0.000069775              -0.000569136               0.001801550               0.001232414               0.000000000               0.000000000               0.000000000               0.000000000               0.000071520               0.004760811               0.000042661              -0.000568280               0.001776348               0.001208068               0.000000000               0.000000000               0.000000000               0.000000000               0.000048796               0.004695043               0.000017798              -0.000568580               0.001754526               0.001185945               0.000000000               0.000000000               0.000000000               0.000000000               0.000028864               0.004633561              -0.000001819              -0.000568370               0.001733961               0.001165592               0.000000000               0.000000000               0.000000000               0.000000000               0.000017072               0.004574851              -0.000008875              -0.000565453               0.001713420               0.001147966               0.000000000               0.000000000               0.000000000               0.000000000               0.000010528               0.004516216              -0.000006644              -0.000560578               0.001692250               0.001131672               0.000000000               0.000000000               0.000000000               0.000000000               0.000006212               0.004460713              -0.000002494              -0.000555258               0.001671976               0.001116717               0.000000000               0.000000000               0.000000000               0.000000000              -0.000001045               0.004423210              -0.000004449              -0.000553292               0.001658819               0.001105527               0.000000000               0.000000000               0.000000000               0.000000000               0.001534073               0.004848247               0.002310631              -0.000030756               0.001626318               0.001595561               0.000000000               0.000000000               0.000000000               0.000000000               0.000768194               0.004957628               0.001652968              -0.000331632               0.001763070               0.001431438               0.000000000               0.000000000               0.000000000               0.000000000               0.000214010               0.005300116               0.000959207              -0.000582260               0.001960774               0.001378514               0.000000000               0.000000000               0.000000000               0.000000000               0.000070694               0.005286196               0.000643710              -0.000634263               0.001973469               0.001339206               0.000000000               0.000000000               0.000000000               0.000000000               0.000041563               0.005190418               0.000469406              -0.000633215               0.001941194               0.001307979               0.000000000               0.000000000               0.000000000               0.000000000               0.000045303               0.005077483               0.000360351              -0.000617695               0.001898376               0.001280681               0.000000000               0.000000000               0.000000000               0.000000000               0.000057595               0.004963867               0.000282425              -0.000598884               0.001854234               0.001255350               0.000000000               0.000000000               0.000000000               0.000000000               0.000065572               0.004860507               0.000223970              -0.000582972               0.001814477               0.001231505               0.000000000               0.000000000               0.000000000               0.000000000               0.000063539               0.004766959               0.000178612              -0.000572041               0.001779651               0.001207609               0.000000000               0.000000000               0.000000000               0.000000000               0.000050391               0.004683308               0.000137713              -0.000566516               0.001749926               0.001183410               0.000000000               0.000000000               0.000000000               0.000000000               0.000028864               0.004606462               0.000099446              -0.000564983               0.001723800               0.001158817               0.000000000               0.000000000               0.000000000               0.000000000               0.000008653               0.004531945               0.000064834              -0.000563247               0.001698382               0.001135135               0.000000000               0.000000000               0.000000000               0.000000000              -0.000004484               0.004455605               0.000034923              -0.000558631               0.001671397               0.001112766               0.000000000               0.000000000               0.000000000               0.000000000              -0.000010619               0.004375796               0.000016802              -0.000550955               0.001642236               0.001091280               0.000000000               0.000000000               0.000000000               0.000000000              -0.000011738               0.004296940               0.000006869              -0.000541518               0.001612805               0.001071287               0.000000000               0.000000000               0.000000000               0.000000000              -0.000007616               0.004223575               0.000001052              -0.000530802               0.001584778               0.001053976               0.000000000               0.000000000               0.000000000               0.000000000              -0.000010979               0.004175292              -0.000004956              -0.000526027               0.001567092               0.001041065               0.000000000               0.000000000               0.000000000               0.000000000               0.001385661               0.003887683               0.002030717               0.000033659               0.001284661               0.001318320               0.000000000               0.000000000               0.000000000               0.000000000               0.000658639               0.004327140               0.001608032              -0.000293904               0.001540333               0.001246429               0.000000000               0.000000000               0.000000000               0.000000000               0.000102646               0.004929300               0.001103449              -0.000577670               0.001835640               0.001257970               0.000000000               0.000000000               0.000000000               0.000000000              -0.000007179               0.005033316               0.000809674              -0.000631855               0.001888374               0.001256518               0.000000000               0.000000000               0.000000000               0.000000000              -0.000013086               0.005003593               0.000627081              -0.000630355               0.001877966               0.001247611               0.000000000               0.000000000               0.000000000               0.000000000               0.000009700               0.004927631               0.000499555              -0.000612315               0.001846632               0.001234317               0.000000000               0.000000000               0.000000000               0.000000000               0.000035641               0.004836202               0.000399266              -0.000591158               0.001809104               0.001217946               0.000000000               0.000000000               0.000000000               0.000000000               0.000049612               0.004741550               0.000318793              -0.000574088               0.001771863               0.001197776               0.000000000               0.000000000               0.000000000               0.000000000               0.000046318               0.004651230               0.000256438              -0.000564033               0.001738406               0.001174372               0.000000000               0.000000000               0.000000000               0.000000000               0.000032563               0.004573741               0.000203999              -0.000559505               0.001711067               0.001151562               0.000000000               0.000000000               0.000000000               0.000000000               0.000011207               0.004498742               0.000155964              -0.000558139               0.001685612               0.001127473               0.000000000               0.000000000               0.000000000               0.000000000              -0.000009960               0.004420078               0.000114138              -0.000556243               0.001658759               0.001102516               0.000000000               0.000000000               0.000000000               0.000000000              -0.000024977               0.004331012               0.000075566              -0.000550741               0.001627237               0.001076495               0.000000000               0.000000000               0.000000000               0.000000000              -0.000035657               0.004232859               0.000043465              -0.000542477               0.001591765               0.001049287               0.000000000               0.000000000               0.000000000               0.000000000              -0.000046556               0.004134920               0.000019724              -0.000534322               0.001556400               0.001022078               0.000000000               0.000000000               0.000000000               0.000000000              -0.000055282               0.004043048               0.000003655              -0.000526110               0.001523039               0.000996929               0.000000000               0.000000000               0.000000000               0.000000000              -0.000057637               0.003993637              -0.000003672              -0.000520817               0.001504805               0.000983988               0.000000000               0.000000000               0.000000000               0.000000000               0.001168822               0.002965392               0.001709805               0.000067631               0.000965910               0.001033541               0.000000000               0.000000000               0.000000000               0.000000000               0.000592517               0.003589449               0.001549065              -0.000226489               0.001271967               0.001045478               0.000000000               0.000000000               0.000000000               0.000000000               0.000091846               0.004375916               0.001268138              -0.000512547               0.001629473               0.001116926               0.000000000               0.000000000               0.000000000               0.000000000              -0.000007821               0.004636366               0.001000695              -0.000582478               0.001739599               0.001157121               0.000000000               0.000000000               0.000000000               0.000000000              -0.000013530               0.004709315               0.000805129              -0.000593737               0.001767668               0.001173931               0.000000000               0.000000000               0.000000000               0.000000000               0.000007578               0.004702369               0.000659935              -0.000584953               0.001762425               0.001177472               0.000000000               0.000000000               0.000000000               0.000000000               0.000035985               0.004656511               0.000542034              -0.000568568               0.001741678               0.001173109               0.000000000               0.000000000               0.000000000               0.000000000               0.000053861               0.004592790               0.000443177              -0.000553899               0.001715548               0.001161648               0.000000000               0.000000000               0.000000000               0.000000000               0.000057091               0.004527244               0.000362312              -0.000544495               0.001690565               0.001146069               0.000000000               0.000000000               0.000000000               0.000000000               0.000043060               0.004463996               0.000293281              -0.000541851               0.001668601               0.001126750               0.000000000               0.000000000               0.000000000               0.000000000               0.000017481               0.004400941               0.000234319              -0.000543561               0.001648153               0.001104592               0.000000000               0.000000000               0.000000000               0.000000000              -0.000013158               0.004332838               0.000182778              -0.000546538               0.001626444               0.001079906               0.000000000               0.000000000               0.000000000               0.000000000              -0.000043906               0.004252606               0.000133812              -0.000548039               0.001600201               0.001052162               0.000000000               0.000000000               0.000000000               0.000000000              -0.000070564               0.004163565               0.000087202              -0.000546906               0.001570143               0.001023237               0.000000000               0.000000000               0.000000000               0.000000000              -0.000099661               0.004067181               0.000045700              -0.000545769               0.001537637               0.000991868               0.000000000               0.000000000               0.000000000               0.000000000              -0.000132689               0.003969994               0.000015579              -0.000546006               0.001505320               0.000959314               0.000000000               0.000000000               0.000000000               0.000000000              -0.000150355               0.003920619               0.000002858              -0.000546459               0.001489013               0.000942554               0.000000000               0.000000000               0.000000000               0.000000000               0.000842380               0.002108045               0.001359968               0.000052385               0.000685212               0.000737597               0.000000000               0.000000000               0.000000000               0.000000000               0.000516732               0.002846077               0.001444505              -0.000161987               0.001002678               0.000840691               0.000000000               0.000000000               0.000000000               0.000000000               0.000136501               0.003748951               0.001388643              -0.000417431               0.001388781               0.000971350               0.000000000               0.000000000               0.000000000               0.000000000               0.000042122               0.004156672               0.001175169              -0.000503788               0.001553472               0.001049685               0.000000000               0.000000000               0.000000000               0.000000000               0.000026647               0.004347091               0.000982084              -0.000533393               0.001626813               0.001093420               0.000000000               0.000000000               0.000000000               0.000000000               0.000041202               0.004427035               0.000829947              -0.000537928               0.001654973               0.001117045               0.000000000               0.000000000               0.000000000               0.000000000               0.000068861               0.004443285               0.000702102              -0.000529587               0.001657609               0.001128022               0.000000000               0.000000000               0.000000000               0.000000000               0.000088532               0.004427703               0.000590319              -0.000520262               0.001649307               0.001129045               0.000000000               0.000000000               0.000000000               0.000000000               0.000093607               0.004399080               0.000493851              -0.000514781               0.001637939               0.001123158               0.000000000               0.000000000               0.000000000               0.000000000               0.000083111               0.004366151               0.000409440              -0.000514601               0.001626903               0.001112302               0.000000000               0.000000000               0.000000000               0.000000000               0.000056687               0.004325443               0.000338047              -0.000519422               0.001614940               0.001095519               0.000000000               0.000000000               0.000000000               0.000000000               0.000018290               0.004273713               0.000276526              -0.000527354               0.001600342               0.001072987               0.000000000               0.000000000               0.000000000               0.000000000              -0.000024085               0.004208641               0.000220214              -0.000535111               0.001581237               0.001046126               0.000000000               0.000000000               0.000000000               0.000000000              -0.000066504               0.004134555               0.000161830              -0.000541757               0.001558757               0.001017000               0.000000000               0.000000000               0.000000000               0.000000000              -0.000113912               0.004052945               0.000099682              -0.000549334               0.001534080               0.000984746               0.000000000               0.000000000               0.000000000               0.000000000              -0.000173542               0.003967659               0.000044068              -0.000561034               0.001509551               0.000948517               0.000000000               0.000000000               0.000000000               0.000000000              -0.000217876               0.003917854               0.000014190              -0.000571434               0.001496416               0.000924982               0.000000000               0.000000000               0.000000000               0.000000000               0.000427999               0.001372752               0.000998671              -0.000011096               0.000461277               0.000450182               0.000000000               0.000000000               0.000000000               0.000000000               0.000394762               0.002141231               0.001269990              -0.000119619               0.000753609               0.000633990               0.000000000               0.000000000               0.000000000               0.000000000               0.000200501               0.003061035               0.001404574              -0.000307442               0.001122815               0.000815373               0.000000000               0.000000000               0.000000000               0.000000000               0.000143381               0.003576499               0.001269800              -0.000393295               0.001323252               0.000929958               0.000000000               0.000000000               0.000000000               0.000000000               0.000127049               0.003877549               0.001102804              -0.000437050               0.001438187               0.001001136               0.000000000               0.000000000               0.000000000               0.000000000               0.000129691               0.004049095               0.000958017              -0.000457502               0.001502185               0.001044683               0.000000000               0.000000000               0.000000000               0.000000000               0.000143728               0.004139669               0.000827277              -0.000463560               0.001534396               0.001070836               0.000000000               0.000000000               0.000000000               0.000000000               0.000156794               0.004185153               0.000709190              -0.000464345               0.001549819               0.001085473               0.000000000               0.000000000               0.000000000               0.000000000               0.000160229               0.004206284               0.000605444              -0.000465699               0.001557313               0.001091615               0.000000000               0.000000000               0.000000000               0.000000000               0.000151957               0.004213897               0.000513364              -0.000469752               0.001561202               0.001091450               0.000000000               0.000000000               0.000000000               0.000000000               0.000128912               0.004204134               0.000433969              -0.000477174               0.001560422               0.001083248               0.000000000               0.000000000               0.000000000               0.000000000               0.000092582               0.004175969               0.000367357              -0.000487277               0.001554401               0.001067125               0.000000000               0.000000000               0.000000000               0.000000000               0.000046458               0.004132421               0.000305983              -0.000499130               0.001543836               0.001044707               0.000000000               0.000000000               0.000000000               0.000000000              -0.000006612               0.004079100               0.000239682              -0.000512366               0.001530475               0.001018109               0.000000000               0.000000000               0.000000000               0.000000000              -0.000066518               0.004018218               0.000162303              -0.000527220               0.001515133               0.000987912               0.000000000               0.000000000               0.000000000               0.000000000              -0.000141167               0.003953318               0.000080568              -0.000547101               0.001500126               0.000953026               0.000000000               0.000000000               0.000000000               0.000000000              -0.000202075               0.003908196               0.000033613              -0.000564301               0.001490819               0.000926518               0.000000000               0.000000000               0.000000000               0.000000000              -0.000038479               0.000798337               0.000663854              -0.000114222               0.000304183               0.000189961               0.000000000               0.000000000               0.000000000               0.000000000               0.000234175               0.001514328               0.001042412              -0.000101476               0.000538596               0.000437119               0.000000000               0.000000000               0.000000000               0.000000000               0.000273820               0.002370226               0.001304155              -0.000193597               0.000854599               0.000661002               0.000000000               0.000000000               0.000000000               0.000000000               0.000282790               0.002940177               0.001251635              -0.000261476               0.001067207               0.000805731               0.000000000               0.000000000               0.000000000               0.000000000               0.000279917               0.003327311               0.001129534              -0.000310945               0.001212741               0.000901795               0.000000000               0.000000000               0.000000000               0.000000000               0.000272636               0.003589655               0.001004835              -0.000346468               0.001312029               0.000965561               0.000000000               0.000000000               0.000000000               0.000000000               0.000268424               0.003760455               0.000881763              -0.000369397               0.001376605               0.001007207               0.000000000               0.000000000               0.000000000               0.000000000               0.000266269               0.003870109               0.000766237              -0.000383912               0.001417994               0.001034082               0.000000000               0.000000000               0.000000000               0.000000000               0.000262790               0.003945563               0.000663376              -0.000394649               0.001446724               0.001052075               0.000000000               0.000000000               0.000000000               0.000000000               0.000254603               0.003997965               0.000572108              -0.000404269               0.001467398               0.001063129               0.000000000               0.000000000               0.000000000               0.000000000               0.000237117               0.004022611               0.000494766              -0.000413907               0.001478826               0.001064919               0.000000000               0.000000000               0.000000000               0.000000000               0.000208774               0.004026101               0.000428289              -0.000424971               0.001483677               0.001058706               0.000000000               0.000000000               0.000000000               0.000000000               0.000168347               0.004016301               0.000364079              -0.000438906               0.001485056               0.001046149               0.000000000               0.000000000               0.000000000               0.000000000               0.000116128               0.003996698               0.000293420              -0.000456038               0.001484232               0.001028194               0.000000000               0.000000000               0.000000000               0.000000000               0.000053733               0.003967385               0.000209637              -0.000475772               0.001481039               0.001005267               0.000000000               0.000000000               0.000000000               0.000000000              -0.000019752               0.003929918               0.000110977              -0.000498645               0.001476175               0.000977529               0.000000000               0.000000000               0.000000000               0.000000000              -0.000080120               0.003898344               0.000052083              -0.000517337               0.001471881               0.000954544               0.000000000               0.000000000               0.000000000               0.000000000              -0.000502902               0.000396657               0.000388584              -0.000238170               0.000211607              -0.000026563               0.000000000               0.000000000               0.000000000               0.000000000               0.000054318               0.001000511               0.000785515              -0.000104695               0.000368398               0.000263703               0.000000000               0.000000000               0.000000000               0.000000000               0.000339721               0.001736156               0.001093652              -0.000089625               0.000608587               0.000518962               0.000000000               0.000000000               0.000000000               0.000000000               0.000437861               0.002318645               0.001101340              -0.000125633               0.000814751               0.000689118               0.000000000               0.000000000               0.000000000               0.000000000               0.000462778               0.002762826               0.001027294              -0.000171812               0.000978203               0.000806391               0.000000000               0.000000000               0.000000000               0.000000000               0.000451608               0.003093748               0.000933498              -0.000217366               0.001103694               0.000886328               0.000000000               0.000000000               0.000000000               0.000000000               0.000430090               0.003332289               0.000830092              -0.000255252               0.001195836               0.000940583               0.000000000               0.000000000               0.000000000               0.000000000               0.000407618               0.003504779               0.000727631              -0.000285241               0.001263328               0.000978088               0.000000000               0.000000000               0.000000000               0.000000000               0.000389514               0.003636185               0.000635539              -0.000308455               0.001314868               0.001006413               0.000000000               0.000000000               0.000000000               0.000000000               0.000376139               0.003735790               0.000555138              -0.000325921               0.001353891               0.001027970               0.000000000               0.000000000               0.000000000               0.000000000               0.000361532               0.003804993               0.000487921              -0.000340049               0.001381668               0.001041619               0.000000000               0.000000000               0.000000000               0.000000000               0.000341015               0.003849340               0.000429577              -0.000353286               0.001400862               0.001047576               0.000000000               0.000000000               0.000000000               0.000000000               0.000314585               0.003876655               0.000370371              -0.000366612               0.001414409               0.001047798               0.000000000               0.000000000               0.000000000               0.000000000               0.000281761               0.003897465               0.000301585              -0.000381522               0.001426316               0.001044794               0.000000000               0.000000000               0.000000000               0.000000000               0.000240523               0.003905925               0.000220182              -0.000398044               0.001434643               0.001036600               0.000000000               0.000000000               0.000000000               0.000000000               0.000191658               0.003898483               0.000119502              -0.000415438               0.001437960               0.001022523               0.000000000               0.000000000               0.000000000               0.000000000               0.000154892               0.003885902               0.000059587              -0.000427652               0.001437839               0.001010186               0.000000000               0.000000000               0.000000000               0.000000000              -0.000903279               0.000145031               0.000193830              -0.000356858               0.000167295              -0.000189563               0.000000000               0.000000000               0.000000000               0.000000000              -0.000111335               0.000624193               0.000519413              -0.000119775               0.000247987               0.000128212               0.000000000               0.000000000               0.000000000               0.000000000               0.000389890               0.001226583               0.000789147              -0.000007115               0.000411228               0.000404113               0.000000000               0.000000000               0.000000000               0.000000000               0.000579468               0.001791871               0.000824772              -0.000006685               0.000599512               0.000592828               0.000000000               0.000000000               0.000000000               0.000000000               0.000637460               0.002260831               0.000786803              -0.000043557               0.000768122               0.000724564               0.000000000               0.000000000               0.000000000               0.000000000               0.000629618               0.002634957               0.000726236              -0.000093263               0.000909398               0.000816135               0.000000000               0.000000000               0.000000000               0.000000000               0.000595240               0.002928889               0.000652281              -0.000142896               0.001023919               0.000881022               0.000000000               0.000000000               0.000000000               0.000000000               0.000554796               0.003156430               0.000575160              -0.000186505               0.001114301               0.000927796               0.000000000               0.000000000               0.000000000               0.000000000               0.000520573               0.003338094               0.000506372              -0.000222047               0.001186702               0.000964656               0.000000000               0.000000000               0.000000000               0.000000000               0.000496198               0.003486571               0.000446838              -0.000249747               0.001245428               0.000995681               0.000000000               0.000000000               0.000000000               0.000000000               0.000478457               0.003602030               0.000396617              -0.000270832               0.001290942               0.001020110               0.000000000               0.000000000               0.000000000               0.000000000               0.000463604               0.003687784               0.000353917              -0.000287121               0.001324956               0.001037835               0.000000000               0.000000000               0.000000000               0.000000000               0.000451358               0.003750988               0.000310370              -0.000299614               0.001350188               0.001050574               0.000000000               0.000000000               0.000000000               0.000000000               0.000445431               0.003802586               0.000256811              -0.000308286               0.001370278               0.001061992               0.000000000               0.000000000               0.000000000               0.000000000               0.000444006               0.003841521               0.000189825              -0.000313687               0.001385057               0.001071369               0.000000000               0.000000000               0.000000000               0.000000000               0.000445814               0.003866114               0.000104951              -0.000316083               0.001394053               0.001077970               0.000000000               0.000000000               0.000000000               0.000000000               0.000450166               0.003874906               0.000056152              -0.000315550               0.001396806               0.001081256               0.000000000               0.000000000               0.000000000               0.000000000              -0.001177396               0.000010922               0.000075192              -0.000442888               0.000151269              -0.000291619               0.000000000               0.000000000               0.000000000               0.000000000              -0.000229782               0.000396912               0.000257444              -0.000135782               0.000177563               0.000041781               0.000000000               0.000000000               0.000000000               0.000000000               0.000422445               0.000896520               0.000413565               0.000046351               0.000283387               0.000329738               0.000000000               0.000000000               0.000000000               0.000000000               0.000679700               0.001433173               0.000442198               0.000075740               0.000452473               0.000528213               0.000000000               0.000000000               0.000000000               0.000000000               0.000764034               0.001909610               0.000427339               0.000047811               0.000620593               0.000668404               0.000000000               0.000000000               0.000000000               0.000000000               0.000762500               0.002312305               0.000398671              -0.000003101               0.000771794               0.000768693               0.000000000               0.000000000               0.000000000               0.000000000               0.000720310               0.002640610               0.000360607              -0.000059960               0.000900181               0.000840221               0.000000000               0.000000000               0.000000000               0.000000000               0.000670510               0.002904267               0.000319743              -0.000111592               0.001005277               0.000893685               0.000000000               0.000000000               0.000000000               0.000000000               0.000627170               0.003123013               0.000282846              -0.000155187               0.001092723               0.000937536               0.000000000               0.000000000               0.000000000               0.000000000               0.000593714               0.003306216               0.000250598              -0.000190634               0.001165605               0.000974972               0.000000000               0.000000000               0.000000000               0.000000000               0.000570484               0.003457278               0.000224659              -0.000218228               0.001225157               0.001006929               0.000000000               0.000000000               0.000000000               0.000000000               0.000556225               0.003578655               0.000202684              -0.000238747               0.001272455               0.001033709               0.000000000               0.000000000               0.000000000               0.000000000               0.000551115               0.003673431               0.000181024              -0.000252510               0.001308635               0.001056125               0.000000000               0.000000000               0.000000000               0.000000000               0.000562957               0.003751384               0.000154102              -0.000257814               0.001336387               0.001078573               0.000000000               0.000000000               0.000000000               0.000000000               0.000597418               0.003813929               0.000117079              -0.000252709               0.001355533               0.001102825               0.000000000               0.000000000               0.000000000               0.000000000               0.000657457               0.003856348               0.000066752              -0.000235497               0.001363935               0.001128439               0.000000000               0.000000000               0.000000000               0.000000000               0.000713073               0.003877839               0.000038037              -0.000217327               0.001365042               0.001147715               0.000000000               0.000000000               0.000000000               0.000000000              -0.001275469              -0.000029993               0.000000000              -0.000474551               0.000148185              -0.000326366               0.000000000               0.000000000               0.000000000               0.000000000              -0.000273486               0.000320120               0.000000000              -0.000142572               0.000154230               0.000011657               0.000000000               0.000000000               0.000000000               0.000000000               0.000433777               0.000780182              -0.000000000               0.000065143               0.000238344               0.000303487               0.000000000               0.000000000               0.000000000               0.000000000               0.000716029               0.001305305              -0.000000000               0.000105347               0.000399982               0.000505329               0.000000000               0.000000000               0.000000000               0.000000000               0.000811885               0.001783898              -0.000000000               0.000081469               0.000567470               0.000648939               0.000000000               0.000000000               0.000000000               0.000000000               0.000812898               0.002195885               0.000000000               0.000030351               0.000721837               0.000752188               0.000000000               0.000000000               0.000000000               0.000000000               0.000768165               0.002537546               0.000000000              -0.000029131               0.000855551               0.000826419               0.000000000               0.000000000               0.000000000               0.000000000               0.000715853               0.002813748               0.000000000              -0.000083274               0.000965664               0.000882391               0.000000000               0.000000000               0.000000000               0.000000000               0.000668451               0.003042563               0.000000000              -0.000129651               0.001057395               0.000927744               0.000000000               0.000000000               0.000000000               0.000000000               0.000633846               0.003239833              -0.000000000              -0.000167286               0.001135696               0.000968409               0.000000000               0.000000000               0.000000000               0.000000000               0.000608801               0.003406605               0.000000000              -0.000197525               0.001201365               0.001003840               0.000000000               0.000000000               0.000000000               0.000000000               0.000592313               0.003542569               0.000000000              -0.000220703               0.001254412               0.001033709               0.000000000               0.000000000               0.000000000               0.000000000               0.000588884               0.003653499              -0.000000000              -0.000235855               0.001296439               0.001060584               0.000000000               0.000000000               0.000000000               0.000000000               0.000605799               0.003744770               0.000000000              -0.000240921               0.001328551               0.001087630               0.000000000               0.000000000               0.000000000               0.000000000               0.000653429               0.003815697               0.000000000              -0.000231926               0.001349195               0.001117269               0.000000000               0.000000000               0.000000000               0.000000000               0.000740443               0.003860026               0.000000000              -0.000204837               0.001354941               0.001150105               0.000000000               0.000000000               0.000000000               0.000000000               0.000823653               0.003884105              -0.000000000              -0.000176643               0.001353570               0.001176927               0.000000000               0.000000000               0.000000000               0.000000000               0.000967951               0.010971721              -0.000000000              -0.001008481               0.003993364               0.002984883               0.000000000               0.000000000               0.000000000               0.000000000               0.001049241               0.008953794              -0.000000000              -0.000725757               0.003226487               0.002500730               0.000000000               0.000000000               0.000000000               0.000000000               0.001454292               0.007329770              -0.000000000              -0.000370861               0.002566852               0.002195992               0.000000000               0.000000000               0.000000000               0.000000000               0.001500901               0.006435747              -0.000000000              -0.000241630               0.002225771               0.001984141               0.000000000               0.000000000               0.000000000               0.000000000               0.001416618               0.005901803               0.000000000              -0.000206493               0.002036079               0.001829586               0.000000000               0.000000000               0.000000000               0.000000000               0.001286801               0.005575585               0.000000000              -0.000214397               0.001929976               0.001715578               0.000000000               0.000000000               0.000000000               0.000000000               0.001146369               0.005370282              -0.000000000              -0.000241396               0.001870541               0.001629145               0.000000000               0.000000000               0.000000000               0.000000000               0.001008745               0.005234122              -0.000000000              -0.000275985               0.001836685               0.001560700               0.000000000               0.000000000               0.000000000               0.000000000               0.000877198               0.005134093              -0.000000000              -0.000312812               0.001815618               0.001502806               0.000000000               0.000000000               0.000000000               0.000000000               0.000750161               0.005057421               0.000000000              -0.000350866               0.001802746               0.001451879               0.000000000               0.000000000               0.000000000               0.000000000               0.000627928               0.004996069              -0.000000000              -0.000389035               0.001795018               0.001405983               0.000000000               0.000000000               0.000000000               0.000000000               0.000513736               0.004942330               0.000000000              -0.000425139               0.001789140               0.001364001               0.000000000               0.000000000               0.000000000               0.000000000               0.000401881               0.004889157               0.000000000              -0.000460438               0.001783182               0.001322744               0.000000000               0.000000000               0.000000000               0.000000000               0.000292957               0.004834159               0.000000000              -0.000494410               0.001776174               0.001281764               0.000000000               0.000000000               0.000000000               0.000000000               0.000190712               0.004773681              -0.000000000              -0.000525192               0.001766275               0.001241083               0.000000000               0.000000000               0.000000000               0.000000000               0.000095327               0.004699816              -0.000000000              -0.000551728               0.001750499               0.001198771               0.000000000               0.000000000               0.000000000               0.000000000               0.000044298               0.004641672              -0.000000000              -0.000563596               0.001735074               0.001171478               0.000000000               0.000000000               0.000000000               0.000000000               0.001022548               0.010779647              -0.000802525              -0.000963998               0.003914513               0.002950514               0.000000000               0.000000000               0.000000000               0.000000000               0.001057428               0.008819560              -0.000483152              -0.000705908               0.003175127               0.002469219               0.000000000               0.000000000               0.000000000               0.000000000               0.001415364               0.007264262              -0.000155471              -0.000377270               0.002547153               0.002169883               0.000000000               0.000000000               0.000000000               0.000000000               0.001443641               0.006409465              -0.000006542              -0.000259817               0.002223073               0.001963256               0.000000000               0.000000000               0.000000000               0.000000000               0.001354124               0.005901606               0.000065245              -0.000229904               0.002043817               0.001813913               0.000000000               0.000000000               0.000000000               0.000000000               0.001222958               0.005587692               0.000100461              -0.000239852               0.001942496               0.001702644               0.000000000               0.000000000               0.000000000               0.000000000               0.001082188               0.005384338               0.000113507              -0.000267221               0.001883835               0.001616614               0.000000000               0.000000000               0.000000000               0.000000000               0.000947704               0.005243862               0.000113746              -0.000300093               0.001847968               0.001547875               0.000000000               0.000000000               0.000000000               0.000000000               0.000824914               0.005142563               0.000109851              -0.000333477               0.001825329               0.001491853               0.000000000               0.000000000               0.000000000               0.000000000               0.000707819               0.005066349               0.000106785              -0.000367860               0.001811386               0.001443526               0.000000000               0.000000000               0.000000000               0.000000000               0.000592592               0.005005364               0.000102693              -0.000403448               0.001802921               0.001399473               0.000000000               0.000000000               0.000000000               0.000000000               0.000481942               0.004953547               0.000096315              -0.000438464               0.001797321               0.001358856               0.000000000               0.000000000               0.000000000               0.000000000               0.000375185               0.004906436               0.000088646              -0.000472609               0.001792999               0.001320390               0.000000000               0.000000000               0.000000000               0.000000000               0.000272171               0.004860686               0.000078739              -0.000505520               0.001788719               0.001283199               0.000000000               0.000000000               0.000000000               0.000000000               0.000174888               0.004812403               0.000063633              -0.000535966               0.001782774               0.001246808               0.000000000               0.000000000               0.000000000               0.000000000               0.000085217               0.004755582               0.000037713              -0.000562490               0.001772675               0.001210185               0.000000000               0.000000000               0.000000000               0.000000000               0.000039912               0.004714431               0.000020994              -0.000574336               0.001762907               0.001188571               0.000000000               0.000000000               0.000000000               0.000000000               0.001168135               0.010225967              -0.001514825              -0.000840194               0.003688686               0.002848492               0.000000000               0.000000000               0.000000000               0.000000000               0.001075131               0.008439008              -0.000912014              -0.000651701               0.003030208               0.002378507               0.000000000               0.000000000               0.000000000               0.000000000               0.001300078               0.007080276              -0.000300696              -0.000397504               0.002492570               0.002095066               0.000000000               0.000000000               0.000000000               0.000000000               0.001276611               0.006332656              -0.000030790              -0.000312852               0.002215148               0.001902296               0.000000000               0.000000000               0.000000000               0.000000000               0.001172118               0.005886282               0.000094411              -0.000296240               0.002060821               0.001764581               0.000000000               0.000000000               0.000000000               0.000000000               0.001042796               0.005599858               0.000152702              -0.000308933               0.001969578               0.001660645               0.000000000               0.000000000               0.000000000               0.000000000               0.000914115               0.005404410               0.000173148              -0.000332757               0.001912371               0.001579614               0.000000000               0.000000000               0.000000000               0.000000000               0.000795360               0.005262772               0.000174607              -0.000359586               0.001874102               0.001514516               0.000000000               0.000000000               0.000000000               0.000000000               0.000690725               0.005159473               0.000170126              -0.000385911               0.001848444               0.001462533               0.000000000               0.000000000               0.000000000               0.000000000               0.000593364               0.005081664               0.000164617              -0.000412695               0.001831436               0.001418741               0.000000000               0.000000000               0.000000000               0.000000000               0.000498262               0.005021899               0.000156325              -0.000440888               0.001820912               0.001380024               0.000000000               0.000000000               0.000000000               0.000000000               0.000404215               0.004974425               0.000145369              -0.000470221               0.001814865               0.001344644               0.000000000               0.000000000               0.000000000               0.000000000               0.000310831               0.004936535               0.000133110              -0.000500504               0.001812330               0.001311826               0.000000000               0.000000000               0.000000000               0.000000000               0.000221863               0.004906726               0.000116477              -0.000530141               0.001812273               0.001282132               0.000000000               0.000000000               0.000000000               0.000000000               0.000140479               0.004880180               0.000091077              -0.000557341               0.001812491               0.001255149               0.000000000               0.000000000               0.000000000               0.000000000               0.000067478               0.004854194               0.000052482              -0.000581468               0.001811871               0.001230403               0.000000000               0.000000000               0.000000000               0.000000000               0.000034073               0.004841618               0.000028851              -0.000592423               0.001811331               0.001218908               0.000000000               0.000000000               0.000000000               0.000000000               0.001352299               0.009370441              -0.002059439              -0.000664193               0.003344846               0.002680653               0.000000000               0.000000000               0.000000000               0.000000000               0.001078319               0.007866947              -0.001245539              -0.000578998               0.002815289               0.002236291               0.000000000               0.000000000               0.000000000               0.000000000               0.001113566               0.006804821              -0.000431136              -0.000433014               0.002412589               0.001979575               0.000000000               0.000000000               0.000000000               0.000000000               0.001023444               0.006204386              -0.000085735              -0.000391756               0.002198693               0.001806937               0.000000000               0.000000000               0.000000000               0.000000000               0.000903940               0.005829490               0.000068599              -0.000389708               0.002073046               0.001683339               0.000000000               0.000000000               0.000000000               0.000000000               0.000785306               0.005575960               0.000138155              -0.000402504               0.001992803               0.001590298               0.000000000               0.000000000               0.000000000               0.000000000               0.000681561               0.005395121               0.000162537              -0.000418804               0.001937957               0.001519153               0.000000000               0.000000000               0.000000000               0.000000000               0.000591952               0.005260164               0.000164446              -0.000435537               0.001898549               0.001463012               0.000000000               0.000000000               0.000000000               0.000000000               0.000513557               0.005157275               0.000159671              -0.000452074               0.001869766               0.001417692               0.000000000               0.000000000               0.000000000               0.000000000               0.000439133               0.005078399               0.000154615              -0.000470124               0.001849491               0.001379367               0.000000000               0.000000000               0.000000000               0.000000000               0.000366940               0.005018319               0.000146912              -0.000489686               0.001835985               0.001346299               0.000000000               0.000000000               0.000000000               0.000000000               0.000296931               0.004973176               0.000136214              -0.000510297               0.001827808               0.001317511               0.000000000               0.000000000               0.000000000               0.000000000               0.000225224               0.004939987               0.000125862              -0.000533038               0.001824325               0.001291287               0.000000000               0.000000000               0.000000000               0.000000000               0.000156562               0.004916394               0.000110077              -0.000555837               0.001824060               0.001268223               0.000000000               0.000000000               0.000000000               0.000000000               0.000097813               0.004899401               0.000083535              -0.000575744               0.001825032               0.001249288               0.000000000               0.000000000               0.000000000               0.000000000               0.000047541               0.004888728               0.000046121              -0.000593262               0.001827314               0.001234052               0.000000000               0.000000000               0.000000000               0.000000000               0.000025425               0.004887977               0.000024154              -0.000601461               0.001829796               0.001228335               0.000000000               0.000000000               0.000000000               0.000000000               0.001518383               0.008304159              -0.002398989              -0.000468627               0.002924234               0.002455607               0.000000000               0.000000000               0.000000000               0.000000000               0.001050477               0.007170230              -0.001474220              -0.000502350               0.002557502               0.002055153               0.000000000               0.000000000               0.000000000               0.000000000               0.000878487               0.006463401              -0.000557853              -0.000478491               0.002313943               0.001835451               0.000000000               0.000000000               0.000000000               0.000000000               0.000730886               0.006021630              -0.000184867              -0.000478620               0.002166730               0.001688110               0.000000000               0.000000000               0.000000000               0.000000000               0.000611587               0.005722625              -0.000020667              -0.000485982               0.002069517               0.001583535               0.000000000               0.000000000               0.000000000               0.000000000               0.000517687               0.005506830               0.000055865              -0.000494220               0.002000332               0.001506112               0.000000000               0.000000000               0.000000000               0.000000000               0.000443700               0.005343404               0.000086904              -0.000501537               0.001948296               0.001446759               0.000000000               0.000000000               0.000000000               0.000000000               0.000384273               0.005215849               0.000093655              -0.000507877               0.001907891               0.001400014               0.000000000               0.000000000               0.000000000               0.000000000               0.000334883               0.005116448               0.000094518              -0.000513973               0.001876790               0.001362817               0.000000000               0.000000000               0.000000000               0.000000000               0.000286771               0.005038923               0.000096350              -0.000522325               0.001853733               0.001331407               0.000000000               0.000000000               0.000000000               0.000000000               0.000236824               0.004976364               0.000096377              -0.000533235               0.001836516               0.001303281               0.000000000               0.000000000               0.000000000               0.000000000               0.000188013               0.004927961               0.000095361              -0.000545489               0.001824467               0.001278978               0.000000000               0.000000000               0.000000000               0.000000000               0.000141089               0.004893471               0.000093517              -0.000558774               0.001817399               0.001258625               0.000000000               0.000000000               0.000000000               0.000000000               0.000096147               0.004864871               0.000084141              -0.000572052               0.001812292               0.001240239               0.000000000               0.000000000               0.000000000               0.000000000               0.000057668               0.004841902               0.000064044              -0.000583611               0.001808488               0.001224877               0.000000000               0.000000000               0.000000000               0.000000000               0.000027567               0.004826082               0.000034999              -0.000592921               0.001806318               0.001213397               0.000000000               0.000000000               0.000000000               0.000000000               0.000015117               0.004821881               0.000018151              -0.000597065               0.001806299               0.001209234               0.000000000               0.000000000               0.000000000               0.000000000               0.001619853               0.007134346              -0.002535508              -0.000284350               0.002472874               0.002188524               0.000000000               0.000000000               0.000000000               0.000000000               0.000987943               0.006414631              -0.001608804              -0.000431350               0.002281972               0.001850622               0.000000000               0.000000000               0.000000000               0.000000000               0.000630882               0.006082680              -0.000692221              -0.000523753               0.002202124               0.001678371               0.000000000               0.000000000               0.000000000               0.000000000               0.000455654               0.005798944              -0.000326164              -0.000553997               0.002117628               0.001563631               0.000000000               0.000000000               0.000000000               0.000000000               0.000354971               0.005574105              -0.000158350              -0.000563648               0.002045899               0.001482251               0.000000000               0.000000000               0.000000000               0.000000000               0.000294398               0.005394898              -0.000072768              -0.000563962               0.001986269               0.001422307               0.000000000               0.000000000               0.000000000               0.000000000               0.000253345               0.005250434              -0.000030715              -0.000561298               0.001937227               0.001375928               0.000000000               0.000000000               0.000000000               0.000000000               0.000221467               0.005133364              -0.000012608              -0.000558619               0.001897310               0.001338692               0.000000000               0.000000000               0.000000000               0.000000000               0.000196398               0.005039108               0.000000134              -0.000556238               0.001865098               0.001308861               0.000000000               0.000000000               0.000000000               0.000000000               0.000168411               0.004958638               0.000014555              -0.000556674               0.001838421               0.001281747               0.000000000               0.000000000               0.000000000               0.000000000               0.000136192               0.004889769               0.000027370              -0.000560148               0.001816622               0.001256475               0.000000000               0.000000000               0.000000000               0.000000000               0.000103866               0.004833806               0.000040272              -0.000565275               0.001799678               0.001234403               0.000000000               0.000000000               0.000000000               0.000000000               0.000073699               0.004787391               0.000049782              -0.000570785               0.001786043               0.001215257               0.000000000               0.000000000               0.000000000               0.000000000               0.000049505               0.004746048               0.000047834              -0.000574690               0.001773564               0.001198873               0.000000000               0.000000000               0.000000000               0.000000000               0.000029843               0.004707753               0.000035590              -0.000577277               0.001761661               0.001184384               0.000000000               0.000000000               0.000000000               0.000000000               0.000014498               0.004674356               0.000018056              -0.000578856               0.001751055               0.001172199               0.000000000               0.000000000               0.000000000               0.000000000               0.000007019               0.004656821               0.000009841              -0.000579469               0.001745414               0.001165945               0.000000000               0.000000000               0.000000000               0.000000000               0.001624809               0.005957935              -0.002495435              -0.000135441               0.002031105               0.001895664               0.000000000               0.000000000               0.000000000               0.000000000               0.000892468               0.005661011              -0.001663855              -0.000372951               0.002011301               0.001638350               0.000000000               0.000000000               0.000000000               0.000000000               0.000401352               0.005689350              -0.000828631              -0.000560661               0.002083318               0.001522657               0.000000000               0.000000000               0.000000000               0.000000000               0.000229652               0.005552501              -0.000486186              -0.000607942               0.002053462               0.001445521               0.000000000               0.000000000               0.000000000               0.000000000               0.000162417               0.005395076              -0.000314911              -0.000613477               0.002002833               0.001389356               0.000000000               0.000000000               0.000000000               0.000000000               0.000135260               0.005250672              -0.000218715              -0.000605610               0.001952077               0.001346466               0.000000000               0.000000000               0.000000000               0.000000000               0.000124928               0.005122774              -0.000161283              -0.000593497               0.001905407               0.001311910               0.000000000               0.000000000               0.000000000               0.000000000               0.000119151               0.005013955              -0.000125624              -0.000582061               0.001865322               0.001283261               0.000000000               0.000000000               0.000000000               0.000000000               0.000111547               0.004920764              -0.000098036              -0.000573264               0.001831326               0.001258063               0.000000000               0.000000000               0.000000000               0.000000000               0.000094153               0.004835563              -0.000069775              -0.000569136               0.001801550               0.001232414               0.000000000               0.000000000               0.000000000               0.000000000               0.000071520               0.004760811              -0.000042661              -0.000568280               0.001776348               0.001208068               0.000000000               0.000000000               0.000000000               0.000000000               0.000048796               0.004695043              -0.000017798              -0.000568580               0.001754526               0.001185945               0.000000000               0.000000000               0.000000000               0.000000000               0.000028864               0.004633561               0.000001819              -0.000568370               0.001733961               0.001165592               0.000000000               0.000000000               0.000000000               0.000000000               0.000017072               0.004574851               0.000008875              -0.000565453               0.001713420               0.001147966               0.000000000               0.000000000               0.000000000               0.000000000               0.000010528               0.004516216               0.000006644              -0.000560578               0.001692250               0.001131672               0.000000000               0.000000000               0.000000000               0.000000000               0.000006212               0.004460713               0.000002494              -0.000555258               0.001671976               0.001116717               0.000000000               0.000000000               0.000000000               0.000000000              -0.000001045               0.004423210               0.000004449              -0.000553292               0.001658819               0.001105527               0.000000000               0.000000000               0.000000000               0.000000000               0.001534073               0.004848247              -0.002310631              -0.000030756               0.001626318               0.001595561               0.000000000               0.000000000               0.000000000               0.000000000               0.000768194               0.004957628              -0.001652968              -0.000331632               0.001763070               0.001431438               0.000000000               0.000000000               0.000000000               0.000000000               0.000214010               0.005300116              -0.000959207              -0.000582260               0.001960774               0.001378514               0.000000000               0.000000000               0.000000000               0.000000000               0.000070694               0.005286196              -0.000643710              -0.000634263               0.001973469               0.001339206               0.000000000               0.000000000               0.000000000               0.000000000               0.000041563               0.005190418              -0.000469406              -0.000633215               0.001941194               0.001307979               0.000000000               0.000000000               0.000000000               0.000000000               0.000045303               0.005077483              -0.000360351              -0.000617695               0.001898376               0.001280681               0.000000000               0.000000000               0.000000000               0.000000000               0.000057595               0.004963867              -0.000282425              -0.000598884               0.001854234               0.001255350               0.000000000               0.000000000               0.000000000               0.000000000               0.000065572               0.004860507              -0.000223970              -0.000582972               0.001814477               0.001231505               0.000000000               0.000000000               0.000000000               0.000000000               0.000063539               0.004766959              -0.000178612              -0.000572041               0.001779651               0.001207609               0.000000000               0.000000000               0.000000000               0.000000000               0.000050391               0.004683308              -0.000137713              -0.000566516               0.001749926               0.001183410               0.000000000               0.000000000               0.000000000               0.000000000               0.000028864               0.004606462              -0.000099446              -0.000564983               0.001723800               0.001158817               0.000000000               0.000000000               0.000000000               0.000000000               0.000008653               0.004531945              -0.000064834              -0.000563247               0.001698382               0.001135135               0.000000000               0.000000000               0.000000000               0.000000000              -0.000004484               0.004455605              -0.000034923              -0.000558631               0.001671397               0.001112766               0.000000000               0.000000000               0.000000000               0.000000000              -0.000010619               0.004375796              -0.000016802              -0.000550955               0.001642236               0.001091280               0.000000000               0.000000000               0.000000000               0.000000000              -0.000011738               0.004296940              -0.000006869              -0.000541518               0.001612805               0.001071287               0.000000000               0.000000000               0.000000000               0.000000000              -0.000007616               0.004223575              -0.000001052              -0.000530802               0.001584778               0.001053976               0.000000000               0.000000000               0.000000000               0.000000000              -0.000010979               0.004175292               0.000004956              -0.000526027               0.001567092               0.001041065               0.000000000               0.000000000               0.000000000               0.000000000               0.001385661               0.003887683              -0.002030717               0.000033659               0.001284661               0.001318320               0.000000000               0.000000000               0.000000000               0.000000000               0.000658639               0.004327140              -0.001608032              -0.000293904               0.001540333               0.001246429               0.000000000               0.000000000               0.000000000               0.000000000               0.000102646               0.004929300              -0.001103449              -0.000577670               0.001835640               0.001257970               0.000000000               0.000000000               0.000000000               0.000000000              -0.000007179               0.005033316              -0.000809674              -0.000631855               0.001888374               0.001256518               0.000000000               0.000000000               0.000000000               0.000000000              -0.000013086               0.005003593              -0.000627081              -0.000630355               0.001877966               0.001247611               0.000000000               0.000000000               0.000000000               0.000000000               0.000009700               0.004927631              -0.000499555              -0.000612315               0.001846632               0.001234317               0.000000000               0.000000000               0.000000000               0.000000000               0.000035641               0.004836202              -0.000399266              -0.000591158               0.001809104               0.001217946               0.000000000               0.000000000               0.000000000               0.000000000               0.000049612               0.004741550              -0.000318793              -0.000574088               0.001771863               0.001197776               0.000000000               0.000000000               0.000000000               0.000000000               0.000046318               0.004651230              -0.000256438              -0.000564033               0.001738406               0.001174372               0.000000000               0.000000000               0.000000000               0.000000000               0.000032563               0.004573741              -0.000203999              -0.000559505               0.001711067               0.001151562               0.000000000               0.000000000               0.000000000               0.000000000               0.000011207               0.004498742              -0.000155964              -0.000558139               0.001685612               0.001127473               0.000000000               0.000000000               0.000000000               0.000000000              -0.000009960               0.004420078              -0.000114138              -0.000556243               0.001658759               0.001102516               0.000000000               0.000000000               0.000000000               0.000000000              -0.000024977               0.004331012              -0.000075566              -0.000550741               0.001627237               0.001076495               0.000000000               0.000000000               0.000000000               0.000000000              -0.000035657               0.004232859              -0.000043465              -0.000542477               0.001591765               0.001049287               0.000000000               0.000000000               0.000000000               0.000000000              -0.000046556               0.004134920              -0.000019724              -0.000534322               0.001556400               0.001022078               0.000000000               0.000000000               0.000000000               0.000000000              -0.000055282               0.004043048              -0.000003655              -0.000526110               0.001523039               0.000996929               0.000000000               0.000000000               0.000000000               0.000000000              -0.000057637               0.003993637               0.000003672              -0.000520817               0.001504805               0.000983988               0.000000000               0.000000000               0.000000000               0.000000000               0.001168822               0.002965392              -0.001709805               0.000067631               0.000965910               0.001033541               0.000000000               0.000000000               0.000000000               0.000000000               0.000592517               0.003589449              -0.001549065              -0.000226489               0.001271967               0.001045478               0.000000000               0.000000000               0.000000000               0.000000000               0.000091846               0.004375916              -0.001268138              -0.000512547               0.001629473               0.001116926               0.000000000               0.000000000               0.000000000               0.000000000              -0.000007821               0.004636366              -0.001000695              -0.000582478               0.001739599               0.001157121               0.000000000               0.000000000               0.000000000               0.000000000              -0.000013530               0.004709315              -0.000805129              -0.000593737               0.001767668               0.001173931               0.000000000               0.000000000               0.000000000               0.000000000               0.000007578               0.004702369              -0.000659935              -0.000584953               0.001762425               0.001177472               0.000000000               0.000000000               0.000000000               0.000000000               0.000035985               0.004656511              -0.000542034              -0.000568568               0.001741678               0.001173109               0.000000000               0.000000000               0.000000000               0.000000000               0.000053861               0.004592790              -0.000443177              -0.000553899               0.001715548               0.001161648               0.000000000               0.000000000               0.000000000               0.000000000               0.000057091               0.004527244              -0.000362312              -0.000544495               0.001690565               0.001146069               0.000000000               0.000000000               0.000000000               0.000000000               0.000043060               0.004463996              -0.000293281              -0.000541851               0.001668601               0.001126750               0.000000000               0.000000000               0.000000000               0.000000000               0.000017481               0.004400941              -0.000234319              -0.000543561               0.001648153               0.001104592               0.000000000               0.000000000               0.000000000               0.000000000              -0.000013158               0.004332838              -0.000182778              -0.000546538               0.001626444               0.001079906               0.000000000               0.000000000               0.000000000               0.000000000              -0.000043906               0.004252606              -0.000133812              -0.000548039               0.001600201               0.001052162               0.000000000               0.000000000               0.000000000               0.000000000              -0.000070564               0.004163565              -0.000087202              -0.000546906               0.001570143               0.001023237               0.000000000               0.000000000               0.000000000               0.000000000              -0.000099661               0.004067181              -0.000045700              -0.000545769               0.001537637               0.000991868               0.000000000               0.000000000               0.000000000               0.000000000              -0.000132689               0.003969994              -0.000015579              -0.000546006               0.001505320               0.000959314               0.000000000               0.000000000               0.000000000               0.000000000              -0.000150355               0.003920619              -0.000002858              -0.000546459               0.001489013               0.000942554               0.000000000               0.000000000               0.000000000               0.000000000               0.000842380               0.002108045              -0.001359968               0.000052385               0.000685212               0.000737597               0.000000000               0.000000000               0.000000000               0.000000000               0.000516732               0.002846077              -0.001444505              -0.000161987               0.001002678               0.000840691               0.000000000               0.000000000               0.000000000               0.000000000               0.000136501               0.003748951              -0.001388643              -0.000417431               0.001388781               0.000971350               0.000000000               0.000000000               0.000000000               0.000000000               0.000042122               0.004156672              -0.001175169              -0.000503788               0.001553472               0.001049685               0.000000000               0.000000000               0.000000000               0.000000000               0.000026647               0.004347091              -0.000982084              -0.000533393               0.001626813               0.001093420               0.000000000               0.000000000               0.000000000               0.000000000               0.000041202               0.004427035              -0.000829947              -0.000537928               0.001654973               0.001117045               0.000000000               0.000000000               0.000000000               0.000000000               0.000068861               0.004443285              -0.000702102              -0.000529587               0.001657609               0.001128022               0.000000000               0.000000000               0.000000000               0.000000000               0.000088532               0.004427703              -0.000590319              -0.000520262               0.001649307               0.001129045               0.000000000               0.000000000               0.000000000               0.000000000               0.000093607               0.004399080              -0.000493851              -0.000514781               0.001637939               0.001123158               0.000000000               0.000000000               0.000000000               0.000000000               0.000083111               0.004366151              -0.000409440              -0.000514601               0.001626903               0.001112302               0.000000000               0.000000000               0.000000000               0.000000000               0.000056687               0.004325443              -0.000338047              -0.000519422               0.001614940               0.001095519               0.000000000               0.000000000               0.000000000               0.000000000               0.000018290               0.004273713              -0.000276526              -0.000527354               0.001600342               0.001072987               0.000000000               0.000000000               0.000000000               0.000000000              -0.000024085               0.004208641              -0.000220214              -0.000535111               0.001581237               0.001046126               0.000000000               0.000000000               0.000000000               0.000000000              -0.000066504               0.004134555              -0.000161830              -0.000541757               0.001558757               0.001017000               0.000000000               0.000000000               0.000000000               0.000000000              -0.000113912               0.004052945              -0.000099682              -0.000549334               0.001534080               0.000984746               0.000000000               0.000000000               0.000000000               0.000000000              -0.000173542               0.003967659              -0.000044068              -0.000561034               0.001509551               0.000948517               0.000000000               0.000000000               0.000000000               0.000000000              -0.000217876               0.003917854              -0.000014190              -0.000571434               0.001496416               0.000924982               0.000000000               0.000000000               0.000000000               0.000000000               0.000427999               0.001372752              -0.000998671              -0.000011096               0.000461277               0.000450182               0.000000000               0.000000000               0.000000000               0.000000000               0.000394762               0.002141231              -0.001269990              -0.000119619               0.000753609               0.000633990               0.000000000               0.000000000               0.000000000               0.000000000               0.000200501               0.003061035              -0.001404574              -0.000307442               0.001122815               0.000815373               0.000000000               0.000000000               0.000000000               0.000000000               0.000143381               0.003576499              -0.001269800              -0.000393295               0.001323252               0.000929958               0.000000000               0.000000000               0.000000000               0.000000000               0.000127049               0.003877549              -0.001102804              -0.000437050               0.001438187               0.001001136               0.000000000               0.000000000               0.000000000               0.000000000               0.000129691               0.004049095              -0.000958017              -0.000457502               0.001502185               0.001044683               0.000000000               0.000000000               0.000000000               0.000000000               0.000143728               0.004139669              -0.000827277              -0.000463560               0.001534396               0.001070836               0.000000000               0.000000000               0.000000000               0.000000000               0.000156794               0.004185153              -0.000709190              -0.000464345               0.001549819               0.001085473               0.000000000               0.000000000               0.000000000               0.000000000               0.000160229               0.004206284              -0.000605444              -0.000465699               0.001557313               0.001091615               0.000000000               0.000000000               0.000000000               0.000000000               0.000151957               0.004213897              -0.000513364              -0.000469752               0.001561202               0.001091450               0.000000000               0.000000000               0.000000000               0.000000000               0.000128912               0.004204134              -0.000433969              -0.000477174               0.001560422               0.001083248               0.000000000               0.000000000               0.000000000               0.000000000               0.000092582               0.004175969              -0.000367357              -0.000487277               0.001554401               0.001067125               0.000000000               0.000000000               0.000000000               0.000000000               0.000046458               0.004132421              -0.000305983              -0.000499130               0.001543836               0.001044707               0.000000000               0.000000000               0.000000000               0.000000000              -0.000006612               0.004079100              -0.000239682              -0.000512366               0.001530475               0.001018109               0.000000000               0.000000000               0.000000000               0.000000000              -0.000066518               0.004018218              -0.000162303              -0.000527220               0.001515133               0.000987912               0.000000000               0.000000000               0.000000000               0.000000000              -0.000141167               0.003953318              -0.000080568              -0.000547101               0.001500126               0.000953026               0.000000000               0.000000000               0.000000000               0.000000000              -0.000202075               0.003908196              -0.000033613              -0.000564301               0.001490819               0.000926518               0.000000000               0.000000000               0.000000000               0.000000000              -0.000038479               0.000798337              -0.000663854              -0.000114222               0.000304183               0.000189961               0.000000000               0.000000000               0.000000000               0.000000000               0.000234175               0.001514328              -0.001042412              -0.000101476               0.000538596               0.000437119               0.000000000               0.000000000               0.000000000               0.000000000               0.000273820               0.002370226              -0.001304155              -0.000193597               0.000854599               0.000661002               0.000000000               0.000000000               0.000000000               0.000000000               0.000282790               0.002940177              -0.001251635              -0.000261476               0.001067207               0.000805731               0.000000000               0.000000000               0.000000000               0.000000000               0.000279917               0.003327311              -0.001129534              -0.000310945               0.001212741               0.000901795               0.000000000               0.000000000               0.000000000               0.000000000               0.000272636               0.003589655              -0.001004835              -0.000346468               0.001312029               0.000965561               0.000000000               0.000000000               0.000000000               0.000000000               0.000268424               0.003760455              -0.000881763              -0.000369397               0.001376605               0.001007207               0.000000000               0.000000000               0.000000000               0.000000000               0.000266269               0.003870109              -0.000766237              -0.000383912               0.001417994               0.001034082               0.000000000               0.000000000               0.000000000               0.000000000               0.000262790               0.003945563              -0.000663376              -0.000394649               0.001446724               0.001052075               0.000000000               0.000000000               0.000000000               0.000000000               0.000254603               0.003997965              -0.000572108              -0.000404269               0.001467398               0.001063129               0.000000000               0.000000000               0.000000000               0.000000000               0.000237117               0.004022611              -0.000494766              -0.000413907               0.001478826               0.001064919               0.000000000               0.000000000               0.000000000               0.000000000               0.000208774               0.004026101              -0.000428289              -0.000424971               0.001483677               0.001058706               0.000000000               0.000000000               0.000000000               0.000000000               0.000168347               0.004016301              -0.000364079              -0.000438906               0.001485056               0.001046149               0.000000000               0.000000000               0.000000000               0.000000000               0.000116128               0.003996698              -0.000293420              -0.000456038               0.001484232               0.001028194               0.000000000               0.000000000               0.000000000               0.000000000               0.000053733               0.003967385              -0.000209637              -0.000475772               0.001481039               0.001005267               0.000000000               0.000000000               0.000000000               0.000000000              -0.000019752               0.003929918              -0.000110977              -0.000498645               0.001476175               0.000977529               0.000000000               0.000000000               0.000000000               0.000000000              -0.000080120               0.003898344              -0.000052083              -0.000517337               0.001471881               0.000954544               0.000000000               0.000000000               0.000000000               0.000000000              -0.000502902               0.000396657              -0.000388584              -0.000238170               0.000211607              -0.000026563               0.000000000               0.000000000               0.000000000               0.000000000               0.000054318               0.001000511              -0.000785515              -0.000104695               0.000368398               0.000263703               0.000000000               0.000000000               0.000000000               0.000000000               0.000339721               0.001736156              -0.001093652              -0.000089625               0.000608587               0.000518962               0.000000000               0.000000000               0.000000000               0.000000000               0.000437861               0.002318645              -0.001101340              -0.000125633               0.000814751               0.000689118               0.000000000               0.000000000               0.000000000               0.000000000               0.000462778               0.002762826              -0.001027294              -0.000171812               0.000978203               0.000806391               0.000000000               0.000000000               0.000000000               0.000000000               0.000451608               0.003093748              -0.000933498              -0.000217366               0.001103694               0.000886328               0.000000000               0.000000000               0.000000000               0.000000000               0.000430090               0.003332289              -0.000830092              -0.000255252               0.001195836               0.000940583               0.000000000               0.000000000               0.000000000               0.000000000               0.000407618               0.003504779              -0.000727631              -0.000285241               0.001263328               0.000978088               0.000000000               0.000000000               0.000000000               0.000000000               0.000389514               0.003636185              -0.000635539              -0.000308455               0.001314868               0.001006413               0.000000000               0.000000000               0.000000000               0.000000000               0.000376139               0.003735790              -0.000555138              -0.000325921               0.001353891               0.001027970               0.000000000               0.000000000               0.000000000               0.000000000               0.000361532               0.003804993              -0.000487921              -0.000340049               0.001381668               0.001041619               0.000000000               0.000000000               0.000000000               0.000000000               0.000341015               0.003849340              -0.000429577              -0.000353286               0.001400862               0.001047576               0.000000000               0.000000000               0.000000000               0.000000000               0.000314585               0.003876655              -0.000370371              -0.000366612               0.001414409               0.001047798               0.000000000               0.000000000               0.000000000               0.000000000               0.000281761               0.003897465              -0.000301585              -0.000381522               0.001426316               0.001044794               0.000000000               0.000000000               0.000000000               0.000000000               0.000240523               0.003905925              -0.000220182              -0.000398044               0.001434643               0.001036600               0.000000000               0.000000000               0.000000000               0.000000000               0.000191658               0.003898483              -0.000119502              -0.000415438               0.001437960               0.001022523               0.000000000               0.000000000               0.000000000               0.000000000               0.000154892               0.003885902              -0.000059587              -0.000427652               0.001437839               0.001010186               0.000000000               0.000000000               0.000000000               0.000000000              -0.000903279               0.000145031              -0.000193830              -0.000356858               0.000167295              -0.000189563               0.000000000               0.000000000               0.000000000               0.000000000              -0.000111335               0.000624193              -0.000519413              -0.000119775               0.000247987               0.000128212               0.000000000               0.000000000               0.000000000               0.000000000               0.000389890               0.001226583              -0.000789147              -0.000007115               0.000411228               0.000404113               0.000000000               0.000000000               0.000000000               0.000000000               0.000579468               0.001791871              -0.000824772              -0.000006685               0.000599512               0.000592828               0.000000000               0.000000000               0.000000000               0.000000000               0.000637460               0.002260831              -0.000786803              -0.000043557               0.000768122               0.000724564               0.000000000               0.000000000               0.000000000               0.000000000               0.000629618               0.002634957              -0.000726236              -0.000093263               0.000909398               0.000816135               0.000000000               0.000000000               0.000000000               0.000000000               0.000595240               0.002928889              -0.000652281              -0.000142896               0.001023919               0.000881022               0.000000000               0.000000000               0.000000000               0.000000000               0.000554796               0.003156430              -0.000575160              -0.000186505               0.001114301               0.000927796               0.000000000               0.000000000               0.000000000               0.000000000               0.000520573               0.003338094              -0.000506372              -0.000222047               0.001186702               0.000964656               0.000000000               0.000000000               0.000000000               0.000000000               0.000496198               0.003486571              -0.000446838              -0.000249747               0.001245428               0.000995681               0.000000000               0.000000000               0.000000000               0.000000000               0.000478457               0.003602030              -0.000396617              -0.000270832               0.001290942               0.001020110               0.000000000               0.000000000               0.000000000               0.000000000               0.000463604               0.003687784              -0.000353917              -0.000287121               0.001324956               0.001037835               0.000000000               0.000000000               0.000000000               0.000000000               0.000451358               0.003750988              -0.000310370              -0.000299614               0.001350188               0.001050574               0.000000000               0.000000000               0.000000000               0.000000000               0.000445431               0.003802586              -0.000256811              -0.000308286               0.001370278               0.001061992               0.000000000               0.000000000               0.000000000               0.000000000               0.000444006               0.003841521              -0.000189825              -0.000313687               0.001385057               0.001071369               0.000000000               0.000000000               0.000000000               0.000000000               0.000445814               0.003866114              -0.000104951              -0.000316083               0.001394053               0.001077970               0.000000000               0.000000000               0.000000000               0.000000000               0.000450166               0.003874906              -0.000056152              -0.000315550               0.001396806               0.001081256               0.000000000               0.000000000               0.000000000               0.000000000              -0.001177396               0.000010922              -0.000075192              -0.000442888               0.000151269              -0.000291619               0.000000000               0.000000000               0.000000000               0.000000000              -0.000229782               0.000396912              -0.000257444              -0.000135782               0.000177563               0.000041781               0.000000000               0.000000000               0.000000000               0.000000000               0.000422445               0.000896520              -0.000413565               0.000046351               0.000283387               0.000329738               0.000000000               0.000000000               0.000000000               0.000000000               0.000679700               0.001433173              -0.000442198               0.000075740               0.000452473               0.000528213               0.000000000               0.000000000               0.000000000               0.000000000               0.000764034               0.001909610              -0.000427339               0.000047811               0.000620593               0.000668404               0.000000000               0.000000000               0.000000000               0.000000000               0.000762500               0.002312305              -0.000398671              -0.000003101               0.000771794               0.000768693               0.000000000               0.000000000               0.000000000               0.000000000               0.000720310               0.002640610              -0.000360607              -0.000059960               0.000900181               0.000840221               0.000000000               0.000000000               0.000000000               0.000000000               0.000670510               0.002904267              -0.000319743              -0.000111592               0.001005277               0.000893685               0.000000000               0.000000000               0.000000000               0.000000000               0.000627170               0.003123013              -0.000282846              -0.000155187               0.001092723               0.000937536               0.000000000               0.000000000               0.000000000               0.000000000               0.000593714               0.003306216              -0.000250598              -0.000190634               0.001165605               0.000974972               0.000000000               0.000000000               0.000000000               0.000000000               0.000570484               0.003457278              -0.000224659              -0.000218228               0.001225157               0.001006929               0.000000000               0.000000000               0.000000000               0.000000000               0.000556225               0.003578655              -0.000202684              -0.000238747               0.001272455               0.001033709               0.000000000               0.000000000               0.000000000               0.000000000               0.000551115               0.003673431              -0.000181024              -0.000252510               0.001308635               0.001056125               0.000000000               0.000000000               0.000000000               0.000000000               0.000562957               0.003751384              -0.000154102              -0.000257814               0.001336387               0.001078573               0.000000000               0.000000000               0.000000000               0.000000000               0.000597418               0.003813929              -0.000117079              -0.000252709               0.001355533               0.001102825               0.000000000               0.000000000               0.000000000               0.000000000               0.000657457               0.003856348              -0.000066752              -0.000235497               0.001363935               0.001128439               0.000000000               0.000000000               0.000000000               0.000000000               0.000713073               0.003877839              -0.000038037              -0.000217327               0.001365042               0.001147715               0.000000000               0.000000000               0.000000000               0.000000000               0.000000000               0.000000000               0.000000000               0.000000000               0.000000000               0.000000000               0.000000000               0.000000000               0.000000000               0.000000000               0.000000000               0.000000000               0.000000000               0.000000000               0.000000000               0.000000000               0.000000000               0.000000000               0.000000000               0.000000000               0.000000000               0.000000000               0.000000000               0.000000000               0.000000000               0.000000000               0.000000000               0.000000000               0.000000000               0.000000000               0.000000000               0.000000000               0.000000000               0.000000000               0.000000000               0.000000000               0.000000000               0.000000000               0.000000000               0.000000000               0.000000000               0.000000000               0.000000000               0.000000000               0.000000000               0.000000000               0.000000000               0.000000000               0.000000000               0.000000000               0.000000000               0.000000000               0.000000000               0.000000000               0.000000000               0.000000000               0.000000000               0.000000000               0.000000000               0.000000000               0.000000000               0.000000000               0.000000000               0.000000000               0.000000000               0.000000000               0.000000000               0.000000000               0.000000000               0.000000000               0.000000000               0.000000000               0.000000000               0.000000000               0.000000000               0.000000000               0.000000000               0.000000000               0.000000000               0.000000000               0.000000000               0.000000000               0.000000000               0.000000000               0.000000000               0.000000000               0.000000000               0.000000000               0.000000000               0.000000000               0.000000000               0.000000000               0.000000000               0.000000000               0.000000000               0.000000000               0.000000000               0.000000000               0.000000000               0.000000000               0.000000000               0.000000000               0.000000000               0.000000000               0.000000000               0.000000000               0.000000000               0.000000000               0.000000000               0.000000000               0.000000000               0.000000000               0.000000000               0.000000000               0.000000000               0.000000000               0.000000000               0.000000000               0.000000000               0.000000000               0.000000000               0.000000000               0.000000000               0.000000000               0.000000000               0.000000000               0.000000000               0.000000000               0.000000000               0.000000000               0.000000000               0.000000000               0.000000000               0.000000000               0.000000000               0.000000000               0.000000000               0.000000000               0.000000000               0.000000000               0.000000000               0.000000000               0.000000000               0.000000000               0.000000000               0.000000000               0.000000000               0.000000000               0.000000000               0.000000000               0.000000000               0.000000000               0.000000000               0.000000000               0.000000000               0.000000000               0.000000000               0.000000000               0.000000000               0.000000000               0.000000000               0.000000000               0.000000000               0.000000000               0.000000000               0.000000000               0.000000000               0.000000000               0.000000000               0.000000000               0.000000000               0.000000000               0.000000000               0.000000000               0.000000000               0.000000000               0.000000000               0.000000000               0.000000000               0.000000000               0.000000000               0.000000000               0.000000000               0.000000000               0.000000000               0.000000000               0.000000000               0.000000000               0.000000000               0.000000000               0.000000000               0.000000000               0.000000000               0.000000000               0.000000000               0.000000000               0.000000000               0.000000000               0.000000000               0.000000000               0.000000000               0.000000000               0.000000000               0.000000000               0.000000000               0.000000000               0.000000000               0.000000000               0.000000000               0.000000000               0.000000000               0.000000000               0.000000000               0.000000000               0.000000000               0.000000000               0.000000000               0.000000000               0.000000000               0.000000000               0.000000000               0.000000000               0.000000000               0.000000000               0.000000000               0.000000000               0.000000000               0.000000000               0.000000000               0.000000000               0.000000000               0.000000000               0.000000000               0.000000000               0.000000000               0.000000000               0.000000000               0.000000000               0.000000000               0.000000000               0.000000000               0.000000000               0.000000000               0.000000000               0.000000000               0.000000000               0.000000000               0.000000000               0.000000000               0.000000000               0.000000000               0.000000000               0.000000000               0.000000000               0.000000000               0.000000000               0.000000000               0.000000000               0.000000000               0.000000000               0.000000000               0.000000000               0.000000000               0.000000000               0.000000000               0.000000000               0.000000000               0.000000000               0.000000000               0.000000000               0.000000000               0.000000000               0.000000000               0.000000000               0.000000000               0.000000000               0.000000000               0.000000000               0.000000000               0.000000000               0.000000000               0.000000000               0.000000000               0.000000000               0.000000000               0.000000000               0.000000000               0.000000000               0.000000000               0.000000000               0.000000000               0.000000000               0.000000000               0.000000000               0.000000000               0.000000000               0.000000000               0.000000000               0.000000000               0.000000000               0.000000000               0.000000000               0.000000000               0.000000000               0.000000000               0.000000000               0.000000000               0.000000000               0.000000000               0.000000000               0.000000000               0.000000000               0.000000000               0.000000000               0.000000000               0.000000000               0.000000000               0.000000000               0.000000000               0.000000000               0.000000000               0.000000000               0.000000000               0.000000000               0.000000000               0.000000000               0.000000000               0.000000000               0.000000000               0.000000000               0.000000000               0.000000000               0.000000000               0.000000000               0.000000000               0.000000000               0.000000000               0.000000000               0.000000000               0.000000000               0.001022548               0.010779647               0.000802525              -0.000963998               0.003914513               0.002950514               0.000000000               0.000000000               0.000000000               0.000000000               0.001057428               0.008819560               0.000483152              -0.000705908               0.003175127               0.002469219               0.000000000               0.000000000               0.000000000               0.000000000               0.001415364               0.007264262               0.000155471              -0.000377270               0.002547153               0.002169883               0.000000000               0.000000000               0.000000000               0.000000000               0.001443641               0.006409465               0.000006542              -0.000259817               0.002223073               0.001963256               0.000000000               0.000000000               0.000000000               0.000000000               0.001354124               0.005901606              -0.000065245              -0.000229904               0.002043817               0.001813913               0.000000000               0.000000000               0.000000000               0.000000000               0.001222958               0.005587692              -0.000100461              -0.000239852               0.001942496               0.001702644               0.000000000               0.000000000               0.000000000               0.000000000               0.001082188               0.005384338              -0.000113507              -0.000267221               0.001883835               0.001616614               0.000000000               0.000000000               0.000000000               0.000000000               0.000947704               0.005243862              -0.000113746              -0.000300093               0.001847968               0.001547875               0.000000000               0.000000000               0.000000000               0.000000000               0.000824914               0.005142563              -0.000109851              -0.000333477               0.001825329               0.001491853               0.000000000               0.000000000               0.000000000               0.000000000               0.000707819               0.005066349              -0.000106785              -0.000367860               0.001811386               0.001443526               0.000000000               0.000000000               0.000000000               0.000000000               0.000592592               0.005005364              -0.000102693              -0.000403448               0.001802921               0.001399473               0.000000000               0.000000000               0.000000000               0.000000000               0.000481942               0.004953547              -0.000096315              -0.000438464               0.001797321               0.001358856               0.000000000               0.000000000               0.000000000               0.000000000               0.000375185               0.004906436              -0.000088646              -0.000472609               0.001792999               0.001320390               0.000000000               0.000000000               0.000000000               0.000000000               0.000272171               0.004860686              -0.000078739              -0.000505520               0.001788719               0.001283199               0.000000000               0.000000000               0.000000000               0.000000000               0.000174888               0.004812403              -0.000063633              -0.000535966               0.001782774               0.001246808               0.000000000               0.000000000               0.000000000               0.000000000               0.000085217               0.004755582              -0.000037713              -0.000562490               0.001772675               0.001210185               0.000000000               0.000000000               0.000000000               0.000000000               0.000039912               0.004714431              -0.000020994              -0.000574336               0.001762907               0.001188571               0.000000000               0.000000000               0.000000000               0.000000000               0.001168135               0.010225967               0.001514825              -0.000840194               0.003688686               0.002848492               0.000000000               0.000000000               0.000000000               0.000000000               0.001075131               0.008439008               0.000912014              -0.000651701               0.003030208               0.002378507               0.000000000               0.000000000               0.000000000               0.000000000               0.001300078               0.007080276               0.000300696              -0.000397504               0.002492570               0.002095066               0.000000000               0.000000000               0.000000000               0.000000000               0.001276611               0.006332656               0.000030790              -0.000312852               0.002215148               0.001902296               0.000000000               0.000000000               0.000000000               0.000000000               0.001172118               0.005886282              -0.000094411              -0.000296240               0.002060821               0.001764581               0.000000000               0.000000000               0.000000000               0.000000000               0.001042796               0.005599858              -0.000152702              -0.000308933               0.001969578               0.001660645               0.000000000               0.000000000               0.000000000               0.000000000               0.000914115               0.005404410              -0.000173148              -0.000332757               0.001912371               0.001579614               0.000000000               0.000000000               0.000000000               0.000000000               0.000795360               0.005262772              -0.000174607              -0.000359586               0.001874102               0.001514516               0.000000000               0.000000000               0.000000000               0.000000000               0.000690725               0.005159473              -0.000170126              -0.000385911               0.001848444               0.001462533               0.000000000               0.000000000               0.000000000               0.000000000               0.000593364               0.005081664              -0.000164617              -0.000412695               0.001831436               0.001418741               0.000000000               0.000000000               0.000000000               0.000000000               0.000498262               0.005021899              -0.000156325              -0.000440888               0.001820912               0.001380024               0.000000000               0.000000000               0.000000000               0.000000000               0.000404215               0.004974425              -0.000145369              -0.000470221               0.001814865               0.001344644               0.000000000               0.000000000               0.000000000               0.000000000               0.000310831               0.004936535              -0.000133110              -0.000500504               0.001812330               0.001311826               0.000000000               0.000000000               0.000000000               0.000000000               0.000221863               0.004906726              -0.000116477              -0.000530141               0.001812273               0.001282132               0.000000000               0.000000000               0.000000000               0.000000000               0.000140479               0.004880180              -0.000091077              -0.000557341               0.001812491               0.001255149               0.000000000               0.000000000               0.000000000               0.000000000               0.000067478               0.004854194              -0.000052482              -0.000581468               0.001811871               0.001230403               0.000000000               0.000000000               0.000000000               0.000000000               0.000034073               0.004841618              -0.000028851              -0.000592423               0.001811331               0.001218908               0.000000000               0.000000000               0.000000000               0.000000000               0.001352299               0.009370441               0.002059439              -0.000664193               0.003344846               0.002680653               0.000000000               0.000000000               0.000000000               0.000000000               0.001078319               0.007866947               0.001245539              -0.000578998               0.002815289               0.002236291               0.000000000               0.000000000               0.000000000               0.000000000               0.001113566               0.006804821               0.000431136              -0.000433014               0.002412589               0.001979575               0.000000000               0.000000000               0.000000000               0.000000000               0.001023444               0.006204386               0.000085735              -0.000391756               0.002198693               0.001806937               0.000000000               0.000000000               0.000000000               0.000000000               0.000903940               0.005829490              -0.000068599              -0.000389708               0.002073046               0.001683339               0.000000000               0.000000000               0.000000000               0.000000000               0.000785306               0.005575960              -0.000138155              -0.000402504               0.001992803               0.001590298               0.000000000               0.000000000               0.000000000               0.000000000               0.000681561               0.005395121              -0.000162537              -0.000418804               0.001937957               0.001519153               0.000000000               0.000000000               0.000000000               0.000000000               0.000591952               0.005260164              -0.000164446              -0.000435537               0.001898549               0.001463012               0.000000000               0.000000000               0.000000000               0.000000000               0.000513557               0.005157275              -0.000159671              -0.000452074               0.001869766               0.001417692               0.000000000               0.000000000               0.000000000               0.000000000               0.000439133               0.005078399              -0.000154615              -0.000470124               0.001849491               0.001379367               0.000000000               0.000000000               0.000000000               0.000000000               0.000366940               0.005018319              -0.000146912              -0.000489686               0.001835985               0.001346299               0.000000000               0.000000000               0.000000000               0.000000000               0.000296931               0.004973176              -0.000136214              -0.000510297               0.001827808               0.001317511               0.000000000               0.000000000               0.000000000               0.000000000               0.000225224               0.004939987              -0.000125862              -0.000533038               0.001824325               0.001291287               0.000000000               0.000000000               0.000000000               0.000000000               0.000156562               0.004916394              -0.000110077              -0.000555837               0.001824060               0.001268223               0.000000000               0.000000000               0.000000000               0.000000000               0.000097813               0.004899401              -0.000083535              -0.000575744               0.001825032               0.001249288               0.000000000               0.000000000               0.000000000               0.000000000               0.000047541               0.004888728              -0.000046121              -0.000593262               0.001827314               0.001234052               0.000000000               0.000000000               0.000000000               0.000000000               0.000025425               0.004887977              -0.000024154              -0.000601461               0.001829796               0.001228335               0.000000000               0.000000000               0.000000000               0.000000000               0.001518383               0.008304159               0.002398989              -0.000468627               0.002924234               0.002455607               0.000000000               0.000000000               0.000000000               0.000000000               0.001050477               0.007170230               0.001474220              -0.000502350               0.002557502               0.002055153               0.000000000               0.000000000               0.000000000               0.000000000               0.000878487               0.006463401               0.000557853              -0.000478491               0.002313943               0.001835451               0.000000000               0.000000000               0.000000000               0.000000000               0.000730886               0.006021630               0.000184867              -0.000478620               0.002166730               0.001688110               0.000000000               0.000000000               0.000000000               0.000000000               0.000611587               0.005722625               0.000020667              -0.000485982               0.002069517               0.001583535               0.000000000               0.000000000               0.000000000               0.000000000               0.000517687               0.005506830              -0.000055865              -0.000494220               0.002000332               0.001506112               0.000000000               0.000000000               0.000000000               0.000000000               0.000443700               0.005343404              -0.000086904              -0.000501537               0.001948296               0.001446759               0.000000000               0.000000000               0.000000000               0.000000000               0.000384273               0.005215849              -0.000093655              -0.000507877               0.001907891               0.001400014               0.000000000               0.000000000               0.000000000               0.000000000               0.000334883               0.005116448              -0.000094518              -0.000513973               0.001876790               0.001362817               0.000000000               0.000000000               0.000000000               0.000000000               0.000286771               0.005038923              -0.000096350              -0.000522325               0.001853733               0.001331407               0.000000000               0.000000000               0.000000000               0.000000000               0.000236824               0.004976364              -0.000096377              -0.000533235               0.001836516               0.001303281               0.000000000               0.000000000               0.000000000               0.000000000               0.000188013               0.004927961              -0.000095361              -0.000545489               0.001824467               0.001278978               0.000000000               0.000000000               0.000000000               0.000000000               0.000141089               0.004893471              -0.000093517              -0.000558774               0.001817399               0.001258625               0.000000000               0.000000000               0.000000000               0.000000000               0.000096147               0.004864871              -0.000084141              -0.000572052               0.001812292               0.001240239               0.000000000               0.000000000               0.000000000               0.000000000               0.000057668               0.004841902              -0.000064044              -0.000583611               0.001808488               0.001224877               0.000000000               0.000000000               0.000000000               0.000000000               0.000027567               0.004826082              -0.000034999              -0.000592921               0.001806318               0.001213397               0.000000000               0.000000000               0.000000000               0.000000000               0.000015117               0.004821881              -0.000018151              -0.000597065               0.001806299               0.001209234               0.000000000               0.000000000               0.000000000               0.000000000               0.001619853               0.007134346               0.002535508              -0.000284350               0.002472874               0.002188524               0.000000000               0.000000000               0.000000000               0.000000000               0.000987943               0.006414631               0.001608804              -0.000431350               0.002281972               0.001850622               0.000000000               0.000000000               0.000000000               0.000000000               0.000630882               0.006082680               0.000692221              -0.000523753               0.002202124               0.001678371               0.000000000               0.000000000               0.000000000               0.000000000               0.000455654               0.005798944               0.000326164              -0.000553997               0.002117628               0.001563631               0.000000000               0.000000000               0.000000000               0.000000000               0.000354971               0.005574105               0.000158350              -0.000563648               0.002045899               0.001482251               0.000000000               0.000000000               0.000000000               0.000000000               0.000294398               0.005394898               0.000072768              -0.000563962               0.001986269               0.001422307               0.000000000               0.000000000               0.000000000               0.000000000               0.000253345               0.005250434               0.000030715              -0.000561298               0.001937227               0.001375928               0.000000000               0.000000000               0.000000000               0.000000000               0.000221467               0.005133364               0.000012608              -0.000558619               0.001897310               0.001338692               0.000000000               0.000000000               0.000000000               0.000000000               0.000196398               0.005039108              -0.000000134              -0.000556238               0.001865098               0.001308861               0.000000000               0.000000000               0.000000000               0.000000000               0.000168411               0.004958638              -0.000014555              -0.000556674               0.001838421               0.001281747               0.000000000               0.000000000               0.000000000               0.000000000               0.000136192               0.004889769              -0.000027370              -0.000560148               0.001816622               0.001256475               0.000000000               0.000000000               0.000000000               0.000000000               0.000103866               0.004833806              -0.000040272              -0.000565275               0.001799678               0.001234403               0.000000000               0.000000000               0.000000000               0.000000000               0.000073699               0.004787391              -0.000049782              -0.000570785               0.001786043               0.001215257               0.000000000               0.000000000               0.000000000               0.000000000               0.000049505               0.004746048              -0.000047834              -0.000574690               0.001773564               0.001198873               0.000000000               0.000000000               0.000000000               0.000000000               0.000029843               0.004707753              -0.000035590              -0.000577277               0.001761661               0.001184384               0.000000000               0.000000000               0.000000000               0.000000000               0.000014498               0.004674356              -0.000018056              -0.000578856               0.001751055               0.001172199               0.000000000               0.000000000               0.000000000               0.000000000               0.000007019               0.004656821              -0.000009841              -0.000579469               0.001745414               0.001165945               0.000000000               0.000000000               0.000000000               0.000000000               0.001624809               0.005957935               0.002495435              -0.000135441               0.002031105               0.001895664               0.000000000               0.000000000               0.000000000               0.000000000               0.000892468               0.005661011               0.001663855              -0.000372951               0.002011301               0.001638350               0.000000000               0.000000000               0.000000000               0.000000000               0.000401352               0.005689350               0.000828631              -0.000560661               0.002083318               0.001522657               0.000000000               0.000000000               0.000000000               0.000000000               0.000229652               0.005552501               0.000486186              -0.000607942               0.002053462               0.001445521               0.000000000               0.000000000               0.000000000               0.000000000               0.000162417               0.005395076               0.000314911              -0.000613477               0.002002833               0.001389356               0.000000000               0.000000000               0.000000000               0.000000000               0.000135260               0.005250672               0.000218715              -0.000605610               0.001952077               0.001346466               0.000000000               0.000000000               0.000000000               0.000000000               0.000124928               0.005122774               0.000161283              -0.000593497               0.001905407               0.001311910               0.000000000               0.000000000               0.000000000               0.000000000               0.000119151               0.005013955               0.000125624              -0.000582061               0.001865322               0.001283261               0.000000000               0.000000000               0.000000000               0.000000000               0.000111547               0.004920764               0.000098036              -0.000573264               0.001831326               0.001258063               0.000000000               0.000000000               0.000000000               0.000000000               0.000094153               0.004835563               0.000069775              -0.000569136               0.001801550               0.001232414               0.000000000               0.000000000               0.000000000               0.000000000               0.000071520               0.004760811               0.000042661              -0.000568280               0.001776348               0.001208068               0.000000000               0.000000000               0.000000000               0.000000000               0.000048796               0.004695043               0.000017798              -0.000568580               0.001754526               0.001185945               0.000000000               0.000000000               0.000000000               0.000000000               0.000028864               0.004633561              -0.000001819              -0.000568370               0.001733961               0.001165592               0.000000000               0.000000000               0.000000000               0.000000000               0.000017072               0.004574851              -0.000008875              -0.000565453               0.001713420               0.001147966               0.000000000               0.000000000               0.000000000               0.000000000               0.000010528               0.004516216              -0.000006644              -0.000560578               0.001692250               0.001131672               0.000000000               0.000000000               0.000000000               0.000000000               0.000006212               0.004460713              -0.000002494              -0.000555258               0.001671976               0.001116717               0.000000000               0.000000000               0.000000000               0.000000000              -0.000001045               0.004423210              -0.000004449              -0.000553292               0.001658819               0.001105527               0.000000000               0.000000000               0.000000000               0.000000000               0.001534073               0.004848247               0.002310631              -0.000030756               0.001626318               0.001595561               0.000000000               0.000000000               0.000000000               0.000000000               0.000768194               0.004957628               0.001652968              -0.000331632               0.001763070               0.001431438               0.000000000               0.000000000               0.000000000               0.000000000               0.000214010               0.005300116               0.000959207              -0.000582260               0.001960774               0.001378514               0.000000000               0.000000000               0.000000000               0.000000000               0.000070694               0.005286196               0.000643710              -0.000634263               0.001973469               0.001339206               0.000000000               0.000000000               0.000000000               0.000000000               0.000041563               0.005190418               0.000469406              -0.000633215               0.001941194               0.001307979               0.000000000               0.000000000               0.000000000               0.000000000               0.000045303               0.005077483               0.000360351              -0.000617695               0.001898376               0.001280681               0.000000000               0.000000000               0.000000000               0.000000000               0.000057595               0.004963867               0.000282425              -0.000598884               0.001854234               0.001255350               0.000000000               0.000000000               0.000000000               0.000000000               0.000065572               0.004860507               0.000223970              -0.000582972               0.001814477               0.001231505               0.000000000               0.000000000               0.000000000               0.000000000               0.000063539               0.004766959               0.000178612              -0.000572041               0.001779651               0.001207609               0.000000000               0.000000000               0.000000000               0.000000000               0.000050391               0.004683308               0.000137713              -0.000566516               0.001749926               0.001183410               0.000000000               0.000000000               0.000000000               0.000000000               0.000028864               0.004606462               0.000099446              -0.000564983               0.001723800               0.001158817               0.000000000               0.000000000               0.000000000               0.000000000               0.000008653               0.004531945               0.000064834              -0.000563247               0.001698382               0.001135135               0.000000000               0.000000000               0.000000000               0.000000000              -0.000004484               0.004455605               0.000034923              -0.000558631               0.001671397               0.001112766               0.000000000               0.000000000               0.000000000               0.000000000              -0.000010619               0.004375796               0.000016802              -0.000550955               0.001642236               0.001091280               0.000000000               0.000000000               0.000000000               0.000000000              -0.000011738               0.004296940               0.000006869              -0.000541518               0.001612805               0.001071287               0.000000000               0.000000000               0.000000000               0.000000000              -0.000007616               0.004223575               0.000001052              -0.000530802               0.001584778               0.001053976               0.000000000               0.000000000               0.000000000               0.000000000              -0.000010979               0.004175292              -0.000004956              -0.000526027               0.001567092               0.001041065               0.000000000               0.000000000               0.000000000               0.000000000               0.001385661               0.003887683               0.002030717               0.000033659               0.001284661               0.001318320               0.000000000               0.000000000               0.000000000               0.000000000               0.000658639               0.004327140               0.001608032              -0.000293904               0.001540333               0.001246429               0.000000000               0.000000000               0.000000000               0.000000000               0.000102646               0.004929300               0.001103449              -0.000577670               0.001835640               0.001257970               0.000000000               0.000000000               0.000000000               0.000000000              -0.000007179               0.005033316               0.000809674              -0.000631855               0.001888374               0.001256518               0.000000000               0.000000000               0.000000000               0.000000000              -0.000013086               0.005003593               0.000627081              -0.000630355               0.001877966               0.001247611               0.000000000               0.000000000               0.000000000               0.000000000               0.000009700               0.004927631               0.000499555              -0.000612315               0.001846632               0.001234317               0.000000000               0.000000000               0.000000000               0.000000000               0.000035641               0.004836202               0.000399266              -0.000591158               0.001809104               0.001217946               0.000000000               0.000000000               0.000000000               0.000000000               0.000049612               0.004741550               0.000318793              -0.000574088               0.001771863               0.001197776               0.000000000               0.000000000               0.000000000               0.000000000               0.000046318               0.004651230               0.000256438              -0.000564033               0.001738406               0.001174372               0.000000000               0.000000000               0.000000000               0.000000000               0.000032563               0.004573741               0.000203999              -0.000559505               0.001711067               0.001151562               0.000000000               0.000000000               0.000000000               0.000000000               0.000011207               0.004498742               0.000155964              -0.000558139               0.001685612               0.001127473               0.000000000               0.000000000               0.000000000               0.000000000              -0.000009960               0.004420078               0.000114138              -0.000556243               0.001658759               0.001102516               0.000000000               0.000000000               0.000000000               0.000000000              -0.000024977               0.004331012               0.000075566              -0.000550741               0.001627237               0.001076495               0.000000000               0.000000000               0.000000000               0.000000000              -0.000035657               0.004232859               0.000043465              -0.000542477               0.001591765               0.001049287               0.000000000               0.000000000               0.000000000               0.000000000              -0.000046556               0.004134920               0.000019724              -0.000534322               0.001556400               0.001022078               0.000000000               0.000000000               0.000000000               0.000000000              -0.000055282               0.004043048               0.000003655              -0.000526110               0.001523039               0.000996929               0.000000000               0.000000000               0.000000000               0.000000000              -0.000057637               0.003993637              -0.000003672              -0.000520817               0.001504805               0.000983988               0.000000000               0.000000000               0.000000000               0.000000000               0.001168822               0.002965392               0.001709805               0.000067631               0.000965910               0.001033541               0.000000000               0.000000000               0.000000000               0.000000000               0.000592517               0.003589449               0.001549065              -0.000226489               0.001271967               0.001045478               0.000000000               0.000000000               0.000000000               0.000000000               0.000091846               0.004375916               0.001268138              -0.000512547               0.001629473               0.001116926               0.000000000               0.000000000               0.000000000               0.000000000              -0.000007821               0.004636366               0.001000695              -0.000582478               0.001739599               0.001157121               0.000000000               0.000000000               0.000000000               0.000000000              -0.000013530               0.004709315               0.000805129              -0.000593737               0.001767668               0.001173931               0.000000000               0.000000000               0.000000000               0.000000000               0.000007578               0.004702369               0.000659935              -0.000584953               0.001762425               0.001177472               0.000000000               0.000000000               0.000000000               0.000000000               0.000035985               0.004656511               0.000542034              -0.000568568               0.001741678               0.001173109               0.000000000               0.000000000               0.000000000               0.000000000               0.000053861               0.004592790               0.000443177              -0.000553899               0.001715548               0.001161648               0.000000000               0.000000000               0.000000000               0.000000000               0.000057091               0.004527244               0.000362312              -0.000544495               0.001690565               0.001146069               0.000000000               0.000000000               0.000000000               0.000000000               0.000043060               0.004463996               0.000293281              -0.000541851               0.001668601               0.001126750               0.000000000               0.000000000               0.000000000               0.000000000               0.000017481               0.004400941               0.000234319              -0.000543561               0.001648153               0.001104592               0.000000000               0.000000000               0.000000000               0.000000000              -0.000013158               0.004332838               0.000182778              -0.000546538               0.001626444               0.001079906               0.000000000               0.000000000               0.000000000               0.000000000              -0.000043906               0.004252606               0.000133812              -0.000548039               0.001600201               0.001052162               0.000000000               0.000000000               0.000000000               0.000000000              -0.000070564               0.004163565               0.000087202              -0.000546906               0.001570143               0.001023237               0.000000000               0.000000000               0.000000000               0.000000000              -0.000099661               0.004067181               0.000045700              -0.000545769               0.001537637               0.000991868               0.000000000               0.000000000               0.000000000               0.000000000              -0.000132689               0.003969994               0.000015579              -0.000546006               0.001505320               0.000959314               0.000000000               0.000000000               0.000000000               0.000000000              -0.000150355               0.003920619               0.000002858              -0.000546459               0.001489013               0.000942554               0.000000000               0.000000000               0.000000000               0.000000000               0.000842380               0.002108045               0.001359968               0.000052385               0.000685212               0.000737597               0.000000000               0.000000000               0.000000000               0.000000000               0.000516732               0.002846077               0.001444505              -0.000161987               0.001002678               0.000840691               0.000000000               0.000000000               0.000000000               0.000000000               0.000136501               0.003748951               0.001388643              -0.000417431               0.001388781               0.000971350               0.000000000               0.000000000               0.000000000               0.000000000               0.000042122               0.004156672               0.001175169              -0.000503788               0.001553472               0.001049685               0.000000000               0.000000000               0.000000000               0.000000000               0.000026647               0.004347091               0.000982084              -0.000533393               0.001626813               0.001093420               0.000000000               0.000000000               0.000000000               0.000000000               0.000041202               0.004427035               0.000829947              -0.000537928               0.001654973               0.001117045               0.000000000               0.000000000               0.000000000               0.000000000               0.000068861               0.004443285               0.000702102              -0.000529587               0.001657609               0.001128022               0.000000000               0.000000000               0.000000000               0.000000000               0.000088532               0.004427703               0.000590319              -0.000520262               0.001649307               0.001129045               0.000000000               0.000000000               0.000000000               0.000000000               0.000093607               0.004399080               0.000493851              -0.000514781               0.001637939               0.001123158               0.000000000               0.000000000               0.000000000               0.000000000               0.000083111               0.004366151               0.000409440              -0.000514601               0.001626903               0.001112302               0.000000000               0.000000000               0.000000000               0.000000000               0.000056687               0.004325443               0.000338047              -0.000519422               0.001614940               0.001095519               0.000000000               0.000000000               0.000000000               0.000000000               0.000018290               0.004273713               0.000276526              -0.000527354               0.001600342               0.001072987               0.000000000               0.000000000               0.000000000               0.000000000              -0.000024085               0.004208641               0.000220214              -0.000535111               0.001581237               0.001046126               0.000000000               0.000000000               0.000000000               0.000000000              -0.000066504               0.004134555               0.000161830              -0.000541757               0.001558757               0.001017000               0.000000000               0.000000000               0.000000000               0.000000000              -0.000113912               0.004052945               0.000099682              -0.000549334               0.001534080               0.000984746               0.000000000               0.000000000               0.000000000               0.000000000              -0.000173542               0.003967659               0.000044068              -0.000561034               0.001509551               0.000948517               0.000000000               0.000000000               0.000000000               0.000000000              -0.000217876               0.003917854               0.000014190              -0.000571434               0.001496416               0.000924982               0.000000000               0.000000000               0.000000000               0.000000000               0.000427999               0.001372752               0.000998671              -0.000011096               0.000461277               0.000450182               0.000000000               0.000000000               0.000000000               0.000000000               0.000394762               0.002141231               0.001269990              -0.000119619               0.000753609               0.000633990               0.000000000               0.000000000               0.000000000               0.000000000               0.000200501               0.003061035               0.001404574              -0.000307442               0.001122815               0.000815373               0.000000000               0.000000000               0.000000000               0.000000000               0.000143381               0.003576499               0.001269800              -0.000393295               0.001323252               0.000929958               0.000000000               0.000000000               0.000000000               0.000000000               0.000127049               0.003877549               0.001102804              -0.000437050               0.001438187               0.001001136               0.000000000               0.000000000               0.000000000               0.000000000               0.000129691               0.004049095               0.000958017              -0.000457502               0.001502185               0.001044683               0.000000000               0.000000000               0.000000000               0.000000000               0.000143728               0.004139669               0.000827277              -0.000463560               0.001534396               0.001070836               0.000000000               0.000000000               0.000000000               0.000000000               0.000156794               0.004185153               0.000709190              -0.000464345               0.001549819               0.001085473               0.000000000               0.000000000               0.000000000               0.000000000               0.000160229               0.004206284               0.000605444              -0.000465699               0.001557313               0.001091615               0.000000000               0.000000000               0.000000000               0.000000000               0.000151957               0.004213897               0.000513364              -0.000469752               0.001561202               0.001091450               0.000000000               0.000000000               0.000000000               0.000000000               0.000128912               0.004204134               0.000433969              -0.000477174               0.001560422               0.001083248               0.000000000               0.000000000               0.000000000               0.000000000               0.000092582               0.004175969               0.000367357              -0.000487277               0.001554401               0.001067125               0.000000000               0.000000000               0.000000000               0.000000000               0.000046458               0.004132421               0.000305983              -0.000499130               0.001543836               0.001044707               0.000000000               0.000000000               0.000000000               0.000000000              -0.000006612               0.004079100               0.000239682              -0.000512366               0.001530475               0.001018109               0.000000000               0.000000000               0.000000000               0.000000000              -0.000066518               0.004018218               0.000162303              -0.000527220               0.001515133               0.000987912               0.000000000               0.000000000               0.000000000               0.000000000              -0.000141167               0.003953318               0.000080568              -0.000547101               0.001500126               0.000953026               0.000000000               0.000000000               0.000000000               0.000000000              -0.000202075               0.003908196               0.000033613              -0.000564301               0.001490819               0.000926518               0.000000000               0.000000000               0.000000000               0.000000000              -0.000038479               0.000798337               0.000663854              -0.000114222               0.000304183               0.000189961               0.000000000               0.000000000               0.000000000               0.000000000               0.000234175               0.001514328               0.001042412              -0.000101476               0.000538596               0.000437119               0.000000000               0.000000000               0.000000000               0.000000000               0.000273820               0.002370226               0.001304155              -0.000193597               0.000854599               0.000661002               0.000000000               0.000000000               0.000000000               0.000000000               0.000282790               0.002940177               0.001251635              -0.000261476               0.001067207               0.000805731               0.000000000               0.000000000               0.000000000               0.000000000               0.000279917               0.003327311               0.001129534              -0.000310945               0.001212741               0.000901795               0.000000000               0.000000000               0.000000000               0.000000000               0.000272636               0.003589655               0.001004835              -0.000346468               0.001312029               0.000965561               0.000000000               0.000000000               0.000000000               0.000000000               0.000268424               0.003760455               0.000881763              -0.000369397               0.001376605               0.001007207               0.000000000               0.000000000               0.000000000               0.000000000               0.000266269               0.003870109               0.000766237              -0.000383912               0.001417994               0.001034082               0.000000000               0.000000000               0.000000000               0.000000000               0.000262790               0.003945563               0.000663376              -0.000394649               0.001446724               0.001052075               0.000000000               0.000000000               0.000000000               0.000000000               0.000254603               0.003997965               0.000572108              -0.000404269               0.001467398               0.001063129               0.000000000               0.000000000               0.000000000               0.000000000               0.000237117               0.004022611               0.000494766              -0.000413907               0.001478826               0.001064919               0.000000000               0.000000000               0.000000000               0.000000000               0.000208774               0.004026101               0.000428289              -0.000424971               0.001483677               0.001058706               0.000000000               0.000000000               0.000000000               0.000000000               0.000168347               0.004016301               0.000364079              -0.000438906               0.001485056               0.001046149               0.000000000               0.000000000               0.000000000               0.000000000               0.000116128               0.003996698               0.000293420              -0.000456038               0.001484232               0.001028194               0.000000000               0.000000000               0.000000000               0.000000000               0.000053733               0.003967385               0.000209637              -0.000475772               0.001481039               0.001005267               0.000000000               0.000000000               0.000000000               0.000000000              -0.000019752               0.003929918               0.000110977              -0.000498645               0.001476175               0.000977529               0.000000000               0.000000000               0.000000000               0.000000000              -0.000080120               0.003898344               0.000052083              -0.000517337               0.001471881               0.000954544               0.000000000               0.000000000               0.000000000               0.000000000              -0.000502902               0.000396657               0.000388584              -0.000238170               0.000211607              -0.000026563               0.000000000               0.000000000               0.000000000               0.000000000               0.000054318               0.001000511               0.000785515              -0.000104695               0.000368398               0.000263703               0.000000000               0.000000000               0.000000000               0.000000000               0.000339721               0.001736156               0.001093652              -0.000089625               0.000608587               0.000518962               0.000000000               0.000000000               0.000000000               0.000000000               0.000437861               0.002318645               0.001101340              -0.000125633               0.000814751               0.000689118               0.000000000               0.000000000               0.000000000               0.000000000               0.000462778               0.002762826               0.001027294              -0.000171812               0.000978203               0.000806391               0.000000000               0.000000000               0.000000000               0.000000000               0.000451608               0.003093748               0.000933498              -0.000217366               0.001103694               0.000886328               0.000000000               0.000000000               0.000000000               0.000000000               0.000430090               0.003332289               0.000830092              -0.000255252               0.001195836               0.000940583               0.000000000               0.000000000               0.000000000               0.000000000               0.000407618               0.003504779               0.000727631              -0.000285241               0.001263328               0.000978088               0.000000000               0.000000000               0.000000000               0.000000000               0.000389514               0.003636185               0.000635539              -0.000308455               0.001314868               0.001006413               0.000000000               0.000000000               0.000000000               0.000000000               0.000376139               0.003735790               0.000555138              -0.000325921               0.001353891               0.001027970               0.000000000               0.000000000               0.000000000               0.000000000               0.000361532               0.003804993               0.000487921              -0.000340049               0.001381668               0.001041619               0.000000000               0.000000000               0.000000000               0.000000000               0.000341015               0.003849340               0.000429577              -0.000353286               0.001400862               0.001047576               0.000000000               0.000000000               0.000000000               0.000000000               0.000314585               0.003876655               0.000370371              -0.000366612               0.001414409               0.001047798               0.000000000               0.000000000               0.000000000               0.000000000               0.000281761               0.003897465               0.000301585              -0.000381522               0.001426316               0.001044794               0.000000000               0.000000000               0.000000000               0.000000000               0.000240523               0.003905925               0.000220182              -0.000398044               0.001434643               0.001036600               0.000000000               0.000000000               0.000000000               0.000000000               0.000191658               0.003898483               0.000119502              -0.000415438               0.001437960               0.001022523               0.000000000               0.000000000               0.000000000               0.000000000               0.000154892               0.003885902               0.000059587              -0.000427652               0.001437839               0.001010186               0.000000000               0.000000000               0.000000000               0.000000000              -0.000903279               0.000145031               0.000193830              -0.000356858               0.000167295              -0.000189563               0.000000000               0.000000000               0.000000000               0.000000000              -0.000111335               0.000624193               0.000519413              -0.000119775               0.000247987               0.000128212               0.000000000               0.000000000               0.000000000               0.000000000               0.000389890               0.001226583               0.000789147              -0.000007115               0.000411228               0.000404113               0.000000000               0.000000000               0.000000000               0.000000000               0.000579468               0.001791871               0.000824772              -0.000006685               0.000599512               0.000592828               0.000000000               0.000000000               0.000000000               0.000000000               0.000637460               0.002260831               0.000786803              -0.000043557               0.000768122               0.000724564               0.000000000               0.000000000               0.000000000               0.000000000               0.000629618               0.002634957               0.000726236              -0.000093263               0.000909398               0.000816135               0.000000000               0.000000000               0.000000000               0.000000000               0.000595240               0.002928889               0.000652281              -0.000142896               0.001023919               0.000881022               0.000000000               0.000000000               0.000000000               0.000000000               0.000554796               0.003156430               0.000575160              -0.000186505               0.001114301               0.000927796               0.000000000               0.000000000               0.000000000               0.000000000               0.000520573               0.003338094               0.000506372              -0.000222047               0.001186702               0.000964656               0.000000000               0.000000000               0.000000000               0.000000000               0.000496198               0.003486571               0.000446838              -0.000249747               0.001245428               0.000995681               0.000000000               0.000000000               0.000000000               0.000000000               0.000478457               0.003602030               0.000396617              -0.000270832               0.001290942               0.001020110               0.000000000               0.000000000               0.000000000               0.000000000               0.000463604               0.003687784               0.000353917              -0.000287121               0.001324956               0.001037835               0.000000000               0.000000000               0.000000000               0.000000000               0.000451358               0.003750988               0.000310370              -0.000299614               0.001350188               0.001050574               0.000000000               0.000000000               0.000000000               0.000000000               0.000445431               0.003802586               0.000256811              -0.000308286               0.001370278               0.001061992               0.000000000               0.000000000               0.000000000               0.000000000               0.000444006               0.003841521               0.000189825              -0.000313687               0.001385057               0.001071369               0.000000000               0.000000000               0.000000000               0.000000000               0.000445814               0.003866114               0.000104951              -0.000316083               0.001394053               0.001077970               0.000000000               0.000000000               0.000000000               0.000000000               0.000450166               0.003874906               0.000056152              -0.000315550               0.001396806               0.001081256               0.000000000               0.000000000               0.000000000               0.000000000              -0.001177396               0.000010922               0.000075192              -0.000442888               0.000151269              -0.000291619               0.000000000               0.000000000               0.000000000               0.000000000              -0.000229782               0.000396912               0.000257444              -0.000135782               0.000177563               0.000041781               0.000000000               0.000000000               0.000000000               0.000000000               0.000422445               0.000896520               0.000413565               0.000046351               0.000283387               0.000329738               0.000000000               0.000000000               0.000000000               0.000000000               0.000679700               0.001433173               0.000442198               0.000075740               0.000452473               0.000528213               0.000000000               0.000000000               0.000000000               0.000000000               0.000764034               0.001909610               0.000427339               0.000047811               0.000620593               0.000668404               0.000000000               0.000000000               0.000000000               0.000000000               0.000762500               0.002312305               0.000398671              -0.000003101               0.000771794               0.000768693               0.000000000               0.000000000               0.000000000               0.000000000               0.000720310               0.002640610               0.000360607              -0.000059960               0.000900181               0.000840221               0.000000000               0.000000000               0.000000000               0.000000000               0.000670510               0.002904267               0.000319743              -0.000111592               0.001005277               0.000893685               0.000000000               0.000000000               0.000000000               0.000000000               0.000627170               0.003123013               0.000282846              -0.000155187               0.001092723               0.000937536               0.000000000               0.000000000               0.000000000               0.000000000               0.000593714               0.003306216               0.000250598              -0.000190634               0.001165605               0.000974972               0.000000000               0.000000000               0.000000000               0.000000000               0.000570484               0.003457278               0.000224659              -0.000218228               0.001225157               0.001006929               0.000000000               0.000000000               0.000000000               0.000000000               0.000556225               0.003578655               0.000202684              -0.000238747               0.001272455               0.001033709               0.000000000               0.000000000               0.000000000               0.000000000               0.000551115               0.003673431               0.000181024              -0.000252510               0.001308635               0.001056125               0.000000000               0.000000000               0.000000000               0.000000000               0.000562957               0.003751384               0.000154102              -0.000257814               0.001336387               0.001078573               0.000000000               0.000000000               0.000000000               0.000000000               0.000597418               0.003813929               0.000117079              -0.000252709               0.001355533               0.001102825               0.000000000               0.000000000               0.000000000               0.000000000               0.000657457               0.003856348               0.000066752              -0.000235497               0.001363935               0.001128439               0.000000000               0.000000000               0.000000000               0.000000000               0.000713073               0.003877839               0.000038037              -0.000217327               0.001365042               0.001147715               0.000000000               0.000000000               0.000000000               0.000000000               0.000000000               0.000000000               0.000000000               0.000000000               0.000000000               0.000000000               0.000000000               0.000000000               0.000000000               0.000000000               0.000000000               0.000000000               0.000000000               0.000000000               0.000000000               0.000000000               0.000000000               0.000000000               0.000000000               0.000000000               0.000000000               0.000000000               0.000000000               0.000000000               0.000000000               0.000000000               0.000000000               0.000000000               0.000000000               0.000000000               0.000000000               0.000000000               0.000000000               0.000000000               0.000000000               0.000000000               0.000000000               0.000000000               0.000000000               0.000000000               0.000000000               0.000000000               0.000000000               0.000000000               0.000000000               0.000000000               0.000000000               0.000000000               0.000000000               0.000000000               0.000000000               0.000000000               0.000000000               0.000000000               0.000000000               0.000000000               0.000000000               0.000000000               0.000000000               0.000000000               0.000000000               0.000000000               0.000000000               0.000000000               0.000000000               0.000000000               0.000000000               0.000000000               0.000000000               0.000000000               0.000000000               0.000000000               0.000000000               0.000000000               0.000000000               0.000000000               0.000000000               0.000000000               0.000000000               0.000000000               0.000000000               0.000000000               0.000000000               0.000000000               0.000000000               0.000000000               0.000000000               0.000000000               0.000000000               0.000000000               0.000000000               0.000000000               0.000000000               0.000000000               0.000000000               0.000000000               0.000000000               0.000000000               0.000000000               0.000000000               0.000000000               0.000000000               0.000000000               0.000000000               0.000000000               0.000000000               0.000000000               0.000000000               0.000000000               0.000000000               0.000000000               0.000000000               0.000000000               0.000000000               0.000000000               0.000000000               0.000000000               0.000000000               0.000000000               0.000000000               0.000000000               0.000000000               0.000000000               0.000000000               0.000000000               0.000000000               0.000000000               0.000000000               0.000000000               0.000000000               0.000000000               0.000000000               0.000000000               0.000000000               0.000000000               0.000000000               0.000000000               0.000000000               0.000000000               0.000000000               0.000000000               0.000000000               0.000000000               0.000000000               0.000000000               0.000000000               0.000000000               0.000000000               0.000000000               0.000000000               0.000000000               0.000000000               0.000000000               0.000000000               0.000000000               0.000000000               0.000000000               0.000000000               0.000000000               0.000000000               0.000000000               0.000000000               0.000000000               0.000000000               0.000000000               0.000000000               0.000000000               0.000000000               0.000000000               0.000000000 </DataArray>
</PointData>
</Piece>
</UnstructuredGrid> </VTKFile>
