<?xml version="1.0"?>
<VTKFile type="UnstructuredGrid" version="0.1">
<UnstructuredGrid>
<Piece NumberOfPoints="      1156" NumberOfCells="      1024">
<Points>
<DataArray type="Float64"                                    Name="coordinates"                                                      NumberOfComponents=" 3" format="ascii">
              0.133000000               0.000000000               0.000000000               0.155937500               0.000000000               0.000000000               0.178875000               0.000000000               0.000000000               0.201812500               0.000000000               0.000000000               0.224750000               0.000000000               0.000000000               0.247687500               0.000000000               0.000000000               0.270625000               0.000000000               0.000000000               0.293562500               0.000000000               0.000000000               0.316500000               0.000000000               0.000000000               0.339437500               0.000000000               0.000000000               0.362375000               0.000000000               0.000000000               0.385312500               0.000000000               0.000000000               0.408250000               0.000000000               0.000000000               0.431187500               0.000000000               0.000000000               0.454125000               0.000000000               0.000000000               0.477062500               0.000000000               0.000000000               0.500000000               0.000000000               0.000000000               0.132359569               0.013036280               0.000000000               0.155337096               0.016127762               0.000000000               0.178314623               0.019219245               0.000000000               0.201292150               0.022310727               0.000000000               0.224269676               0.025402210               0.000000000               0.247247203               0.028493692               0.000000000               0.270224730               0.031585175               0.000000000               0.293202257               0.034676657               0.000000000               0.316179784               0.037768140               0.000000000               0.339157311               0.040859622               0.000000000               0.362134838               0.043951105               0.000000000               0.385112365               0.047042587               0.000000000               0.408089892               0.050134070               0.000000000               0.431067419               0.053225552               0.000000000               0.454044946               0.056317035               0.000000000               0.477022473               0.059408517               0.000000000               0.500000000               0.062500000               0.000000000               0.130444442               0.025947013               0.000000000               0.153541665               0.032137825               0.000000000               0.176638887               0.038328636               0.000000000               0.199736109               0.044519448               0.000000000               0.222833332               0.050710260               0.000000000               0.245930554               0.056901071               0.000000000               0.269027776               0.063091883               0.000000000               0.292124999               0.069282695               0.000000000               0.315222221               0.075473506               0.000000000               0.338319444               0.081664318               0.000000000               0.361416666               0.087855130               0.000000000               0.384513888               0.094045942               0.000000000               0.407611111               0.100236753               0.000000000               0.430708333               0.106427565               0.000000000               0.453805555               0.112618377               0.000000000               0.476902778               0.118809188               0.000000000               0.500000000               0.125000000               0.000000000               0.127273065               0.038607862               0.000000000               0.150568498               0.047913621               0.000000000               0.173863932               0.057219379               0.000000000               0.197159365               0.066525138               0.000000000               0.220454798               0.075830897               0.000000000               0.243750232               0.085136655               0.000000000               0.267045665               0.094442414               0.000000000               0.290341099               0.103748172               0.000000000               0.313636532               0.113053931               0.000000000               0.336931966               0.122359690               0.000000000               0.360227399               0.131665448               0.000000000               0.383522833               0.140971207               0.000000000               0.406818266               0.150276966               0.000000000               0.430113700               0.159582724               0.000000000               0.453409133               0.168888483               0.000000000               0.476704567               0.178194241               0.000000000               0.500000000               0.187500000               0.000000000               0.122875978               0.050896897               0.000000000               0.146446229               0.063340840               0.000000000               0.170016481               0.075784784               0.000000000               0.193586732               0.088228728               0.000000000               0.217156983               0.100672672               0.000000000               0.240727235               0.113116616               0.000000000               0.264297486               0.125560560               0.000000000               0.287867738               0.138004504               0.000000000               0.311437989               0.150448448               0.000000000               0.335008240               0.162892392               0.000000000               0.358578492               0.175336336               0.000000000               0.382148743               0.187780280               0.000000000               0.405718994               0.200224224               0.000000000               0.429289246               0.212668168               0.000000000               0.452859497               0.225112112               0.000000000               0.476429749               0.237556056               0.000000000               0.500000000               0.250000000               0.000000000               0.117295528               0.062695766               0.000000000               0.141214558               0.078308531               0.000000000               0.165133587               0.093921295               0.000000000               0.189052617               0.109534060               0.000000000               0.212971646               0.125146824               0.000000000               0.236890676               0.140759589               0.000000000               0.260809705               0.156372354               0.000000000               0.284728735               0.171985118               0.000000000               0.308647764               0.187597883               0.000000000               0.332566794               0.203210648               0.000000000               0.356485823               0.218823412               0.000000000               0.380404853               0.234436177               0.000000000               0.404323882               0.250048941               0.000000000               0.428242912               0.265661706               0.000000000               0.452161941               0.281274471               0.000000000               0.476080971               0.296887235               0.000000000               0.500000000               0.312500000               0.000000000               0.110585458               0.073890841               0.000000000               0.134923867               0.092710163               0.000000000               0.159262276               0.111529486               0.000000000               0.183600685               0.130348808               0.000000000               0.207939094               0.149168131               0.000000000               0.232277503               0.167987453               0.000000000               0.256615912               0.186806776               0.000000000               0.280954320               0.205626098               0.000000000               0.305292729               0.224445420               0.000000000               0.329631138               0.243264743               0.000000000               0.353969547               0.262084065               0.000000000               0.378307956               0.280903388               0.000000000               0.402646365               0.299722710               0.000000000               0.426984773               0.318542033               0.000000000               0.451323182               0.337361355               0.000000000               0.475661591               0.356180678               0.000000000               0.500000000               0.375000000               0.000000000               0.102810390               0.084374307               0.000000000               0.127634741               0.106444663               0.000000000               0.152459092               0.128515018               0.000000000               0.177283442               0.150585374               0.000000000               0.202107793               0.172655730               0.000000000               0.226932143               0.194726086               0.000000000               0.251756494               0.216796442               0.000000000               0.276580845               0.238866798               0.000000000               0.301405195               0.260937153               0.000000000               0.326229546               0.283007509               0.000000000               0.351053896               0.305077865               0.000000000               0.375878247               0.327148221               0.000000000               0.400702598               0.349218577               0.000000000               0.425526948               0.371288933               0.000000000               0.450351299               0.393359288               0.000000000               0.475175649               0.415429644               0.000000000               0.500000000               0.437500000               0.000000000               0.094045202               0.094045202               0.000000000               0.119417377               0.119417377               0.000000000               0.144789552               0.144789552               0.000000000               0.170161727               0.170161727               0.000000000               0.195533901               0.195533901               0.000000000               0.220906076               0.220906076               0.000000000               0.246278251               0.246278251               0.000000000               0.271650426               0.271650426               0.000000000               0.297022601               0.297022601               0.000000000               0.322394776               0.322394776               0.000000000               0.347766951               0.347766951               0.000000000               0.373139126               0.373139126               0.000000000               0.398511300               0.398511300               0.000000000               0.423883475               0.423883475               0.000000000               0.449255650               0.449255650               0.000000000               0.474627825               0.474627825               0.000000000               0.500000000               0.500000000               0.000000000               0.084374307               0.102810390               0.000000000               0.106444663               0.127634741               0.000000000               0.128515018               0.152459092               0.000000000               0.150585374               0.177283442               0.000000000               0.172655730               0.202107793               0.000000000               0.194726086               0.226932143               0.000000000               0.216796442               0.251756494               0.000000000               0.238866798               0.276580845               0.000000000               0.260937153               0.301405195               0.000000000               0.283007509               0.326229546               0.000000000               0.305077865               0.351053896               0.000000000               0.327148221               0.375878247               0.000000000               0.349218577               0.400702598               0.000000000               0.371288933               0.425526948               0.000000000               0.393359288               0.450351299               0.000000000               0.415429644               0.475175649               0.000000000               0.437500000               0.500000000               0.000000000               0.073890841               0.110585458               0.000000000               0.092710163               0.134923867               0.000000000               0.111529486               0.159262276               0.000000000               0.130348808               0.183600685               0.000000000               0.149168131               0.207939094               0.000000000               0.167987453               0.232277503               0.000000000               0.186806776               0.256615912               0.000000000               0.205626098               0.280954320               0.000000000               0.224445420               0.305292729               0.000000000               0.243264743               0.329631138               0.000000000               0.262084065               0.353969547               0.000000000               0.280903388               0.378307956               0.000000000               0.299722710               0.402646365               0.000000000               0.318542033               0.426984773               0.000000000               0.337361355               0.451323182               0.000000000               0.356180678               0.475661591               0.000000000               0.375000000               0.500000000               0.000000000               0.062695766               0.117295528               0.000000000               0.078308531               0.141214558               0.000000000               0.093921295               0.165133587               0.000000000               0.109534060               0.189052617               0.000000000               0.125146824               0.212971646               0.000000000               0.140759589               0.236890676               0.000000000               0.156372354               0.260809705               0.000000000               0.171985118               0.284728735               0.000000000               0.187597883               0.308647764               0.000000000               0.203210648               0.332566794               0.000000000               0.218823412               0.356485823               0.000000000               0.234436177               0.380404853               0.000000000               0.250048941               0.404323882               0.000000000               0.265661706               0.428242912               0.000000000               0.281274471               0.452161941               0.000000000               0.296887235               0.476080971               0.000000000               0.312500000               0.500000000               0.000000000               0.050896897               0.122875978               0.000000000               0.063340840               0.146446229               0.000000000               0.075784784               0.170016481               0.000000000               0.088228728               0.193586732               0.000000000               0.100672672               0.217156983               0.000000000               0.113116616               0.240727235               0.000000000               0.125560560               0.264297486               0.000000000               0.138004504               0.287867738               0.000000000               0.150448448               0.311437989               0.000000000               0.162892392               0.335008240               0.000000000               0.175336336               0.358578492               0.000000000               0.187780280               0.382148743               0.000000000               0.200224224               0.405718994               0.000000000               0.212668168               0.429289246               0.000000000               0.225112112               0.452859497               0.000000000               0.237556056               0.476429749               0.000000000               0.250000000               0.500000000               0.000000000               0.038607862               0.127273065               0.000000000               0.047913621               0.150568498               0.000000000               0.057219379               0.173863932               0.000000000               0.066525138               0.197159365               0.000000000               0.075830897               0.220454798               0.000000000               0.085136655               0.243750232               0.000000000               0.094442414               0.267045665               0.000000000               0.103748172               0.290341099               0.000000000               0.113053931               0.313636532               0.000000000               0.122359690               0.336931966               0.000000000               0.131665448               0.360227399               0.000000000               0.140971207               0.383522833               0.000000000               0.150276966               0.406818266               0.000000000               0.159582724               0.430113700               0.000000000               0.168888483               0.453409133               0.000000000               0.178194241               0.476704567               0.000000000               0.187500000               0.500000000               0.000000000               0.025947013               0.130444442               0.000000000               0.032137825               0.153541665               0.000000000               0.038328636               0.176638887               0.000000000               0.044519448               0.199736109               0.000000000               0.050710260               0.222833332               0.000000000               0.056901071               0.245930554               0.000000000               0.063091883               0.269027776               0.000000000               0.069282695               0.292124999               0.000000000               0.075473506               0.315222221               0.000000000               0.081664318               0.338319444               0.000000000               0.087855130               0.361416666               0.000000000               0.094045942               0.384513888               0.000000000               0.100236753               0.407611111               0.000000000               0.106427565               0.430708333               0.000000000               0.112618377               0.453805555               0.000000000               0.118809188               0.476902778               0.000000000               0.125000000               0.500000000               0.000000000               0.013036280               0.132359569               0.000000000               0.016127762               0.155337096               0.000000000               0.019219245               0.178314623               0.000000000               0.022310727               0.201292150               0.000000000               0.025402210               0.224269676               0.000000000               0.028493692               0.247247203               0.000000000               0.031585175               0.270224730               0.000000000               0.034676657               0.293202257               0.000000000               0.037768140               0.316179784               0.000000000               0.040859622               0.339157311               0.000000000               0.043951105               0.362134838               0.000000000               0.047042587               0.385112365               0.000000000               0.050134070               0.408089892               0.000000000               0.053225552               0.431067419               0.000000000               0.056317035               0.454044946               0.000000000               0.059408517               0.477022473               0.000000000               0.062500000               0.500000000               0.000000000               0.000000000               0.133000000               0.000000000               0.000000000               0.155937500               0.000000000               0.000000000               0.178875000               0.000000000               0.000000000               0.201812500               0.000000000               0.000000000               0.224750000               0.000000000               0.000000000               0.247687500               0.000000000               0.000000000               0.270625000               0.000000000               0.000000000               0.293562500               0.000000000               0.000000000               0.316500000               0.000000000               0.000000000               0.339437500               0.000000000               0.000000000               0.362375000               0.000000000               0.000000000               0.385312500               0.000000000               0.000000000               0.408250000               0.000000000               0.000000000               0.431187500               0.000000000               0.000000000               0.454125000               0.000000000               0.000000000               0.477062500               0.000000000               0.000000000               0.500000000               0.000000000               0.133000000               0.000000000               0.000000000               0.155937500               0.000000000               0.000000000               0.178875000               0.000000000               0.000000000               0.201812500               0.000000000               0.000000000               0.224750000               0.000000000               0.000000000               0.247687500               0.000000000               0.000000000               0.270625000               0.000000000               0.000000000               0.293562500               0.000000000               0.000000000               0.316500000               0.000000000               0.000000000               0.339437500               0.000000000               0.000000000               0.362375000               0.000000000               0.000000000               0.385312500               0.000000000               0.000000000               0.408250000               0.000000000               0.000000000               0.431187500               0.000000000               0.000000000               0.454125000               0.000000000               0.000000000               0.477062500               0.000000000               0.000000000               0.500000000               0.000000000               0.000000000               0.132359569              -0.013036280               0.000000000               0.155337096              -0.016127762               0.000000000               0.178314623              -0.019219245               0.000000000               0.201292150              -0.022310727               0.000000000               0.224269676              -0.025402210               0.000000000               0.247247203              -0.028493692               0.000000000               0.270224730              -0.031585175               0.000000000               0.293202257              -0.034676657               0.000000000               0.316179784              -0.037768140               0.000000000               0.339157311              -0.040859622               0.000000000               0.362134838              -0.043951105               0.000000000               0.385112365              -0.047042587               0.000000000               0.408089892              -0.050134070               0.000000000               0.431067419              -0.053225552               0.000000000               0.454044946              -0.056317035               0.000000000               0.477022473              -0.059408517               0.000000000               0.500000000              -0.062500000               0.000000000               0.130444442              -0.025947013               0.000000000               0.153541665              -0.032137825               0.000000000               0.176638887              -0.038328636               0.000000000               0.199736109              -0.044519448               0.000000000               0.222833332              -0.050710260               0.000000000               0.245930554              -0.056901071               0.000000000               0.269027776              -0.063091883               0.000000000               0.292124999              -0.069282695               0.000000000               0.315222221              -0.075473506               0.000000000               0.338319444              -0.081664318               0.000000000               0.361416666              -0.087855130               0.000000000               0.384513888              -0.094045942               0.000000000               0.407611111              -0.100236753               0.000000000               0.430708333              -0.106427565               0.000000000               0.453805555              -0.112618377               0.000000000               0.476902778              -0.118809188               0.000000000               0.500000000              -0.125000000               0.000000000               0.127273065              -0.038607862               0.000000000               0.150568498              -0.047913621               0.000000000               0.173863932              -0.057219379               0.000000000               0.197159365              -0.066525138               0.000000000               0.220454798              -0.075830897               0.000000000               0.243750232              -0.085136655               0.000000000               0.267045665              -0.094442414               0.000000000               0.290341099              -0.103748172               0.000000000               0.313636532              -0.113053931               0.000000000               0.336931966              -0.122359690               0.000000000               0.360227399              -0.131665448               0.000000000               0.383522833              -0.140971207               0.000000000               0.406818266              -0.150276966               0.000000000               0.430113700              -0.159582724               0.000000000               0.453409133              -0.168888483               0.000000000               0.476704567              -0.178194241               0.000000000               0.500000000              -0.187500000               0.000000000               0.122875978              -0.050896897               0.000000000               0.146446229              -0.063340840               0.000000000               0.170016481              -0.075784784               0.000000000               0.193586732              -0.088228728               0.000000000               0.217156983              -0.100672672               0.000000000               0.240727235              -0.113116616               0.000000000               0.264297486              -0.125560560               0.000000000               0.287867738              -0.138004504               0.000000000               0.311437989              -0.150448448               0.000000000               0.335008240              -0.162892392               0.000000000               0.358578492              -0.175336336               0.000000000               0.382148743              -0.187780280               0.000000000               0.405718994              -0.200224224               0.000000000               0.429289246              -0.212668168               0.000000000               0.452859497              -0.225112112               0.000000000               0.476429749              -0.237556056               0.000000000               0.500000000              -0.250000000               0.000000000               0.117295528              -0.062695766               0.000000000               0.141214558              -0.078308531               0.000000000               0.165133587              -0.093921295               0.000000000               0.189052617              -0.109534060               0.000000000               0.212971646              -0.125146824               0.000000000               0.236890676              -0.140759589               0.000000000               0.260809705              -0.156372354               0.000000000               0.284728735              -0.171985118               0.000000000               0.308647764              -0.187597883               0.000000000               0.332566794              -0.203210648               0.000000000               0.356485823              -0.218823412               0.000000000               0.380404853              -0.234436177               0.000000000               0.404323882              -0.250048941               0.000000000               0.428242912              -0.265661706               0.000000000               0.452161941              -0.281274471               0.000000000               0.476080971              -0.296887235               0.000000000               0.500000000              -0.312500000               0.000000000               0.110585458              -0.073890841               0.000000000               0.134923867              -0.092710163               0.000000000               0.159262276              -0.111529486               0.000000000               0.183600685              -0.130348808               0.000000000               0.207939094              -0.149168131               0.000000000               0.232277503              -0.167987453               0.000000000               0.256615912              -0.186806776               0.000000000               0.280954320              -0.205626098               0.000000000               0.305292729              -0.224445420               0.000000000               0.329631138              -0.243264743               0.000000000               0.353969547              -0.262084065               0.000000000               0.378307956              -0.280903388               0.000000000               0.402646365              -0.299722710               0.000000000               0.426984773              -0.318542033               0.000000000               0.451323182              -0.337361355               0.000000000               0.475661591              -0.356180678               0.000000000               0.500000000              -0.375000000               0.000000000               0.102810390              -0.084374307               0.000000000               0.127634741              -0.106444663               0.000000000               0.152459092              -0.128515018               0.000000000               0.177283442              -0.150585374               0.000000000               0.202107793              -0.172655730               0.000000000               0.226932143              -0.194726086               0.000000000               0.251756494              -0.216796442               0.000000000               0.276580845              -0.238866798               0.000000000               0.301405195              -0.260937153               0.000000000               0.326229546              -0.283007509               0.000000000               0.351053896              -0.305077865               0.000000000               0.375878247              -0.327148221               0.000000000               0.400702598              -0.349218577               0.000000000               0.425526948              -0.371288933               0.000000000               0.450351299              -0.393359288               0.000000000               0.475175649              -0.415429644               0.000000000               0.500000000              -0.437500000               0.000000000               0.094045202              -0.094045202               0.000000000               0.119417377              -0.119417377               0.000000000               0.144789552              -0.144789552               0.000000000               0.170161727              -0.170161727               0.000000000               0.195533901              -0.195533901               0.000000000               0.220906076              -0.220906076               0.000000000               0.246278251              -0.246278251               0.000000000               0.271650426              -0.271650426               0.000000000               0.297022601              -0.297022601               0.000000000               0.322394776              -0.322394776               0.000000000               0.347766951              -0.347766951               0.000000000               0.373139126              -0.373139126               0.000000000               0.398511300              -0.398511300               0.000000000               0.423883475              -0.423883475               0.000000000               0.449255650              -0.449255650               0.000000000               0.474627825              -0.474627825               0.000000000               0.500000000              -0.500000000               0.000000000               0.084374307              -0.102810390               0.000000000               0.106444663              -0.127634741               0.000000000               0.128515018              -0.152459092               0.000000000               0.150585374              -0.177283442               0.000000000               0.172655730              -0.202107793               0.000000000               0.194726086              -0.226932143               0.000000000               0.216796442              -0.251756494               0.000000000               0.238866798              -0.276580845               0.000000000               0.260937153              -0.301405195               0.000000000               0.283007509              -0.326229546               0.000000000               0.305077865              -0.351053896               0.000000000               0.327148221              -0.375878247               0.000000000               0.349218577              -0.400702598               0.000000000               0.371288933              -0.425526948               0.000000000               0.393359288              -0.450351299               0.000000000               0.415429644              -0.475175649               0.000000000               0.437500000              -0.500000000               0.000000000               0.073890841              -0.110585458               0.000000000               0.092710163              -0.134923867               0.000000000               0.111529486              -0.159262276               0.000000000               0.130348808              -0.183600685               0.000000000               0.149168131              -0.207939094               0.000000000               0.167987453              -0.232277503               0.000000000               0.186806776              -0.256615912               0.000000000               0.205626098              -0.280954320               0.000000000               0.224445420              -0.305292729               0.000000000               0.243264743              -0.329631138               0.000000000               0.262084065              -0.353969547               0.000000000               0.280903388              -0.378307956               0.000000000               0.299722710              -0.402646365               0.000000000               0.318542033              -0.426984773               0.000000000               0.337361355              -0.451323182               0.000000000               0.356180678              -0.475661591               0.000000000               0.375000000              -0.500000000               0.000000000               0.062695766              -0.117295528               0.000000000               0.078308531              -0.141214558               0.000000000               0.093921295              -0.165133587               0.000000000               0.109534060              -0.189052617               0.000000000               0.125146824              -0.212971646               0.000000000               0.140759589              -0.236890676               0.000000000               0.156372354              -0.260809705               0.000000000               0.171985118              -0.284728735               0.000000000               0.187597883              -0.308647764               0.000000000               0.203210648              -0.332566794               0.000000000               0.218823412              -0.356485823               0.000000000               0.234436177              -0.380404853               0.000000000               0.250048941              -0.404323882               0.000000000               0.265661706              -0.428242912               0.000000000               0.281274471              -0.452161941               0.000000000               0.296887235              -0.476080971               0.000000000               0.312500000              -0.500000000               0.000000000               0.050896897              -0.122875978               0.000000000               0.063340840              -0.146446229               0.000000000               0.075784784              -0.170016481               0.000000000               0.088228728              -0.193586732               0.000000000               0.100672672              -0.217156983               0.000000000               0.113116616              -0.240727235               0.000000000               0.125560560              -0.264297486               0.000000000               0.138004504              -0.287867738               0.000000000               0.150448448              -0.311437989               0.000000000               0.162892392              -0.335008240               0.000000000               0.175336336              -0.358578492               0.000000000               0.187780280              -0.382148743               0.000000000               0.200224224              -0.405718994               0.000000000               0.212668168              -0.429289246               0.000000000               0.225112112              -0.452859497               0.000000000               0.237556056              -0.476429749               0.000000000               0.250000000              -0.500000000               0.000000000               0.038607862              -0.127273065               0.000000000               0.047913621              -0.150568498               0.000000000               0.057219379              -0.173863932               0.000000000               0.066525138              -0.197159365               0.000000000               0.075830897              -0.220454798               0.000000000               0.085136655              -0.243750232               0.000000000               0.094442414              -0.267045665               0.000000000               0.103748172              -0.290341099               0.000000000               0.113053931              -0.313636532               0.000000000               0.122359690              -0.336931966               0.000000000               0.131665448              -0.360227399               0.000000000               0.140971207              -0.383522833               0.000000000               0.150276966              -0.406818266               0.000000000               0.159582724              -0.430113700               0.000000000               0.168888483              -0.453409133               0.000000000               0.178194241              -0.476704567               0.000000000               0.187500000              -0.500000000               0.000000000               0.025947013              -0.130444442               0.000000000               0.032137825              -0.153541665               0.000000000               0.038328636              -0.176638887               0.000000000               0.044519448              -0.199736109               0.000000000               0.050710260              -0.222833332               0.000000000               0.056901071              -0.245930554               0.000000000               0.063091883              -0.269027776               0.000000000               0.069282695              -0.292124999               0.000000000               0.075473506              -0.315222221               0.000000000               0.081664318              -0.338319444               0.000000000               0.087855130              -0.361416666               0.000000000               0.094045942              -0.384513888               0.000000000               0.100236753              -0.407611111               0.000000000               0.106427565              -0.430708333               0.000000000               0.112618377              -0.453805555               0.000000000               0.118809188              -0.476902778               0.000000000               0.125000000              -0.500000000               0.000000000               0.013036280              -0.132359569               0.000000000               0.016127762              -0.155337096               0.000000000               0.019219245              -0.178314623               0.000000000               0.022310727              -0.201292150               0.000000000               0.025402210              -0.224269676               0.000000000               0.028493692              -0.247247203               0.000000000               0.031585175              -0.270224730               0.000000000               0.034676657              -0.293202257               0.000000000               0.037768140              -0.316179784               0.000000000               0.040859622              -0.339157311               0.000000000               0.043951105              -0.362134838               0.000000000               0.047042587              -0.385112365               0.000000000               0.050134070              -0.408089892               0.000000000               0.053225552              -0.431067419               0.000000000               0.056317035              -0.454044946               0.000000000               0.059408517              -0.477022473               0.000000000               0.062500000              -0.500000000               0.000000000               0.000000000              -0.133000000               0.000000000               0.000000000              -0.155937500               0.000000000               0.000000000              -0.178875000               0.000000000               0.000000000              -0.201812500               0.000000000               0.000000000              -0.224750000               0.000000000               0.000000000              -0.247687500               0.000000000               0.000000000              -0.270625000               0.000000000               0.000000000              -0.293562500               0.000000000               0.000000000              -0.316500000               0.000000000               0.000000000              -0.339437500               0.000000000               0.000000000              -0.362375000               0.000000000               0.000000000              -0.385312500               0.000000000               0.000000000              -0.408250000               0.000000000               0.000000000              -0.431187500               0.000000000               0.000000000              -0.454125000               0.000000000               0.000000000              -0.477062500               0.000000000               0.000000000              -0.500000000               0.000000000              -0.133000000               0.000000000               0.000000000              -0.155937500               0.000000000               0.000000000              -0.178875000               0.000000000               0.000000000              -0.201812500               0.000000000               0.000000000              -0.224750000               0.000000000               0.000000000              -0.247687500               0.000000000               0.000000000              -0.270625000               0.000000000               0.000000000              -0.293562500               0.000000000               0.000000000              -0.316500000               0.000000000               0.000000000              -0.339437500               0.000000000               0.000000000              -0.362375000               0.000000000               0.000000000              -0.385312500               0.000000000               0.000000000              -0.408250000               0.000000000               0.000000000              -0.431187500               0.000000000               0.000000000              -0.454125000               0.000000000               0.000000000              -0.477062500               0.000000000               0.000000000              -0.500000000               0.000000000               0.000000000              -0.132359569              -0.013036280               0.000000000              -0.155337096              -0.016127762               0.000000000              -0.178314623              -0.019219245               0.000000000              -0.201292150              -0.022310727               0.000000000              -0.224269676              -0.025402210               0.000000000              -0.247247203              -0.028493692               0.000000000              -0.270224730              -0.031585175               0.000000000              -0.293202257              -0.034676657               0.000000000              -0.316179784              -0.037768140               0.000000000              -0.339157311              -0.040859622               0.000000000              -0.362134838              -0.043951105               0.000000000              -0.385112365              -0.047042587               0.000000000              -0.408089892              -0.050134070               0.000000000              -0.431067419              -0.053225552               0.000000000              -0.454044946              -0.056317035               0.000000000              -0.477022473              -0.059408517               0.000000000              -0.500000000              -0.062500000               0.000000000              -0.130444442              -0.025947013               0.000000000              -0.153541665              -0.032137825               0.000000000              -0.176638887              -0.038328636               0.000000000              -0.199736109              -0.044519448               0.000000000              -0.222833332              -0.050710260               0.000000000              -0.245930554              -0.056901071               0.000000000              -0.269027776              -0.063091883               0.000000000              -0.292124999              -0.069282695               0.000000000              -0.315222221              -0.075473506               0.000000000              -0.338319444              -0.081664318               0.000000000              -0.361416666              -0.087855130               0.000000000              -0.384513888              -0.094045942               0.000000000              -0.407611111              -0.100236753               0.000000000              -0.430708333              -0.106427565               0.000000000              -0.453805555              -0.112618377               0.000000000              -0.476902778              -0.118809188               0.000000000              -0.500000000              -0.125000000               0.000000000              -0.127273065              -0.038607862               0.000000000              -0.150568498              -0.047913621               0.000000000              -0.173863932              -0.057219379               0.000000000              -0.197159365              -0.066525138               0.000000000              -0.220454798              -0.075830897               0.000000000              -0.243750232              -0.085136655               0.000000000              -0.267045665              -0.094442414               0.000000000              -0.290341099              -0.103748172               0.000000000              -0.313636532              -0.113053931               0.000000000              -0.336931966              -0.122359690               0.000000000              -0.360227399              -0.131665448               0.000000000              -0.383522833              -0.140971207               0.000000000              -0.406818266              -0.150276966               0.000000000              -0.430113700              -0.159582724               0.000000000              -0.453409133              -0.168888483               0.000000000              -0.476704567              -0.178194241               0.000000000              -0.500000000              -0.187500000               0.000000000              -0.122875978              -0.050896897               0.000000000              -0.146446229              -0.063340840               0.000000000              -0.170016481              -0.075784784               0.000000000              -0.193586732              -0.088228728               0.000000000              -0.217156983              -0.100672672               0.000000000              -0.240727235              -0.113116616               0.000000000              -0.264297486              -0.125560560               0.000000000              -0.287867738              -0.138004504               0.000000000              -0.311437989              -0.150448448               0.000000000              -0.335008240              -0.162892392               0.000000000              -0.358578492              -0.175336336               0.000000000              -0.382148743              -0.187780280               0.000000000              -0.405718994              -0.200224224               0.000000000              -0.429289246              -0.212668168               0.000000000              -0.452859497              -0.225112112               0.000000000              -0.476429749              -0.237556056               0.000000000              -0.500000000              -0.250000000               0.000000000              -0.117295528              -0.062695766               0.000000000              -0.141214558              -0.078308531               0.000000000              -0.165133587              -0.093921295               0.000000000              -0.189052617              -0.109534060               0.000000000              -0.212971646              -0.125146824               0.000000000              -0.236890676              -0.140759589               0.000000000              -0.260809705              -0.156372354               0.000000000              -0.284728735              -0.171985118               0.000000000              -0.308647764              -0.187597883               0.000000000              -0.332566794              -0.203210648               0.000000000              -0.356485823              -0.218823412               0.000000000              -0.380404853              -0.234436177               0.000000000              -0.404323882              -0.250048941               0.000000000              -0.428242912              -0.265661706               0.000000000              -0.452161941              -0.281274471               0.000000000              -0.476080971              -0.296887235               0.000000000              -0.500000000              -0.312500000               0.000000000              -0.110585458              -0.073890841               0.000000000              -0.134923867              -0.092710163               0.000000000              -0.159262276              -0.111529486               0.000000000              -0.183600685              -0.130348808               0.000000000              -0.207939094              -0.149168131               0.000000000              -0.232277503              -0.167987453               0.000000000              -0.256615912              -0.186806776               0.000000000              -0.280954320              -0.205626098               0.000000000              -0.305292729              -0.224445420               0.000000000              -0.329631138              -0.243264743               0.000000000              -0.353969547              -0.262084065               0.000000000              -0.378307956              -0.280903388               0.000000000              -0.402646365              -0.299722710               0.000000000              -0.426984773              -0.318542033               0.000000000              -0.451323182              -0.337361355               0.000000000              -0.475661591              -0.356180678               0.000000000              -0.500000000              -0.375000000               0.000000000              -0.102810390              -0.084374307               0.000000000              -0.127634741              -0.106444663               0.000000000              -0.152459092              -0.128515018               0.000000000              -0.177283442              -0.150585374               0.000000000              -0.202107793              -0.172655730               0.000000000              -0.226932143              -0.194726086               0.000000000              -0.251756494              -0.216796442               0.000000000              -0.276580845              -0.238866798               0.000000000              -0.301405195              -0.260937153               0.000000000              -0.326229546              -0.283007509               0.000000000              -0.351053896              -0.305077865               0.000000000              -0.375878247              -0.327148221               0.000000000              -0.400702598              -0.349218577               0.000000000              -0.425526948              -0.371288933               0.000000000              -0.450351299              -0.393359288               0.000000000              -0.475175649              -0.415429644               0.000000000              -0.500000000              -0.437500000               0.000000000              -0.094045202              -0.094045202               0.000000000              -0.119417377              -0.119417377               0.000000000              -0.144789552              -0.144789552               0.000000000              -0.170161727              -0.170161727               0.000000000              -0.195533901              -0.195533901               0.000000000              -0.220906076              -0.220906076               0.000000000              -0.246278251              -0.246278251               0.000000000              -0.271650426              -0.271650426               0.000000000              -0.297022601              -0.297022601               0.000000000              -0.322394776              -0.322394776               0.000000000              -0.347766951              -0.347766951               0.000000000              -0.373139126              -0.373139126               0.000000000              -0.398511300              -0.398511300               0.000000000              -0.423883475              -0.423883475               0.000000000              -0.449255650              -0.449255650               0.000000000              -0.474627825              -0.474627825               0.000000000              -0.500000000              -0.500000000               0.000000000              -0.084374307              -0.102810390               0.000000000              -0.106444663              -0.127634741               0.000000000              -0.128515018              -0.152459092               0.000000000              -0.150585374              -0.177283442               0.000000000              -0.172655730              -0.202107793               0.000000000              -0.194726086              -0.226932143               0.000000000              -0.216796442              -0.251756494               0.000000000              -0.238866798              -0.276580845               0.000000000              -0.260937153              -0.301405195               0.000000000              -0.283007509              -0.326229546               0.000000000              -0.305077865              -0.351053896               0.000000000              -0.327148221              -0.375878247               0.000000000              -0.349218577              -0.400702598               0.000000000              -0.371288933              -0.425526948               0.000000000              -0.393359288              -0.450351299               0.000000000              -0.415429644              -0.475175649               0.000000000              -0.437500000              -0.500000000               0.000000000              -0.073890841              -0.110585458               0.000000000              -0.092710163              -0.134923867               0.000000000              -0.111529486              -0.159262276               0.000000000              -0.130348808              -0.183600685               0.000000000              -0.149168131              -0.207939094               0.000000000              -0.167987453              -0.232277503               0.000000000              -0.186806776              -0.256615912               0.000000000              -0.205626098              -0.280954320               0.000000000              -0.224445420              -0.305292729               0.000000000              -0.243264743              -0.329631138               0.000000000              -0.262084065              -0.353969547               0.000000000              -0.280903388              -0.378307956               0.000000000              -0.299722710              -0.402646365               0.000000000              -0.318542033              -0.426984773               0.000000000              -0.337361355              -0.451323182               0.000000000              -0.356180678              -0.475661591               0.000000000              -0.375000000              -0.500000000               0.000000000              -0.062695766              -0.117295528               0.000000000              -0.078308531              -0.141214558               0.000000000              -0.093921295              -0.165133587               0.000000000              -0.109534060              -0.189052617               0.000000000              -0.125146824              -0.212971646               0.000000000              -0.140759589              -0.236890676               0.000000000              -0.156372354              -0.260809705               0.000000000              -0.171985118              -0.284728735               0.000000000              -0.187597883              -0.308647764               0.000000000              -0.203210648              -0.332566794               0.000000000              -0.218823412              -0.356485823               0.000000000              -0.234436177              -0.380404853               0.000000000              -0.250048941              -0.404323882               0.000000000              -0.265661706              -0.428242912               0.000000000              -0.281274471              -0.452161941               0.000000000              -0.296887235              -0.476080971               0.000000000              -0.312500000              -0.500000000               0.000000000              -0.050896897              -0.122875978               0.000000000              -0.063340840              -0.146446229               0.000000000              -0.075784784              -0.170016481               0.000000000              -0.088228728              -0.193586732               0.000000000              -0.100672672              -0.217156983               0.000000000              -0.113116616              -0.240727235               0.000000000              -0.125560560              -0.264297486               0.000000000              -0.138004504              -0.287867738               0.000000000              -0.150448448              -0.311437989               0.000000000              -0.162892392              -0.335008240               0.000000000              -0.175336336              -0.358578492               0.000000000              -0.187780280              -0.382148743               0.000000000              -0.200224224              -0.405718994               0.000000000              -0.212668168              -0.429289246               0.000000000              -0.225112112              -0.452859497               0.000000000              -0.237556056              -0.476429749               0.000000000              -0.250000000              -0.500000000               0.000000000              -0.038607862              -0.127273065               0.000000000              -0.047913621              -0.150568498               0.000000000              -0.057219379              -0.173863932               0.000000000              -0.066525138              -0.197159365               0.000000000              -0.075830897              -0.220454798               0.000000000              -0.085136655              -0.243750232               0.000000000              -0.094442414              -0.267045665               0.000000000              -0.103748172              -0.290341099               0.000000000              -0.113053931              -0.313636532               0.000000000              -0.122359690              -0.336931966               0.000000000              -0.131665448              -0.360227399               0.000000000              -0.140971207              -0.383522833               0.000000000              -0.150276966              -0.406818266               0.000000000              -0.159582724              -0.430113700               0.000000000              -0.168888483              -0.453409133               0.000000000              -0.178194241              -0.476704567               0.000000000              -0.187500000              -0.500000000               0.000000000              -0.025947013              -0.130444442               0.000000000              -0.032137825              -0.153541665               0.000000000              -0.038328636              -0.176638887               0.000000000              -0.044519448              -0.199736109               0.000000000              -0.050710260              -0.222833332               0.000000000              -0.056901071              -0.245930554               0.000000000              -0.063091883              -0.269027776               0.000000000              -0.069282695              -0.292124999               0.000000000              -0.075473506              -0.315222221               0.000000000              -0.081664318              -0.338319444               0.000000000              -0.087855130              -0.361416666               0.000000000              -0.094045942              -0.384513888               0.000000000              -0.100236753              -0.407611111               0.000000000              -0.106427565              -0.430708333               0.000000000              -0.112618377              -0.453805555               0.000000000              -0.118809188              -0.476902778               0.000000000              -0.125000000              -0.500000000               0.000000000              -0.013036280              -0.132359569               0.000000000              -0.016127762              -0.155337096               0.000000000              -0.019219245              -0.178314623               0.000000000              -0.022310727              -0.201292150               0.000000000              -0.025402210              -0.224269676               0.000000000              -0.028493692              -0.247247203               0.000000000              -0.031585175              -0.270224730               0.000000000              -0.034676657              -0.293202257               0.000000000              -0.037768140              -0.316179784               0.000000000              -0.040859622              -0.339157311               0.000000000              -0.043951105              -0.362134838               0.000000000              -0.047042587              -0.385112365               0.000000000              -0.050134070              -0.408089892               0.000000000              -0.053225552              -0.431067419               0.000000000              -0.056317035              -0.454044946               0.000000000              -0.059408517              -0.477022473               0.000000000              -0.062500000              -0.500000000               0.000000000               0.000000000              -0.133000000               0.000000000               0.000000000              -0.155937500               0.000000000               0.000000000              -0.178875000               0.000000000               0.000000000              -0.201812500               0.000000000               0.000000000              -0.224750000               0.000000000               0.000000000              -0.247687500               0.000000000               0.000000000              -0.270625000               0.000000000               0.000000000              -0.293562500               0.000000000               0.000000000              -0.316500000               0.000000000               0.000000000              -0.339437500               0.000000000               0.000000000              -0.362375000               0.000000000               0.000000000              -0.385312500               0.000000000               0.000000000              -0.408250000               0.000000000               0.000000000              -0.431187500               0.000000000               0.000000000              -0.454125000               0.000000000               0.000000000              -0.477062500               0.000000000               0.000000000              -0.500000000               0.000000000              -0.133000000               0.000000000               0.000000000              -0.155937500               0.000000000               0.000000000              -0.178875000               0.000000000               0.000000000              -0.201812500               0.000000000               0.000000000              -0.224750000               0.000000000               0.000000000              -0.247687500               0.000000000               0.000000000              -0.270625000               0.000000000               0.000000000              -0.293562500               0.000000000               0.000000000              -0.316500000               0.000000000               0.000000000              -0.339437500               0.000000000               0.000000000              -0.362375000               0.000000000               0.000000000              -0.385312500               0.000000000               0.000000000              -0.408250000               0.000000000               0.000000000              -0.431187500               0.000000000               0.000000000              -0.454125000               0.000000000               0.000000000              -0.477062500               0.000000000               0.000000000              -0.500000000               0.000000000               0.000000000              -0.132359569               0.013036280               0.000000000              -0.155337096               0.016127762               0.000000000              -0.178314623               0.019219245               0.000000000              -0.201292150               0.022310727               0.000000000              -0.224269676               0.025402210               0.000000000              -0.247247203               0.028493692               0.000000000              -0.270224730               0.031585175               0.000000000              -0.293202257               0.034676657               0.000000000              -0.316179784               0.037768140               0.000000000              -0.339157311               0.040859622               0.000000000              -0.362134838               0.043951105               0.000000000              -0.385112365               0.047042587               0.000000000              -0.408089892               0.050134070               0.000000000              -0.431067419               0.053225552               0.000000000              -0.454044946               0.056317035               0.000000000              -0.477022473               0.059408517               0.000000000              -0.500000000               0.062500000               0.000000000              -0.130444442               0.025947013               0.000000000              -0.153541665               0.032137825               0.000000000              -0.176638887               0.038328636               0.000000000              -0.199736109               0.044519448               0.000000000              -0.222833332               0.050710260               0.000000000              -0.245930554               0.056901071               0.000000000              -0.269027776               0.063091883               0.000000000              -0.292124999               0.069282695               0.000000000              -0.315222221               0.075473506               0.000000000              -0.338319444               0.081664318               0.000000000              -0.361416666               0.087855130               0.000000000              -0.384513888               0.094045942               0.000000000              -0.407611111               0.100236753               0.000000000              -0.430708333               0.106427565               0.000000000              -0.453805555               0.112618377               0.000000000              -0.476902778               0.118809188               0.000000000              -0.500000000               0.125000000               0.000000000              -0.127273065               0.038607862               0.000000000              -0.150568498               0.047913621               0.000000000              -0.173863932               0.057219379               0.000000000              -0.197159365               0.066525138               0.000000000              -0.220454798               0.075830897               0.000000000              -0.243750232               0.085136655               0.000000000              -0.267045665               0.094442414               0.000000000              -0.290341099               0.103748172               0.000000000              -0.313636532               0.113053931               0.000000000              -0.336931966               0.122359690               0.000000000              -0.360227399               0.131665448               0.000000000              -0.383522833               0.140971207               0.000000000              -0.406818266               0.150276966               0.000000000              -0.430113700               0.159582724               0.000000000              -0.453409133               0.168888483               0.000000000              -0.476704567               0.178194241               0.000000000              -0.500000000               0.187500000               0.000000000              -0.122875978               0.050896897               0.000000000              -0.146446229               0.063340840               0.000000000              -0.170016481               0.075784784               0.000000000              -0.193586732               0.088228728               0.000000000              -0.217156983               0.100672672               0.000000000              -0.240727235               0.113116616               0.000000000              -0.264297486               0.125560560               0.000000000              -0.287867738               0.138004504               0.000000000              -0.311437989               0.150448448               0.000000000              -0.335008240               0.162892392               0.000000000              -0.358578492               0.175336336               0.000000000              -0.382148743               0.187780280               0.000000000              -0.405718994               0.200224224               0.000000000              -0.429289246               0.212668168               0.000000000              -0.452859497               0.225112112               0.000000000              -0.476429749               0.237556056               0.000000000              -0.500000000               0.250000000               0.000000000              -0.117295528               0.062695766               0.000000000              -0.141214558               0.078308531               0.000000000              -0.165133587               0.093921295               0.000000000              -0.189052617               0.109534060               0.000000000              -0.212971646               0.125146824               0.000000000              -0.236890676               0.140759589               0.000000000              -0.260809705               0.156372354               0.000000000              -0.284728735               0.171985118               0.000000000              -0.308647764               0.187597883               0.000000000              -0.332566794               0.203210648               0.000000000              -0.356485823               0.218823412               0.000000000              -0.380404853               0.234436177               0.000000000              -0.404323882               0.250048941               0.000000000              -0.428242912               0.265661706               0.000000000              -0.452161941               0.281274471               0.000000000              -0.476080971               0.296887235               0.000000000              -0.500000000               0.312500000               0.000000000              -0.110585458               0.073890841               0.000000000              -0.134923867               0.092710163               0.000000000              -0.159262276               0.111529486               0.000000000              -0.183600685               0.130348808               0.000000000              -0.207939094               0.149168131               0.000000000              -0.232277503               0.167987453               0.000000000              -0.256615912               0.186806776               0.000000000              -0.280954320               0.205626098               0.000000000              -0.305292729               0.224445420               0.000000000              -0.329631138               0.243264743               0.000000000              -0.353969547               0.262084065               0.000000000              -0.378307956               0.280903388               0.000000000              -0.402646365               0.299722710               0.000000000              -0.426984773               0.318542033               0.000000000              -0.451323182               0.337361355               0.000000000              -0.475661591               0.356180678               0.000000000              -0.500000000               0.375000000               0.000000000              -0.102810390               0.084374307               0.000000000              -0.127634741               0.106444663               0.000000000              -0.152459092               0.128515018               0.000000000              -0.177283442               0.150585374               0.000000000              -0.202107793               0.172655730               0.000000000              -0.226932143               0.194726086               0.000000000              -0.251756494               0.216796442               0.000000000              -0.276580845               0.238866798               0.000000000              -0.301405195               0.260937153               0.000000000              -0.326229546               0.283007509               0.000000000              -0.351053896               0.305077865               0.000000000              -0.375878247               0.327148221               0.000000000              -0.400702598               0.349218577               0.000000000              -0.425526948               0.371288933               0.000000000              -0.450351299               0.393359288               0.000000000              -0.475175649               0.415429644               0.000000000              -0.500000000               0.437500000               0.000000000              -0.094045202               0.094045202               0.000000000              -0.119417377               0.119417377               0.000000000              -0.144789552               0.144789552               0.000000000              -0.170161727               0.170161727               0.000000000              -0.195533901               0.195533901               0.000000000              -0.220906076               0.220906076               0.000000000              -0.246278251               0.246278251               0.000000000              -0.271650426               0.271650426               0.000000000              -0.297022601               0.297022601               0.000000000              -0.322394776               0.322394776               0.000000000              -0.347766951               0.347766951               0.000000000              -0.373139126               0.373139126               0.000000000              -0.398511300               0.398511300               0.000000000              -0.423883475               0.423883475               0.000000000              -0.449255650               0.449255650               0.000000000              -0.474627825               0.474627825               0.000000000              -0.500000000               0.500000000               0.000000000              -0.084374307               0.102810390               0.000000000              -0.106444663               0.127634741               0.000000000              -0.128515018               0.152459092               0.000000000              -0.150585374               0.177283442               0.000000000              -0.172655730               0.202107793               0.000000000              -0.194726086               0.226932143               0.000000000              -0.216796442               0.251756494               0.000000000              -0.238866798               0.276580845               0.000000000              -0.260937153               0.301405195               0.000000000              -0.283007509               0.326229546               0.000000000              -0.305077865               0.351053896               0.000000000              -0.327148221               0.375878247               0.000000000              -0.349218577               0.400702598               0.000000000              -0.371288933               0.425526948               0.000000000              -0.393359288               0.450351299               0.000000000              -0.415429644               0.475175649               0.000000000              -0.437500000               0.500000000               0.000000000              -0.073890841               0.110585458               0.000000000              -0.092710163               0.134923867               0.000000000              -0.111529486               0.159262276               0.000000000              -0.130348808               0.183600685               0.000000000              -0.149168131               0.207939094               0.000000000              -0.167987453               0.232277503               0.000000000              -0.186806776               0.256615912               0.000000000              -0.205626098               0.280954320               0.000000000              -0.224445420               0.305292729               0.000000000              -0.243264743               0.329631138               0.000000000              -0.262084065               0.353969547               0.000000000              -0.280903388               0.378307956               0.000000000              -0.299722710               0.402646365               0.000000000              -0.318542033               0.426984773               0.000000000              -0.337361355               0.451323182               0.000000000              -0.356180678               0.475661591               0.000000000              -0.375000000               0.500000000               0.000000000              -0.062695766               0.117295528               0.000000000              -0.078308531               0.141214558               0.000000000              -0.093921295               0.165133587               0.000000000              -0.109534060               0.189052617               0.000000000              -0.125146824               0.212971646               0.000000000              -0.140759589               0.236890676               0.000000000              -0.156372354               0.260809705               0.000000000              -0.171985118               0.284728735               0.000000000              -0.187597883               0.308647764               0.000000000              -0.203210648               0.332566794               0.000000000              -0.218823412               0.356485823               0.000000000              -0.234436177               0.380404853               0.000000000              -0.250048941               0.404323882               0.000000000              -0.265661706               0.428242912               0.000000000              -0.281274471               0.452161941               0.000000000              -0.296887235               0.476080971               0.000000000              -0.312500000               0.500000000               0.000000000              -0.050896897               0.122875978               0.000000000              -0.063340840               0.146446229               0.000000000              -0.075784784               0.170016481               0.000000000              -0.088228728               0.193586732               0.000000000              -0.100672672               0.217156983               0.000000000              -0.113116616               0.240727235               0.000000000              -0.125560560               0.264297486               0.000000000              -0.138004504               0.287867738               0.000000000              -0.150448448               0.311437989               0.000000000              -0.162892392               0.335008240               0.000000000              -0.175336336               0.358578492               0.000000000              -0.187780280               0.382148743               0.000000000              -0.200224224               0.405718994               0.000000000              -0.212668168               0.429289246               0.000000000              -0.225112112               0.452859497               0.000000000              -0.237556056               0.476429749               0.000000000              -0.250000000               0.500000000               0.000000000              -0.038607862               0.127273065               0.000000000              -0.047913621               0.150568498               0.000000000              -0.057219379               0.173863932               0.000000000              -0.066525138               0.197159365               0.000000000              -0.075830897               0.220454798               0.000000000              -0.085136655               0.243750232               0.000000000              -0.094442414               0.267045665               0.000000000              -0.103748172               0.290341099               0.000000000              -0.113053931               0.313636532               0.000000000              -0.122359690               0.336931966               0.000000000              -0.131665448               0.360227399               0.000000000              -0.140971207               0.383522833               0.000000000              -0.150276966               0.406818266               0.000000000              -0.159582724               0.430113700               0.000000000              -0.168888483               0.453409133               0.000000000              -0.178194241               0.476704567               0.000000000              -0.187500000               0.500000000               0.000000000              -0.025947013               0.130444442               0.000000000              -0.032137825               0.153541665               0.000000000              -0.038328636               0.176638887               0.000000000              -0.044519448               0.199736109               0.000000000              -0.050710260               0.222833332               0.000000000              -0.056901071               0.245930554               0.000000000              -0.063091883               0.269027776               0.000000000              -0.069282695               0.292124999               0.000000000              -0.075473506               0.315222221               0.000000000              -0.081664318               0.338319444               0.000000000              -0.087855130               0.361416666               0.000000000              -0.094045942               0.384513888               0.000000000              -0.100236753               0.407611111               0.000000000              -0.106427565               0.430708333               0.000000000              -0.112618377               0.453805555               0.000000000              -0.118809188               0.476902778               0.000000000              -0.125000000               0.500000000               0.000000000              -0.013036280               0.132359569               0.000000000              -0.016127762               0.155337096               0.000000000              -0.019219245               0.178314623               0.000000000              -0.022310727               0.201292150               0.000000000              -0.025402210               0.224269676               0.000000000              -0.028493692               0.247247203               0.000000000              -0.031585175               0.270224730               0.000000000              -0.034676657               0.293202257               0.000000000              -0.037768140               0.316179784               0.000000000              -0.040859622               0.339157311               0.000000000              -0.043951105               0.362134838               0.000000000              -0.047042587               0.385112365               0.000000000              -0.050134070               0.408089892               0.000000000              -0.053225552               0.431067419               0.000000000              -0.056317035               0.454044946               0.000000000              -0.059408517               0.477022473               0.000000000              -0.062500000               0.500000000               0.000000000               0.000000000               0.133000000               0.000000000               0.000000000               0.155937500               0.000000000               0.000000000               0.178875000               0.000000000               0.000000000               0.201812500               0.000000000               0.000000000               0.224750000               0.000000000               0.000000000               0.247687500               0.000000000               0.000000000               0.270625000               0.000000000               0.000000000               0.293562500               0.000000000               0.000000000               0.316500000               0.000000000               0.000000000               0.339437500               0.000000000               0.000000000               0.362375000               0.000000000               0.000000000               0.385312500               0.000000000               0.000000000               0.408250000               0.000000000               0.000000000               0.431187500               0.000000000               0.000000000               0.454125000               0.000000000               0.000000000               0.477062500               0.000000000               0.000000000               0.500000000               0.000000000 </DataArray>
</Points>
<Cells>
<DataArray type="Int32"                                    Name="connectivity"                                                      NumberOfComponents=" 1" format="ascii">
         0          1         18         17          1          2         19         18          2          3         20         19          3          4         21         20          4          5         22         21          5          6         23         22          6          7         24         23          7          8         25         24          8          9         26         25          9         10         27         26         10         11         28         27         11         12         29         28         12         13         30         29         13         14         31         30         14         15         32         31         15         16         33         32         17         18         35         34         18         19         36         35         19         20         37         36         20         21         38         37         21         22         39         38         22         23         40         39         23         24         41         40         24         25         42         41         25         26         43         42         26         27         44         43         27         28         45         44         28         29         46         45         29         30         47         46         30         31         48         47         31         32         49         48         32         33         50         49         34         35         52         51         35         36         53         52         36         37         54         53         37         38         55         54         38         39         56         55         39         40         57         56         40         41         58         57         41         42         59         58         42         43         60         59         43         44         61         60         44         45         62         61         45         46         63         62         46         47         64         63         47         48         65         64         48         49         66         65         49         50         67         66         51         52         69         68         52         53         70         69         53         54         71         70         54         55         72         71         55         56         73         72         56         57         74         73         57         58         75         74         58         59         76         75         59         60         77         76         60         61         78         77         61         62         79         78         62         63         80         79         63         64         81         80         64         65         82         81         65         66         83         82         66         67         84         83         68         69         86         85         69         70         87         86         70         71         88         87         71         72         89         88         72         73         90         89         73         74         91         90         74         75         92         91         75         76         93         92         76         77         94         93         77         78         95         94         78         79         96         95         79         80         97         96         80         81         98         97         81         82         99         98         82         83        100         99         83         84        101        100         85         86        103        102         86         87        104        103         87         88        105        104         88         89        106        105         89         90        107        106         90         91        108        107         91         92        109        108         92         93        110        109         93         94        111        110         94         95        112        111         95         96        113        112         96         97        114        113         97         98        115        114         98         99        116        115         99        100        117        116        100        101        118        117        102        103        120        119        103        104        121        120        104        105        122        121        105        106        123        122        106        107        124        123        107        108        125        124        108        109        126        125        109        110        127        126        110        111        128        127        111        112        129        128        112        113        130        129        113        114        131        130        114        115        132        131        115        116        133        132        116        117        134        133        117        118        135        134        119        120        137        136        120        121        138        137        121        122        139        138        122        123        140        139        123        124        141        140        124        125        142        141        125        126        143        142        126        127        144        143        127        128        145        144        128        129        146        145        129        130        147        146        130        131        148        147        131        132        149        148        132        133        150        149        133        134        151        150        134        135        152        151        136        137        154        153        137        138        155        154        138        139        156        155        139        140        157        156        140        141        158        157        141        142        159        158        142        143        160        159        143        144        161        160        144        145        162        161        145        146        163        162        146        147        164        163        147        148        165        164        148        149        166        165        149        150        167        166        150        151        168        167        151        152        169        168        153        154        171        170        154        155        172        171        155        156        173        172        156        157        174        173        157        158        175        174        158        159        176        175        159        160        177        176        160        161        178        177        161        162        179        178        162        163        180        179        163        164        181        180        164        165        182        181        165        166        183        182        166        167        184        183        167        168        185        184        168        169        186        185        170        171        188        187        171        172        189        188        172        173        190        189        173        174        191        190        174        175        192        191        175        176        193        192        176        177        194        193        177        178        195        194        178        179        196        195        179        180        197        196        180        181        198        197        181        182        199        198        182        183        200        199        183        184        201        200        184        185        202        201        185        186        203        202        187        188        205        204        188        189        206        205        189        190        207        206        190        191        208        207        191        192        209        208        192        193        210        209        193        194        211        210        194        195        212        211        195        196        213        212        196        197        214        213        197        198        215        214        198        199        216        215        199        200        217        216        200        201        218        217        201        202        219        218        202        203        220        219        204        205        222        221        205        206        223        222        206        207        224        223        207        208        225        224        208        209        226        225        209        210        227        226        210        211        228        227        211        212        229        228        212        213        230        229        213        214        231        230        214        215        232        231        215        216        233        232        216        217        234        233        217        218        235        234        218        219        236        235        219        220        237        236        221        222        239        238        222        223        240        239        223        224        241        240        224        225        242        241        225        226        243        242        226        227        244        243        227        228        245        244        228        229        246        245        229        230        247        246        230        231        248        247        231        232        249        248        232        233        250        249        233        234        251        250        234        235        252        251        235        236        253        252        236        237        254        253        238        239        256        255        239        240        257        256        240        241        258        257        241        242        259        258        242        243        260        259        243        244        261        260        244        245        262        261        245        246        263        262        246        247        264        263        247        248        265        264        248        249        266        265        249        250        267        266        250        251        268        267        251        252        269        268        252        253        270        269        253        254        271        270        255        256        273        272        256        257        274        273        257        258        275        274        258        259        276        275        259        260        277        276        260        261        278        277        261        262        279        278        262        263        280        279        263        264        281        280        264        265        282        281        265        266        283        282        266        267        284        283        267        268        285        284        268        269        286        285        269        270        287        286        270        271        288        287        306        307          1          0        307        308          2          1        308        309          3          2        309        310          4          3        310        311          5          4        311        312          6          5        312        313          7          6        313        314          8          7        314        315          9          8        315        316         10          9        316        317         11         10        317        318         12         11        318        319         13         12        319        320         14         13        320        321         15         14        321        322         16         15        323        324        307        306        324        325        308        307        325        326        309        308        326        327        310        309        327        328        311        310        328        329        312        311        329        330        313        312        330        331        314        313        331        332        315        314        332        333        316        315        333        334        317        316        334        335        318        317        335        336        319        318        336        337        320        319        337        338        321        320        338        339        322        321        340        341        324        323        341        342        325        324        342        343        326        325        343        344        327        326        344        345        328        327        345        346        329        328        346        347        330        329        347        348        331        330        348        349        332        331        349        350        333        332        350        351        334        333        351        352        335        334        352        353        336        335        353        354        337        336        354        355        338        337        355        356        339        338        357        358        341        340        358        359        342        341        359        360        343        342        360        361        344        343        361        362        345        344        362        363        346        345        363        364        347        346        364        365        348        347        365        366        349        348        366        367        350        349        367        368        351        350        368        369        352        351        369        370        353        352        370        371        354        353        371        372        355        354        372        373        356        355        374        375        358        357        375        376        359        358        376        377        360        359        377        378        361        360        378        379        362        361        379        380        363        362        380        381        364        363        381        382        365        364        382        383        366        365        383        384        367        366        384        385        368        367        385        386        369        368        386        387        370        369        387        388        371        370        388        389        372        371        389        390        373        372        391        392        375        374        392        393        376        375        393        394        377        376        394        395        378        377        395        396        379        378        396        397        380        379        397        398        381        380        398        399        382        381        399        400        383        382        400        401        384        383        401        402        385        384        402        403        386        385        403        404        387        386        404        405        388        387        405        406        389        388        406        407        390        389        408        409        392        391        409        410        393        392        410        411        394        393        411        412        395        394        412        413        396        395        413        414        397        396        414        415        398        397        415        416        399        398        416        417        400        399        417        418        401        400        418        419        402        401        419        420        403        402        420        421        404        403        421        422        405        404        422        423        406        405        423        424        407        406        425        426        409        408        426        427        410        409        427        428        411        410        428        429        412        411        429        430        413        412        430        431        414        413        431        432        415        414        432        433        416        415        433        434        417        416        434        435        418        417        435        436        419        418        436        437        420        419        437        438        421        420        438        439        422        421        439        440        423        422        440        441        424        423        442        443        426        425        443        444        427        426        444        445        428        427        445        446        429        428        446        447        430        429        447        448        431        430        448        449        432        431        449        450        433        432        450        451        434        433        451        452        435        434        452        453        436        435        453        454        437        436        454        455        438        437        455        456        439        438        456        457        440        439        457        458        441        440        459        460        443        442        460        461        444        443        461        462        445        444        462        463        446        445        463        464        447        446        464        465        448        447        465        466        449        448        466        467        450        449        467        468        451        450        468        469        452        451        469        470        453        452        470        471        454        453        471        472        455        454        472        473        456        455        473        474        457        456        474        475        458        457        476        477        460        459        477        478        461        460        478        479        462        461        479        480        463        462        480        481        464        463        481        482        465        464        482        483        466        465        483        484        467        466        484        485        468        467        485        486        469        468        486        487        470        469        487        488        471        470        488        489        472        471        489        490        473        472        490        491        474        473        491        492        475        474        493        494        477        476        494        495        478        477        495        496        479        478        496        497        480        479        497        498        481        480        498        499        482        481        499        500        483        482        500        501        484        483        501        502        485        484        502        503        486        485        503        504        487        486        504        505        488        487        505        506        489        488        506        507        490        489        507        508        491        490        508        509        492        491        510        511        494        493        511        512        495        494        512        513        496        495        513        514        497        496        514        515        498        497        515        516        499        498        516        517        500        499        517        518        501        500        518        519        502        501        519        520        503        502        520        521        504        503        521        522        505        504        522        523        506        505        523        524        507        506        524        525        508        507        525        526        509        508        527        528        511        510        528        529        512        511        529        530        513        512        530        531        514        513        531        532        515        514        532        533        516        515        533        534        517        516        534        535        518        517        535        536        519        518        536        537        520        519        537        538        521        520        538        539        522        521        539        540        523        522        540        541        524        523        541        542        525        524        542        543        526        525        544        545        528        527        545        546        529        528        546        547        530        529        547        548        531        530        548        549        532        531        549        550        533        532        550        551        534        533        551        552        535        534        552        553        536        535        553        554        537        536        554        555        538        537        555        556        539        538        556        557        540        539        557        558        541        540        558        559        542        541        559        560        543        542        561        562        545        544        562        563        546        545        563        564        547        546        564        565        548        547        565        566        549        548        566        567        550        549        567        568        551        550        568        569        552        551        569        570        553        552        570        571        554        553        571        572        555        554        572        573        556        555        573        574        557        556        574        575        558        557        575        576        559        558        576        577        560        559        578        579        596        595        579        580        597        596        580        581        598        597        581        582        599        598        582        583        600        599        583        584        601        600        584        585        602        601        585        586        603        602        586        587        604        603        587        588        605        604        588        589        606        605        589        590        607        606        590        591        608        607        591        592        609        608        592        593        610        609        593        594        611        610        595        596        613        612        596        597        614        613        597        598        615        614        598        599        616        615        599        600        617        616        600        601        618        617        601        602        619        618        602        603        620        619        603        604        621        620        604        605        622        621        605        606        623        622        606        607        624        623        607        608        625        624        608        609        626        625        609        610        627        626        610        611        628        627        612        613        630        629        613        614        631        630        614        615        632        631        615        616        633        632        616        617        634        633        617        618        635        634        618        619        636        635        619        620        637        636        620        621        638        637        621        622        639        638        622        623        640        639        623        624        641        640        624        625        642        641        625        626        643        642        626        627        644        643        627        628        645        644        629        630        647        646        630        631        648        647        631        632        649        648        632        633        650        649        633        634        651        650        634        635        652        651        635        636        653        652        636        637        654        653        637        638        655        654        638        639        656        655        639        640        657        656        640        641        658        657        641        642        659        658        642        643        660        659        643        644        661        660        644        645        662        661        646        647        664        663        647        648        665        664        648        649        666        665        649        650        667        666        650        651        668        667        651        652        669        668        652        653        670        669        653        654        671        670        654        655        672        671        655        656        673        672        656        657        674        673        657        658        675        674        658        659        676        675        659        660        677        676        660        661        678        677        661        662        679        678        663        664        681        680        664        665        682        681        665        666        683        682        666        667        684        683        667        668        685        684        668        669        686        685        669        670        687        686        670        671        688        687        671        672        689        688        672        673        690        689        673        674        691        690        674        675        692        691        675        676        693        692        676        677        694        693        677        678        695        694        678        679        696        695        680        681        698        697        681        682        699        698        682        683        700        699        683        684        701        700        684        685        702        701        685        686        703        702        686        687        704        703        687        688        705        704        688        689        706        705        689        690        707        706        690        691        708        707        691        692        709        708        692        693        710        709        693        694        711        710        694        695        712        711        695        696        713        712        697        698        715        714        698        699        716        715        699        700        717        716        700        701        718        717        701        702        719        718        702        703        720        719        703        704        721        720        704        705        722        721        705        706        723        722        706        707        724        723        707        708        725        724        708        709        726        725        709        710        727        726        710        711        728        727        711        712        729        728        712        713        730        729        714        715        732        731        715        716        733        732        716        717        734        733        717        718        735        734        718        719        736        735        719        720        737        736        720        721        738        737        721        722        739        738        722        723        740        739        723        724        741        740        724        725        742        741        725        726        743        742        726        727        744        743        727        728        745        744        728        729        746        745        729        730        747        746        731        732        749        748        732        733        750        749        733        734        751        750        734        735        752        751        735        736        753        752        736        737        754        753        737        738        755        754        738        739        756        755        739        740        757        756        740        741        758        757        741        742        759        758        742        743        760        759        743        744        761        760        744        745        762        761        745        746        763        762        746        747        764        763        748        749        766        765        749        750        767        766        750        751        768        767        751        752        769        768        752        753        770        769        753        754        771        770        754        755        772        771        755        756        773        772        756        757        774        773        757        758        775        774        758        759        776        775        759        760        777        776        760        761        778        777        761        762        779        778        762        763        780        779        763        764        781        780        765        766        783        782        766        767        784        783        767        768        785        784        768        769        786        785        769        770        787        786        770        771        788        787        771        772        789        788        772        773        790        789        773        774        791        790        774        775        792        791        775        776        793        792        776        777        794        793        777        778        795        794        778        779        796        795        779        780        797        796        780        781        798        797        782        783        800        799        783        784        801        800        784        785        802        801        785        786        803        802        786        787        804        803        787        788        805        804        788        789        806        805        789        790        807        806        790        791        808        807        791        792        809        808        792        793        810        809        793        794        811        810        794        795        812        811        795        796        813        812        796        797        814        813        797        798        815        814        799        800        817        816        800        801        818        817        801        802        819        818        802        803        820        819        803        804        821        820        804        805        822        821        805        806        823        822        806        807        824        823        807        808        825        824        808        809        826        825        809        810        827        826        810        811        828        827        811        812        829        828        812        813        830        829        813        814        831        830        814        815        832        831        816        817        834        833        817        818        835        834        818        819        836        835        819        820        837        836        820        821        838        837        821        822        839        838        822        823        840        839        823        824        841        840        824        825        842        841        825        826        843        842        826        827        844        843        827        828        845        844        828        829        846        845        829        830        847        846        830        831        848        847        831        832        849        848        833        834        562        561        834        835        563        562        835        836        564        563        836        837        565        564        837        838        566        565        838        839        567        566        839        840        568        567        840        841        569        568        841        842        570        569        842        843        571        570        843        844        572        571        844        845        573        572        845        846        574        573        846        847        575        574        847        848        576        575        848        849        577        576        884        885        579        578        885        886        580        579        886        887        581        580        887        888        582        581        888        889        583        582        889        890        584        583        890        891        585        584        891        892        586        585        892        893        587        586        893        894        588        587        894        895        589        588        895        896        590        589        896        897        591        590        897        898        592        591        898        899        593        592        899        900        594        593        901        902        885        884        902        903        886        885        903        904        887        886        904        905        888        887        905        906        889        888        906        907        890        889        907        908        891        890        908        909        892        891        909        910        893        892        910        911        894        893        911        912        895        894        912        913        896        895        913        914        897        896        914        915        898        897        915        916        899        898        916        917        900        899        918        919        902        901        919        920        903        902        920        921        904        903        921        922        905        904        922        923        906        905        923        924        907        906        924        925        908        907        925        926        909        908        926        927        910        909        927        928        911        910        928        929        912        911        929        930        913        912        930        931        914        913        931        932        915        914        932        933        916        915        933        934        917        916        935        936        919        918        936        937        920        919        937        938        921        920        938        939        922        921        939        940        923        922        940        941        924        923        941        942        925        924        942        943        926        925        943        944        927        926        944        945        928        927        945        946        929        928        946        947        930        929        947        948        931        930        948        949        932        931        949        950        933        932        950        951        934        933        952        953        936        935        953        954        937        936        954        955        938        937        955        956        939        938        956        957        940        939        957        958        941        940        958        959        942        941        959        960        943        942        960        961        944        943        961        962        945        944        962        963        946        945        963        964        947        946        964        965        948        947        965        966        949        948        966        967        950        949        967        968        951        950        969        970        953        952        970        971        954        953        971        972        955        954        972        973        956        955        973        974        957        956        974        975        958        957        975        976        959        958        976        977        960        959        977        978        961        960        978        979        962        961        979        980        963        962        980        981        964        963        981        982        965        964        982        983        966        965        983        984        967        966        984        985        968        967        986        987        970        969        987        988        971        970        988        989        972        971        989        990        973        972        990        991        974        973        991        992        975        974        992        993        976        975        993        994        977        976        994        995        978        977        995        996        979        978        996        997        980        979        997        998        981        980        998        999        982        981        999       1000        983        982       1000       1001        984        983       1001       1002        985        984       1003       1004        987        986       1004       1005        988        987       1005       1006        989        988       1006       1007        990        989       1007       1008        991        990       1008       1009        992        991       1009       1010        993        992       1010       1011        994        993       1011       1012        995        994       1012       1013        996        995       1013       1014        997        996       1014       1015        998        997       1015       1016        999        998       1016       1017       1000        999       1017       1018       1001       1000       1018       1019       1002       1001       1020       1021       1004       1003       1021       1022       1005       1004       1022       1023       1006       1005       1023       1024       1007       1006       1024       1025       1008       1007       1025       1026       1009       1008       1026       1027       1010       1009       1027       1028       1011       1010       1028       1029       1012       1011       1029       1030       1013       1012       1030       1031       1014       1013       1031       1032       1015       1014       1032       1033       1016       1015       1033       1034       1017       1016       1034       1035       1018       1017       1035       1036       1019       1018       1037       1038       1021       1020       1038       1039       1022       1021       1039       1040       1023       1022       1040       1041       1024       1023       1041       1042       1025       1024       1042       1043       1026       1025       1043       1044       1027       1026       1044       1045       1028       1027       1045       1046       1029       1028       1046       1047       1030       1029       1047       1048       1031       1030       1048       1049       1032       1031       1049       1050       1033       1032       1050       1051       1034       1033       1051       1052       1035       1034       1052       1053       1036       1035       1054       1055       1038       1037       1055       1056       1039       1038       1056       1057       1040       1039       1057       1058       1041       1040       1058       1059       1042       1041       1059       1060       1043       1042       1060       1061       1044       1043       1061       1062       1045       1044       1062       1063       1046       1045       1063       1064       1047       1046       1064       1065       1048       1047       1065       1066       1049       1048       1066       1067       1050       1049       1067       1068       1051       1050       1068       1069       1052       1051       1069       1070       1053       1052       1071       1072       1055       1054       1072       1073       1056       1055       1073       1074       1057       1056       1074       1075       1058       1057       1075       1076       1059       1058       1076       1077       1060       1059       1077       1078       1061       1060       1078       1079       1062       1061       1079       1080       1063       1062       1080       1081       1064       1063       1081       1082       1065       1064       1082       1083       1066       1065       1083       1084       1067       1066       1084       1085       1068       1067       1085       1086       1069       1068       1086       1087       1070       1069       1088       1089       1072       1071       1089       1090       1073       1072       1090       1091       1074       1073       1091       1092       1075       1074       1092       1093       1076       1075       1093       1094       1077       1076       1094       1095       1078       1077       1095       1096       1079       1078       1096       1097       1080       1079       1097       1098       1081       1080       1098       1099       1082       1081       1099       1100       1083       1082       1100       1101       1084       1083       1101       1102       1085       1084       1102       1103       1086       1085       1103       1104       1087       1086       1105       1106       1089       1088       1106       1107       1090       1089       1107       1108       1091       1090       1108       1109       1092       1091       1109       1110       1093       1092       1110       1111       1094       1093       1111       1112       1095       1094       1112       1113       1096       1095       1113       1114       1097       1096       1114       1115       1098       1097       1115       1116       1099       1098       1116       1117       1100       1099       1117       1118       1101       1100       1118       1119       1102       1101       1119       1120       1103       1102       1120       1121       1104       1103       1122       1123       1106       1105       1123       1124       1107       1106       1124       1125       1108       1107       1125       1126       1109       1108       1126       1127       1110       1109       1127       1128       1111       1110       1128       1129       1112       1111       1129       1130       1113       1112       1130       1131       1114       1113       1131       1132       1115       1114       1132       1133       1116       1115       1133       1134       1117       1116       1134       1135       1118       1117       1135       1136       1119       1118       1136       1137       1120       1119       1137       1138       1121       1120        272        273       1123       1122        273        274       1124       1123        274        275       1125       1124        275        276       1126       1125        276        277       1127       1126        277        278       1128       1127        278        279       1129       1128        279        280       1130       1129        280        281       1131       1130        281        282       1132       1131        282        283       1133       1132        283        284       1134       1133        284        285       1135       1134        285        286       1136       1135        286        287       1137       1136        287        288       1138       1137 </DataArray>
<DataArray type="Int32"                                    Name="offsets"                                                      NumberOfComponents=" 1" format="ascii">
         4          8         12         16         20         24         28         32         36         40         44         48         52         56         60         64         68         72         76         80         84         88         92         96        100        104        108        112        116        120        124        128        132        136        140        144        148        152        156        160        164        168        172        176        180        184        188        192        196        200        204        208        212        216        220        224        228        232        236        240        244        248        252        256        260        264        268        272        276        280        284        288        292        296        300        304        308        312        316        320        324        328        332        336        340        344        348        352        356        360        364        368        372        376        380        384        388        392        396        400        404        408        412        416        420        424        428        432        436        440        444        448        452        456        460        464        468        472        476        480        484        488        492        496        500        504        508        512        516        520        524        528        532        536        540        544        548        552        556        560        564        568        572        576        580        584        588        592        596        600        604        608        612        616        620        624        628        632        636        640        644        648        652        656        660        664        668        672        676        680        684        688        692        696        700        704        708        712        716        720        724        728        732        736        740        744        748        752        756        760        764        768        772        776        780        784        788        792        796        800        804        808        812        816        820        824        828        832        836        840        844        848        852        856        860        864        868        872        876        880        884        888        892        896        900        904        908        912        916        920        924        928        932        936        940        944        948        952        956        960        964        968        972        976        980        984        988        992        996       1000       1004       1008       1012       1016       1020       1024       1028       1032       1036       1040       1044       1048       1052       1056       1060       1064       1068       1072       1076       1080       1084       1088       1092       1096       1100       1104       1108       1112       1116       1120       1124       1128       1132       1136       1140       1144       1148       1152       1156       1160       1164       1168       1172       1176       1180       1184       1188       1192       1196       1200       1204       1208       1212       1216       1220       1224       1228       1232       1236       1240       1244       1248       1252       1256       1260       1264       1268       1272       1276       1280       1284       1288       1292       1296       1300       1304       1308       1312       1316       1320       1324       1328       1332       1336       1340       1344       1348       1352       1356       1360       1364       1368       1372       1376       1380       1384       1388       1392       1396       1400       1404       1408       1412       1416       1420       1424       1428       1432       1436       1440       1444       1448       1452       1456       1460       1464       1468       1472       1476       1480       1484       1488       1492       1496       1500       1504       1508       1512       1516       1520       1524       1528       1532       1536       1540       1544       1548       1552       1556       1560       1564       1568       1572       1576       1580       1584       1588       1592       1596       1600       1604       1608       1612       1616       1620       1624       1628       1632       1636       1640       1644       1648       1652       1656       1660       1664       1668       1672       1676       1680       1684       1688       1692       1696       1700       1704       1708       1712       1716       1720       1724       1728       1732       1736       1740       1744       1748       1752       1756       1760       1764       1768       1772       1776       1780       1784       1788       1792       1796       1800       1804       1808       1812       1816       1820       1824       1828       1832       1836       1840       1844       1848       1852       1856       1860       1864       1868       1872       1876       1880       1884       1888       1892       1896       1900       1904       1908       1912       1916       1920       1924       1928       1932       1936       1940       1944       1948       1952       1956       1960       1964       1968       1972       1976       1980       1984       1988       1992       1996       2000       2004       2008       2012       2016       2020       2024       2028       2032       2036       2040       2044       2048       2052       2056       2060       2064       2068       2072       2076       2080       2084       2088       2092       2096       2100       2104       2108       2112       2116       2120       2124       2128       2132       2136       2140       2144       2148       2152       2156       2160       2164       2168       2172       2176       2180       2184       2188       2192       2196       2200       2204       2208       2212       2216       2220       2224       2228       2232       2236       2240       2244       2248       2252       2256       2260       2264       2268       2272       2276       2280       2284       2288       2292       2296       2300       2304       2308       2312       2316       2320       2324       2328       2332       2336       2340       2344       2348       2352       2356       2360       2364       2368       2372       2376       2380       2384       2388       2392       2396       2400       2404       2408       2412       2416       2420       2424       2428       2432       2436       2440       2444       2448       2452       2456       2460       2464       2468       2472       2476       2480       2484       2488       2492       2496       2500       2504       2508       2512       2516       2520       2524       2528       2532       2536       2540       2544       2548       2552       2556       2560       2564       2568       2572       2576       2580       2584       2588       2592       2596       2600       2604       2608       2612       2616       2620       2624       2628       2632       2636       2640       2644       2648       2652       2656       2660       2664       2668       2672       2676       2680       2684       2688       2692       2696       2700       2704       2708       2712       2716       2720       2724       2728       2732       2736       2740       2744       2748       2752       2756       2760       2764       2768       2772       2776       2780       2784       2788       2792       2796       2800       2804       2808       2812       2816       2820       2824       2828       2832       2836       2840       2844       2848       2852       2856       2860       2864       2868       2872       2876       2880       2884       2888       2892       2896       2900       2904       2908       2912       2916       2920       2924       2928       2932       2936       2940       2944       2948       2952       2956       2960       2964       2968       2972       2976       2980       2984       2988       2992       2996       3000       3004       3008       3012       3016       3020       3024       3028       3032       3036       3040       3044       3048       3052       3056       3060       3064       3068       3072       3076       3080       3084       3088       3092       3096       3100       3104       3108       3112       3116       3120       3124       3128       3132       3136       3140       3144       3148       3152       3156       3160       3164       3168       3172       3176       3180       3184       3188       3192       3196       3200       3204       3208       3212       3216       3220       3224       3228       3232       3236       3240       3244       3248       3252       3256       3260       3264       3268       3272       3276       3280       3284       3288       3292       3296       3300       3304       3308       3312       3316       3320       3324       3328       3332       3336       3340       3344       3348       3352       3356       3360       3364       3368       3372       3376       3380       3384       3388       3392       3396       3400       3404       3408       3412       3416       3420       3424       3428       3432       3436       3440       3444       3448       3452       3456       3460       3464       3468       3472       3476       3480       3484       3488       3492       3496       3500       3504       3508       3512       3516       3520       3524       3528       3532       3536       3540       3544       3548       3552       3556       3560       3564       3568       3572       3576       3580       3584       3588       3592       3596       3600       3604       3608       3612       3616       3620       3624       3628       3632       3636       3640       3644       3648       3652       3656       3660       3664       3668       3672       3676       3680       3684       3688       3692       3696       3700       3704       3708       3712       3716       3720       3724       3728       3732       3736       3740       3744       3748       3752       3756       3760       3764       3768       3772       3776       3780       3784       3788       3792       3796       3800       3804       3808       3812       3816       3820       3824       3828       3832       3836       3840       3844       3848       3852       3856       3860       3864       3868       3872       3876       3880       3884       3888       3892       3896       3900       3904       3908       3912       3916       3920       3924       3928       3932       3936       3940       3944       3948       3952       3956       3960       3964       3968       3972       3976       3980       3984       3988       3992       3996       4000       4004       4008       4012       4016       4020       4024       4028       4032       4036       4040       4044       4048       4052       4056       4060       4064       4068       4072       4076       4080       4084       4088       4092       4096 </DataArray>
<DataArray type="UInt8"                                    Name="types"                                                      NumberOfComponents=" 1" format="ascii">
         9          9          9          9          9          9          9          9          9          9          9          9          9          9          9          9          9          9          9          9          9          9          9          9          9          9          9          9          9          9          9          9          9          9          9          9          9          9          9          9          9          9          9          9          9          9          9          9          9          9          9          9          9          9          9          9          9          9          9          9          9          9          9          9          9          9          9          9          9          9          9          9          9          9          9          9          9          9          9          9          9          9          9          9          9          9          9          9          9          9          9          9          9          9          9          9          9          9          9          9          9          9          9          9          9          9          9          9          9          9          9          9          9          9          9          9          9          9          9          9          9          9          9          9          9          9          9          9          9          9          9          9          9          9          9          9          9          9          9          9          9          9          9          9          9          9          9          9          9          9          9          9          9          9          9          9          9          9          9          9          9          9          9          9          9          9          9          9          9          9          9          9          9          9          9          9          9          9          9          9          9          9          9          9          9          9          9          9          9          9          9          9          9          9          9          9          9          9          9          9          9          9          9          9          9          9          9          9          9          9          9          9          9          9          9          9          9          9          9          9          9          9          9          9          9          9          9          9          9          9          9          9          9          9          9          9          9          9          9          9          9          9          9          9          9          9          9          9          9          9          9          9          9          9          9          9          9          9          9          9          9          9          9          9          9          9          9          9          9          9          9          9          9          9          9          9          9          9          9          9          9          9          9          9          9          9          9          9          9          9          9          9          9          9          9          9          9          9          9          9          9          9          9          9          9          9          9          9          9          9          9          9          9          9          9          9          9          9          9          9          9          9          9          9          9          9          9          9          9          9          9          9          9          9          9          9          9          9          9          9          9          9          9          9          9          9          9          9          9          9          9          9          9          9          9          9          9          9          9          9          9          9          9          9          9          9          9          9          9          9          9          9          9          9          9          9          9          9          9          9          9          9          9          9          9          9          9          9          9          9          9          9          9          9          9          9          9          9          9          9          9          9          9          9          9          9          9          9          9          9          9          9          9          9          9          9          9          9          9          9          9          9          9          9          9          9          9          9          9          9          9          9          9          9          9          9          9          9          9          9          9          9          9          9          9          9          9          9          9          9          9          9          9          9          9          9          9          9          9          9          9          9          9          9          9          9          9          9          9          9          9          9          9          9          9          9          9          9          9          9          9          9          9          9          9          9          9          9          9          9          9          9          9          9          9          9          9          9          9          9          9          9          9          9          9          9          9          9          9          9          9          9          9          9          9          9          9          9          9          9          9          9          9          9          9          9          9          9          9          9          9          9          9          9          9          9          9          9          9          9          9          9          9          9          9          9          9          9          9          9          9          9          9          9          9          9          9          9          9          9          9          9          9          9          9          9          9          9          9          9          9          9          9          9          9          9          9          9          9          9          9          9          9          9          9          9          9          9          9          9          9          9          9          9          9          9          9          9          9          9          9          9          9          9          9          9          9          9          9          9          9          9          9          9          9          9          9          9          9          9          9          9          9          9          9          9          9          9          9          9          9          9          9          9          9          9          9          9          9          9          9          9          9          9          9          9          9          9          9          9          9          9          9          9          9          9          9          9          9          9          9          9          9          9          9          9          9          9          9          9          9          9          9          9          9          9          9          9          9          9          9          9          9          9          9          9          9          9          9          9          9          9          9          9          9          9          9          9          9          9          9          9          9          9          9          9          9          9          9          9          9          9          9          9          9          9          9          9          9          9          9          9          9          9          9          9          9          9          9          9          9          9          9          9          9          9          9          9          9          9          9          9          9          9          9          9          9          9          9          9          9          9          9          9          9          9          9          9          9          9          9          9          9          9          9          9          9          9          9          9          9          9          9          9          9          9          9          9          9          9          9          9          9          9          9          9          9          9          9          9          9          9          9          9          9          9          9          9          9          9          9          9          9          9          9          9          9          9          9          9          9          9          9          9          9          9          9          9          9          9          9          9          9          9          9          9          9          9          9          9          9          9          9          9          9          9          9          9          9          9          9          9          9          9          9          9          9          9          9          9          9          9          9          9          9          9          9          9          9          9          9          9          9          9          9          9          9          9          9          9          9          9          9          9          9          9          9          9          9          9          9          9          9          9          9          9          9          9          9          9          9          9          9          9          9          9          9          9          9          9          9          9          9          9          9          9          9          9          9          9          9          9          9          9          9          9          9          9          9          9          9          9          9          9          9          9          9          9          9          9          9          9          9          9          9          9          9          9          9          9          9          9          9          9          9          9          9          9          9          9          9          9          9          9          9          9          9          9          9          9          9          9          9          9          9          9          9          9          9          9          9          9          9          9          9          9          9          9          9          9          9          9          9          9          9          9          9          9          9          9          9          9          9          9          9          9          9          9          9          9          9          9          9          9          9          9          9          9          9          9          9          9          9          9          9          9          9          9          9          9          9          9          9          9 </DataArray>
</Cells>
<CellData>
<DataArray type="Int32"                                    Name="material"                                                      NumberOfComponents=" 1" format="ascii">
         1          1          1          1          1          1          1          1          1          1          1          1          1          1          1          1          1          1          1          1          1          1          1          1          1          1          1          1          1          1          1          1          1          1          1          1          1          1          1          1          1          1          1          1          1          1          1          1          1          1          1          1          1          1          1          1          1          1          1          1          1          1          1          1          1          1          1          1          1          1          1          1          1          1          1          1          1          1          1          1          1          1          1          1          1          1          1          1          1          1          1          1          1          1          1          1          1          1          1          1          1          1          1          1          1          1          1          1          1          1          1          1          1          1          1          1          1          1          1          1          1          1          1          1          1          1          1          1          1          1          1          1          1          1          1          1          1          1          1          1          1          1          1          1          1          1          1          1          1          1          1          1          1          1          1          1          1          1          1          1          1          1          1          1          1          1          1          1          1          1          1          1          1          1          1          1          1          1          1          1          1          1          1          1          1          1          1          1          1          1          1          1          1          1          1          1          1          1          1          1          1          1          1          1          1          1          1          1          1          1          1          1          1          1          1          1          1          1          1          1          1          1          1          1          1          1          1          1          1          1          1          1          1          1          1          1          1          1          1          1          1          1          1          1          1          1          1          1          1          1          1          1          1          1          1          1          1          1          1          1          1          1          1          1          1          1          1          1          1          1          1          1          1          1          1          1          1          1          1          1          1          1          1          1          1          1          1          1          1          1          1          1          1          1          1          1          1          1          1          1          1          1          1          1          1          1          1          1          1          1          1          1          1          1          1          1          1          1          1          1          1          1          1          1          1          1          1          1          1          1          1          1          1          1          1          1          1          1          1          1          1          1          1          1          1          1          1          1          1          1          1          1          1          1          1          1          1          1          1          1          1          1          1          1          1          1          1          1          1          1          1          1          1          1          1          1          1          1          1          1          1          1          1          1          1          1          1          1          1          1          1          1          1          1          1          1          1          1          1          1          1          1          1          1          1          1          1          1          1          1          1          1          1          1          1          1          1          1          1          1          1          1          1          1          1          1          1          1          1          1          1          1          1          1          1          1          1          1          1          1          1          1          1          1          1          1          1          1          1          1          1          1          1          1          1          1          1          1          1          1          1          1          1          1          1          1          1          1          1          1          1          1          1          1          1          1          1          1          1          1          1          1          1          1          1          1          1          1          1          1          1          1          1          1          1          1          1          1          1          1          1          1          1          1          1          1          1          1          1          1          1          1          1          1          1          1          1          1          1          1          1          1          1          1          1          1          1          1          1          1          1          1          1          1          1          1          1          1          1          1          1          1          1          1          1          1          1          1          1          1          1          1          1          1          1          1          1          1          1          1          1          1          1          1          1          1          1          1          1          1          1          1          1          1          1          1          1          1          1          1          1          1          1          1          1          1          1          1          1          1          1          1          1          1          1          1          1          1          1          1          1          1          1          1          1          1          1          1          1          1          1          1          1          1          1          1          1          1          1          1          1          1          1          1          1          1          1          1          1          1          1          1          1          1          1          1          1          1          1          1          1          1          1          1          1          1          1          1          1          1          1          1          1          1          1          1          1          1          1          1          1          1          1          1          1          1          1          1          1          1          1          1          1          1          1          1          1          1          1          1          1          1          1          1          1          1          1          1          1          1          1          1          1          1          1          1          1          1          1          1          1          1          1          1          1          1          1          1          1          1          1          1          1          1          1          1          1          1          1          1          1          1          1          1          1          1          1          1          1          1          1          1          1          1          1          1          1          1          1          1          1          1          1          1          1          1          1          1          1          1          1          1          1          1          1          1          1          1          1          1          1          1          1          1          1          1          1          1          1          1          1          1          1          1          1          1          1          1          1          1          1          1          1          1          1          1          1          1          1          1          1          1          1          1          1          1          1          1          1          1          1          1          1          1          1          1          1          1          1          1          1          1          1          1          1          1          1          1          1          1          1          1          1          1          1          1          1          1          1          1          1          1          1          1          1          1          1          1          1          1          1          1          1          1          1          1          1          1          1          1          1          1          1          1          1          1          1          1          1          1          1          1          1          1          1          1          1          1          1          1          1          1          1          1          1          1          1          1          1          1          1          1          1          1          1          1          1          1          1          1          1          1          1          1          1          1          1          1          1          1          1          1          1          1          1          1          1          1          1          1          1          1          1          1          1          1          1          1          1          1          1          1          1          1          1          1          1          1          1          1          1          1          1          1          1          1          1          1          1          1          1          1          1          1          1          1          1          1          1          1          1          1          1          1          1          1          1          1          1          1          1          1          1          1          1          1          1          1          1          1          1          1          1          1          1          1          1          1          1          1          1          1          1          1          1          1          1          1          1          1          1          1          1          1          1          1          1          1          1          1          1          1          1          1          1          1          1          1          1          1          1          1          1          1          1          1          1          1          1          1          1          1          1          1 </DataArray>
</CellData>
<PointData>
<DataArray type="Float64"                                    Name="u"                                                      NumberOfComponents=" 3" format="ascii">
             -0.000781546               0.000000000               0.999999984              -0.000833245              -0.000000000               0.999999984              -0.000855748              -0.000000000               0.999999984              -0.000868301              -0.000000000               0.999999984              -0.000878043               0.000000000               0.999999984              -0.000887603              -0.000000000               0.999999984              -0.000897969               0.000000000               0.999999984              -0.000909537               0.000000000               0.999999984              -0.000922333              -0.000000000               0.999999984              -0.000936143               0.000000000               0.999999984              -0.000950736              -0.000000000               0.999999984              -0.000965781              -0.000000000               0.999999984              -0.000980977               0.000000000               0.999999984              -0.000995954              -0.000000000               0.999999984              -0.001009968              -0.000000000               0.999999984              -0.001022201              -0.000000000               0.999999984              -0.001031781               0.000000000               0.999999984              -0.000777136               0.000133940               0.999999984              -0.000824872               0.000108277               0.999999984              -0.000844851               0.000096853               0.999999984              -0.000855832               0.000092211               0.999999984              -0.000864520               0.000091279               0.999999984              -0.000873355               0.000092034               0.999999984              -0.000883264               0.000093987               0.999999984              -0.000894331               0.000096359               0.999999984              -0.000906502               0.000098600               0.999999984              -0.000919569               0.000100447               0.999999984              -0.000933187               0.000101564               0.999999984              -0.000947071               0.000101607               0.999999984              -0.000960779               0.000100158               0.999999984              -0.000973764               0.000096352               0.999999984              -0.000985505               0.000089560               0.999999984              -0.000995350               0.000079076               0.999999984              -0.001002603               0.000064133               0.999999984              -0.000764236               0.000266535               0.999999984              -0.000800356               0.000216046               0.999999984              -0.000813191               0.000194343               0.999999984              -0.000819822               0.000186264               0.999999984              -0.000825806               0.000185097               0.999999984              -0.000832663               0.000187438               0.999999984              -0.000840931               0.000191607               0.999999984              -0.000850510               0.000196569               0.999999984              -0.000861148               0.000201167               0.999999984              -0.000872341               0.000204728               0.999999984              -0.000883460               0.000206633               0.999999984              -0.000893903               0.000206198               0.999999984              -0.000903203               0.000202708               0.999999984              -0.000910997               0.000195042               0.999999984              -0.000916800               0.000182129               0.999999984              -0.000920382               0.000163123               0.999999984              -0.000921471               0.000136764               0.999999984              -0.000743091               0.000396543               0.999999984              -0.000760956               0.000322837               0.999999984              -0.000763704               0.000293024               0.999999984              -0.000764589               0.000283215               0.999999984              -0.000766997               0.000283165               0.999999984              -0.000771446               0.000287750               0.999999984              -0.000777681               0.000294725               0.999999984              -0.000785214               0.000302478               0.999999984              -0.000793238               0.000309356               0.999999984              -0.000800907               0.000314304               0.999999984              -0.000807484               0.000316302               0.999999984              -0.000812244               0.000314747               0.999999984              -0.000814720               0.000308890               0.999999984              -0.000814762               0.000297654               0.999999984              -0.000812249               0.000280221               0.999999984              -0.000807228               0.000255854               0.999999984              -0.000799978               0.000223696               0.999999984              -0.000714129               0.000522757               0.999999984              -0.000708813               0.000428402               0.999999984              -0.000700241               0.000393299               0.999999984              -0.000695400               0.000383585               0.999999984              -0.000694653               0.000385733               0.999999984              -0.000696879               0.000393188               0.999999984              -0.000700945               0.000403306               0.999999984              -0.000705813               0.000413716               0.999999984              -0.000710282               0.000422404               0.999999984              -0.000713264               0.000428003               0.999999984              -0.000713905               0.000429522               0.999999984              -0.000711672               0.000426270               0.999999984              -0.000706329               0.000417826               0.999999984              -0.000697847               0.000403650               0.999999984              -0.000686403               0.000383367               0.999999984              -0.000672541               0.000356832               0.999999984              -0.000656974               0.000324514               0.999999984              -0.000678021               0.000643943               0.999999984              -0.000646521               0.000532751               0.999999984              -0.000627306               0.000495150               0.999999984              -0.000618157               0.000487056               0.999999984              -0.000615310               0.000491976               0.999999984              -0.000615927               0.000502559               0.999999984              -0.000618207               0.000515480               0.999999984              -0.000620275               0.000527884               0.999999984              -0.000620571               0.000537521               0.999999984              -0.000617981               0.000543092               0.999999984              -0.000611834               0.000543626               0.999999984              -0.000601872               0.000538707               0.999999984              -0.000588225               0.000528129               0.999999984              -0.000571122               0.000511902               0.999999984              -0.000551088               0.000490397               0.999999984              -0.000528872               0.000464153               0.999999984              -0.000505196               0.000434408               0.999999984              -0.000635406               0.000758948               0.999999984              -0.000577230               0.000635787               0.999999984              -0.000549842               0.000597895               0.999999984              -0.000538449               0.000592284               0.999999984              -0.000535023               0.000600060               0.999999984              -0.000535069               0.000613282               0.999999984              -0.000535736               0.000628389               0.999999984              -0.000534706               0.000641942               0.999999984              -0.000530201               0.000651791               0.999999984              -0.000521326               0.000656776               0.999999984              -0.000507627               0.000656234               0.999999984              -0.000489333               0.000649980               0.999999984              -0.000466859               0.000638012               0.999999984              -0.000440785               0.000620956               0.999999984              -0.000411808               0.000599772               0.999999984              -0.000380782               0.000575411               0.999999984              -0.000348470               0.000549088               0.999999984              -0.000586980               0.000866726               0.999999984              -0.000504151               0.000737258               0.999999984              -0.000472035               0.000700613               0.999999984              -0.000461087               0.000697352               0.999999984              -0.000458514               0.000707508               0.999999984              -0.000458367               0.000722916               0.999999984              -0.000457291               0.000739585               0.999999984              -0.000452668               0.000753655               0.999999984              -0.000442600               0.000763157               0.999999984              -0.000426458               0.000767386               0.999999984              -0.000404414               0.000765759               0.999999984              -0.000376983               0.000758412               0.999999984              -0.000344787               0.000745953               0.999999984              -0.000308790               0.000729234               0.999999984              -0.000270003               0.000709542               0.999999984              -0.000229543               0.000687994               0.999999984              -0.000188252               0.000665388               0.999999984              -0.000534412               0.000965333               0.999999984              -0.000429722               0.000837065               0.999999984              -0.000397909               0.000801878               0.999999984              -0.000389379               0.000800264               0.999999984              -0.000388318               0.000812239               0.999999984              -0.000388121               0.000829432               0.999999984              -0.000384965               0.000847035               0.999999984              -0.000375686               0.000861293               0.999999984              -0.000358836               0.000870344               0.999999984              -0.000334357               0.000873651               0.999999984              -0.000302826               0.000871051               0.999999984              -0.000264957               0.000863076               0.999999984              -0.000221926               0.000850815               0.999999984              -0.000175168               0.000835463               0.999999984              -0.000126261               0.000818327               0.999999984              -0.000076446               0.000800340               0.999999984              -0.000026428               0.000782090               0.999999984              -0.000480089               0.001058363               0.999999984              -0.000367593               0.000948156               0.999999984              -0.000332754               0.000908728               0.999999984              -0.000323167               0.000901720               0.999999984              -0.000321833               0.000909280               0.999999984              -0.000322079               0.000923804               0.999999984              -0.000320366               0.000940858               0.999999984              -0.000314199               0.000957148               0.999999984              -0.000301436               0.000970290               0.999999984              -0.000281487               0.000979286               0.999999984              -0.000254533               0.000983806               0.999999984              -0.000220906               0.000983941               0.999999984              -0.000181267               0.000980068               0.999999984              -0.000136616               0.000973317               0.999999984              -0.000088404               0.000964438               0.999999984              -0.000038370               0.000954506               0.999999984               0.000012281               0.000943970               0.999999984              -0.000420546               0.001142934               0.999999984              -0.000308307               0.001055537               0.999999984              -0.000270572               0.001018289               0.999999984              -0.000259315               0.001008238               0.999999984              -0.000257088               0.001012822               0.999999984              -0.000257097               0.001025253               0.999999984              -0.000256103               0.001041649               0.999999984              -0.000252006               0.001059250               0.999999984              -0.000242785               0.001075717               0.999999984              -0.000227055               0.001089581               0.999999984              -0.000204677               0.001100168               0.999999984              -0.000175532               0.001107320               0.999999984              -0.000140088               0.001111033               0.999999984              -0.000098599               0.001111911               0.999999984              -0.000052042               0.001110694               0.999999984              -0.000002191               0.001108176               0.999999984               0.000049328               0.001105013               0.999999984              -0.000356962               0.001217116               0.999999984              -0.000251807               0.001155964               0.999999984              -0.000213064               0.001125531               0.999999984              -0.000200017               0.001115952               0.999999984              -0.000196424               0.001119487               0.999999984              -0.000195718               0.001130984               0.999999984              -0.000194731               0.001147263               0.999999984              -0.000191766               0.001165903               0.999999984              -0.000185159               0.001185092               0.999999984              -0.000173369               0.001203138               0.999999984              -0.000155446               0.001219126               0.999999984              -0.000131233               0.001232566               0.999999984              -0.000100468               0.001243352               0.999999984              -0.000063080               0.001251503               0.999999984              -0.000019250               0.001257477               0.999999984               0.000029817               0.001262009               0.999999984               0.000082479               0.001265802               0.999999984              -0.000289943               0.001279633               0.999999984              -0.000198032               0.001245391               0.999999984              -0.000161077               0.001225059               0.999999984              -0.000147038               0.001219088               0.999999984              -0.000142222               0.001223758               0.999999984              -0.000140571               0.001235775               0.999999984              -0.000139261               0.001252782               0.999999984              -0.000136798               0.001272916               0.999999984              -0.000131951               0.001294665               0.999999984              -0.000123254               0.001316641               0.999999984              -0.000109484               0.001337738               0.999999984              -0.000090263               0.001357273               0.999999984              -0.000064804               0.001374831               0.999999984              -0.000032414               0.001390182               0.999999984               0.000007117               0.001403376               0.999999984               0.000053768               0.001414792               0.999999984               0.000106847               0.001425288               0.999999984              -0.000220081               0.001329390               0.999999984              -0.000146593               0.001319845               0.999999984              -0.000114711               0.001311068               0.999999984              -0.000101415               0.001310536               0.999999984              -0.000096150               0.001318062               0.999999984              -0.000093706               0.001332035               0.999999984              -0.000092082               0.001350776               0.999999984              -0.000089956               0.001373027               0.999999984              -0.000086307               0.001397554               0.999999984              -0.000079947               0.001423227               0.999999984              -0.000070015               0.001449134               0.999999984              -0.000055667               0.001474524               0.999999984              -0.000035886               0.001498865               0.999999984              -0.000009836               0.001521648               0.999999984               0.000023467               0.001542546               0.999999984               0.000064965               0.001561465               0.999999984               0.000115486               0.001578831               0.999999984              -0.000147971               0.001365608               0.999999984              -0.000096888               0.001375772               0.999999984              -0.000073375               0.001377681               0.999999984              -0.000062824               0.001383060               0.999999984              -0.000058199               0.001394236               0.999999984              -0.000055933               0.001410798               0.999999984              -0.000054277               0.001431830               0.999999984              -0.000052472               0.001456468               0.999999984              -0.000049865               0.001483810               0.999999984              -0.000045710               0.001512935               0.999999984              -0.000039126               0.001543137               0.999999984              -0.000029421               0.001573807               0.999999984              -0.000015859               0.001604282               0.999999984               0.000002555               0.001634155               0.999999984               0.000027028               0.001662747               0.999999984               0.000059091               0.001689474               0.999999984               0.000100586               0.001714041               0.999999984              -0.000074354               0.001387608               0.999999984              -0.000048234               0.001410454               0.999999984              -0.000035720               0.001419940               0.999999984              -0.000029843               0.001429891               0.999999984              -0.000027137               0.001444052               0.999999984              -0.000025753               0.001462931               0.999999984              -0.000024712               0.001485960               0.999999984              -0.000023501               0.001512498               0.999999984              -0.000022148               0.001541960               0.999999984              -0.000020154               0.001573626               0.999999984              -0.000016874               0.001606918               0.999999984              -0.000011956               0.001641290               0.999999984              -0.000005013               0.001676262               0.999999984               0.000004648               0.001711350               0.999999984               0.000017796               0.001745714               0.999999984               0.000035436               0.001778646               0.999999984               0.000059164               0.001809093               0.999999984              -0.000000000               0.001394972               0.999999984               0.000000000               0.001422232               0.999999984              -0.000000000               0.001434491               0.999999984              -0.000000000               0.001446134               0.999999984               0.000000000               0.001461458               0.999999984               0.000000000               0.001481236               0.999999984               0.000000000               0.001505130               0.999999984               0.000000000               0.001532433               0.999999984               0.000000000               0.001562540               0.999999984               0.000000000               0.001595046               0.999999984               0.000000000               0.001629469               0.999999984              -0.000000000               0.001665264               0.999999984              -0.000000000               0.001701862               0.999999984               0.000000000               0.001738858               0.999999984              -0.000000000               0.001775326               0.999999984              -0.000000000               0.001810398               0.999999984              -0.000000000               0.001843035               0.999999984              -0.000781546               0.000000000               0.999999984              -0.000833245              -0.000000000               0.999999984              -0.000855748              -0.000000000               0.999999984              -0.000868301              -0.000000000               0.999999984              -0.000878043               0.000000000               0.999999984              -0.000887603              -0.000000000               0.999999984              -0.000897969               0.000000000               0.999999984              -0.000909537               0.000000000               0.999999984              -0.000922333              -0.000000000               0.999999984              -0.000936143               0.000000000               0.999999984              -0.000950736              -0.000000000               0.999999984              -0.000965781              -0.000000000               0.999999984              -0.000980977               0.000000000               0.999999984              -0.000995954              -0.000000000               0.999999984              -0.001009968              -0.000000000               0.999999984              -0.001022201              -0.000000000               0.999999984              -0.001031781               0.000000000               0.999999984              -0.000777136              -0.000133940               0.999999984              -0.000824872              -0.000108277               0.999999984              -0.000844851              -0.000096853               0.999999984              -0.000855832              -0.000092211               0.999999984              -0.000864520              -0.000091279               0.999999984              -0.000873355              -0.000092034               0.999999984              -0.000883264              -0.000093987               0.999999984              -0.000894331              -0.000096359               0.999999984              -0.000906502              -0.000098600               0.999999984              -0.000919569              -0.000100447               0.999999984              -0.000933187              -0.000101564               0.999999984              -0.000947071              -0.000101607               0.999999984              -0.000960779              -0.000100158               0.999999984              -0.000973764              -0.000096352               0.999999984              -0.000985505              -0.000089560               0.999999984              -0.000995350              -0.000079076               0.999999984              -0.001002603              -0.000064133               0.999999984              -0.000764236              -0.000266535               0.999999984              -0.000800356              -0.000216046               0.999999984              -0.000813191              -0.000194343               0.999999984              -0.000819822              -0.000186264               0.999999984              -0.000825806              -0.000185097               0.999999984              -0.000832663              -0.000187438               0.999999984              -0.000840931              -0.000191607               0.999999984              -0.000850510              -0.000196569               0.999999984              -0.000861148              -0.000201167               0.999999984              -0.000872341              -0.000204728               0.999999984              -0.000883460              -0.000206633               0.999999984              -0.000893903              -0.000206198               0.999999984              -0.000903203              -0.000202708               0.999999984              -0.000910997              -0.000195042               0.999999984              -0.000916800              -0.000182129               0.999999984              -0.000920382              -0.000163123               0.999999984              -0.000921471              -0.000136764               0.999999984              -0.000743091              -0.000396543               0.999999984              -0.000760956              -0.000322837               0.999999984              -0.000763704              -0.000293024               0.999999984              -0.000764589              -0.000283215               0.999999984              -0.000766997              -0.000283165               0.999999984              -0.000771446              -0.000287750               0.999999984              -0.000777681              -0.000294725               0.999999984              -0.000785214              -0.000302478               0.999999984              -0.000793238              -0.000309356               0.999999984              -0.000800907              -0.000314304               0.999999984              -0.000807484              -0.000316302               0.999999984              -0.000812244              -0.000314747               0.999999984              -0.000814720              -0.000308890               0.999999984              -0.000814762              -0.000297654               0.999999984              -0.000812249              -0.000280221               0.999999984              -0.000807228              -0.000255854               0.999999984              -0.000799978              -0.000223696               0.999999984              -0.000714129              -0.000522757               0.999999984              -0.000708813              -0.000428402               0.999999984              -0.000700241              -0.000393299               0.999999984              -0.000695400              -0.000383585               0.999999984              -0.000694653              -0.000385733               0.999999984              -0.000696879              -0.000393188               0.999999984              -0.000700945              -0.000403306               0.999999984              -0.000705813              -0.000413716               0.999999984              -0.000710282              -0.000422404               0.999999984              -0.000713264              -0.000428003               0.999999984              -0.000713905              -0.000429522               0.999999984              -0.000711672              -0.000426270               0.999999984              -0.000706329              -0.000417826               0.999999984              -0.000697847              -0.000403650               0.999999984              -0.000686403              -0.000383367               0.999999984              -0.000672541              -0.000356832               0.999999984              -0.000656974              -0.000324514               0.999999984              -0.000678021              -0.000643943               0.999999984              -0.000646521              -0.000532751               0.999999984              -0.000627306              -0.000495150               0.999999984              -0.000618157              -0.000487056               0.999999984              -0.000615310              -0.000491976               0.999999984              -0.000615927              -0.000502559               0.999999984              -0.000618207              -0.000515480               0.999999984              -0.000620275              -0.000527884               0.999999984              -0.000620571              -0.000537521               0.999999984              -0.000617981              -0.000543092               0.999999984              -0.000611834              -0.000543626               0.999999984              -0.000601872              -0.000538707               0.999999984              -0.000588225              -0.000528129               0.999999984              -0.000571122              -0.000511902               0.999999984              -0.000551088              -0.000490397               0.999999984              -0.000528872              -0.000464153               0.999999984              -0.000505196              -0.000434408               0.999999984              -0.000635406              -0.000758948               0.999999984              -0.000577230              -0.000635787               0.999999984              -0.000549842              -0.000597895               0.999999984              -0.000538449              -0.000592284               0.999999984              -0.000535023              -0.000600060               0.999999984              -0.000535069              -0.000613282               0.999999984              -0.000535736              -0.000628389               0.999999984              -0.000534706              -0.000641942               0.999999984              -0.000530201              -0.000651791               0.999999984              -0.000521326              -0.000656776               0.999999984              -0.000507627              -0.000656234               0.999999984              -0.000489333              -0.000649980               0.999999984              -0.000466859              -0.000638012               0.999999984              -0.000440785              -0.000620956               0.999999984              -0.000411808              -0.000599772               0.999999984              -0.000380782              -0.000575411               0.999999984              -0.000348470              -0.000549088               0.999999984              -0.000586980              -0.000866726               0.999999984              -0.000504151              -0.000737258               0.999999984              -0.000472035              -0.000700613               0.999999984              -0.000461087              -0.000697352               0.999999984              -0.000458514              -0.000707508               0.999999984              -0.000458367              -0.000722916               0.999999984              -0.000457291              -0.000739585               0.999999984              -0.000452668              -0.000753655               0.999999984              -0.000442600              -0.000763157               0.999999984              -0.000426458              -0.000767386               0.999999984              -0.000404414              -0.000765759               0.999999984              -0.000376983              -0.000758412               0.999999984              -0.000344787              -0.000745953               0.999999984              -0.000308790              -0.000729234               0.999999984              -0.000270003              -0.000709542               0.999999984              -0.000229543              -0.000687994               0.999999984              -0.000188252              -0.000665388               0.999999984              -0.000534412              -0.000965333               0.999999984              -0.000429722              -0.000837065               0.999999984              -0.000397909              -0.000801878               0.999999984              -0.000389379              -0.000800264               0.999999984              -0.000388318              -0.000812239               0.999999984              -0.000388121              -0.000829432               0.999999984              -0.000384965              -0.000847035               0.999999984              -0.000375686              -0.000861293               0.999999984              -0.000358836              -0.000870344               0.999999984              -0.000334357              -0.000873651               0.999999984              -0.000302826              -0.000871051               0.999999984              -0.000264957              -0.000863076               0.999999984              -0.000221926              -0.000850815               0.999999984              -0.000175168              -0.000835463               0.999999984              -0.000126261              -0.000818327               0.999999984              -0.000076446              -0.000800340               0.999999984              -0.000026428              -0.000782090               0.999999984              -0.000480089              -0.001058363               0.999999984              -0.000367593              -0.000948156               0.999999984              -0.000332754              -0.000908728               0.999999984              -0.000323167              -0.000901720               0.999999984              -0.000321833              -0.000909280               0.999999984              -0.000322079              -0.000923804               0.999999984              -0.000320366              -0.000940858               0.999999984              -0.000314199              -0.000957148               0.999999984              -0.000301436              -0.000970290               0.999999984              -0.000281487              -0.000979286               0.999999984              -0.000254533              -0.000983806               0.999999984              -0.000220906              -0.000983941               0.999999984              -0.000181267              -0.000980068               0.999999984              -0.000136616              -0.000973317               0.999999984              -0.000088404              -0.000964438               0.999999984              -0.000038370              -0.000954506               0.999999984               0.000012281              -0.000943970               0.999999984              -0.000420546              -0.001142934               0.999999984              -0.000308307              -0.001055537               0.999999984              -0.000270572              -0.001018289               0.999999984              -0.000259315              -0.001008238               0.999999984              -0.000257088              -0.001012822               0.999999984              -0.000257097              -0.001025253               0.999999984              -0.000256103              -0.001041649               0.999999984              -0.000252006              -0.001059250               0.999999984              -0.000242785              -0.001075717               0.999999984              -0.000227055              -0.001089581               0.999999984              -0.000204677              -0.001100168               0.999999984              -0.000175532              -0.001107320               0.999999984              -0.000140088              -0.001111033               0.999999984              -0.000098599              -0.001111911               0.999999984              -0.000052042              -0.001110694               0.999999984              -0.000002191              -0.001108176               0.999999984               0.000049328              -0.001105013               0.999999984              -0.000356962              -0.001217116               0.999999984              -0.000251807              -0.001155964               0.999999984              -0.000213064              -0.001125531               0.999999984              -0.000200017              -0.001115952               0.999999984              -0.000196424              -0.001119487               0.999999984              -0.000195718              -0.001130984               0.999999984              -0.000194731              -0.001147263               0.999999984              -0.000191766              -0.001165903               0.999999984              -0.000185159              -0.001185092               0.999999984              -0.000173369              -0.001203138               0.999999984              -0.000155446              -0.001219126               0.999999984              -0.000131233              -0.001232566               0.999999984              -0.000100468              -0.001243352               0.999999984              -0.000063080              -0.001251503               0.999999984              -0.000019250              -0.001257477               0.999999984               0.000029817              -0.001262009               0.999999984               0.000082479              -0.001265802               0.999999984              -0.000289943              -0.001279633               0.999999984              -0.000198032              -0.001245391               0.999999984              -0.000161077              -0.001225059               0.999999984              -0.000147038              -0.001219088               0.999999984              -0.000142222              -0.001223758               0.999999984              -0.000140571              -0.001235775               0.999999984              -0.000139261              -0.001252782               0.999999984              -0.000136798              -0.001272916               0.999999984              -0.000131951              -0.001294665               0.999999984              -0.000123254              -0.001316641               0.999999984              -0.000109484              -0.001337738               0.999999984              -0.000090263              -0.001357273               0.999999984              -0.000064804              -0.001374831               0.999999984              -0.000032414              -0.001390182               0.999999984               0.000007117              -0.001403376               0.999999984               0.000053768              -0.001414792               0.999999984               0.000106847              -0.001425288               0.999999984              -0.000220081              -0.001329390               0.999999984              -0.000146593              -0.001319845               0.999999984              -0.000114711              -0.001311068               0.999999984              -0.000101415              -0.001310536               0.999999984              -0.000096150              -0.001318062               0.999999984              -0.000093706              -0.001332035               0.999999984              -0.000092082              -0.001350776               0.999999984              -0.000089956              -0.001373027               0.999999984              -0.000086307              -0.001397554               0.999999984              -0.000079947              -0.001423227               0.999999984              -0.000070015              -0.001449134               0.999999984              -0.000055667              -0.001474524               0.999999984              -0.000035886              -0.001498865               0.999999984              -0.000009836              -0.001521648               0.999999984               0.000023467              -0.001542546               0.999999984               0.000064965              -0.001561465               0.999999984               0.000115486              -0.001578831               0.999999984              -0.000147971              -0.001365608               0.999999984              -0.000096888              -0.001375772               0.999999984              -0.000073375              -0.001377681               0.999999984              -0.000062824              -0.001383060               0.999999984              -0.000058199              -0.001394236               0.999999984              -0.000055933              -0.001410798               0.999999984              -0.000054277              -0.001431830               0.999999984              -0.000052472              -0.001456468               0.999999984              -0.000049865              -0.001483810               0.999999984              -0.000045710              -0.001512935               0.999999984              -0.000039126              -0.001543137               0.999999984              -0.000029421              -0.001573807               0.999999984              -0.000015859              -0.001604282               0.999999984               0.000002555              -0.001634155               0.999999984               0.000027028              -0.001662747               0.999999984               0.000059091              -0.001689474               0.999999984               0.000100586              -0.001714041               0.999999984              -0.000074354              -0.001387608               0.999999984              -0.000048234              -0.001410454               0.999999984              -0.000035720              -0.001419940               0.999999984              -0.000029843              -0.001429891               0.999999984              -0.000027137              -0.001444052               0.999999984              -0.000025753              -0.001462931               0.999999984              -0.000024712              -0.001485960               0.999999984              -0.000023501              -0.001512498               0.999999984              -0.000022148              -0.001541960               0.999999984              -0.000020154              -0.001573626               0.999999984              -0.000016874              -0.001606918               0.999999984              -0.000011956              -0.001641290               0.999999984              -0.000005013              -0.001676262               0.999999984               0.000004648              -0.001711350               0.999999984               0.000017796              -0.001745714               0.999999984               0.000035436              -0.001778646               0.999999984               0.000059164              -0.001809093               0.999999984              -0.000000000              -0.001394972               0.999999984              -0.000000000              -0.001422232               0.999999984               0.000000000              -0.001434491               0.999999984              -0.000000000              -0.001446134               0.999999984              -0.000000000              -0.001461458               0.999999984              -0.000000000              -0.001481236               0.999999984               0.000000000              -0.001505130               0.999999984              -0.000000000              -0.001532433               0.999999984              -0.000000000              -0.001562540               0.999999984              -0.000000000              -0.001595046               0.999999984              -0.000000000              -0.001629469               0.999999984               0.000000000              -0.001665264               0.999999984              -0.000000000              -0.001701862               0.999999984              -0.000000000              -0.001738858               0.999999984              -0.000000000              -0.001775326               0.999999984               0.000000000              -0.001810398               0.999999984              -0.000000000              -0.001843035               0.999999984               0.000781546              -0.000000000               0.999999984               0.000833245              -0.000000000               0.999999984               0.000855748               0.000000000               0.999999984               0.000868301               0.000000000               0.999999984               0.000878043               0.000000000               0.999999984               0.000887603               0.000000000               0.999999984               0.000897969               0.000000000               0.999999984               0.000909537              -0.000000000               0.999999984               0.000922333               0.000000000               0.999999984               0.000936143              -0.000000000               0.999999984               0.000950736              -0.000000000               0.999999984               0.000965781               0.000000000               0.999999984               0.000980977               0.000000000               0.999999984               0.000995954               0.000000000               0.999999984               0.001009968              -0.000000000               0.999999984               0.001022201              -0.000000000               0.999999984               0.001031781              -0.000000000               0.999999984               0.000777136              -0.000133940               0.999999984               0.000824872              -0.000108277               0.999999984               0.000844851              -0.000096853               0.999999984               0.000855832              -0.000092211               0.999999984               0.000864520              -0.000091279               0.999999984               0.000873355              -0.000092034               0.999999984               0.000883264              -0.000093987               0.999999984               0.000894331              -0.000096359               0.999999984               0.000906502              -0.000098600               0.999999984               0.000919569              -0.000100447               0.999999984               0.000933187              -0.000101564               0.999999984               0.000947071              -0.000101607               0.999999984               0.000960779              -0.000100158               0.999999984               0.000973764              -0.000096352               0.999999984               0.000985505              -0.000089560               0.999999984               0.000995350              -0.000079076               0.999999984               0.001002603              -0.000064133               0.999999984               0.000764236              -0.000266535               0.999999984               0.000800356              -0.000216046               0.999999984               0.000813191              -0.000194343               0.999999984               0.000819822              -0.000186264               0.999999984               0.000825806              -0.000185097               0.999999984               0.000832663              -0.000187438               0.999999984               0.000840931              -0.000191607               0.999999984               0.000850510              -0.000196569               0.999999984               0.000861148              -0.000201167               0.999999984               0.000872341              -0.000204728               0.999999984               0.000883460              -0.000206633               0.999999984               0.000893903              -0.000206198               0.999999984               0.000903203              -0.000202708               0.999999984               0.000910997              -0.000195042               0.999999984               0.000916800              -0.000182129               0.999999984               0.000920382              -0.000163123               0.999999984               0.000921471              -0.000136764               0.999999984               0.000743091              -0.000396543               0.999999984               0.000760956              -0.000322837               0.999999984               0.000763704              -0.000293024               0.999999984               0.000764589              -0.000283215               0.999999984               0.000766997              -0.000283165               0.999999984               0.000771446              -0.000287750               0.999999984               0.000777681              -0.000294725               0.999999984               0.000785214              -0.000302478               0.999999984               0.000793238              -0.000309356               0.999999984               0.000800907              -0.000314304               0.999999984               0.000807484              -0.000316302               0.999999984               0.000812244              -0.000314747               0.999999984               0.000814720              -0.000308890               0.999999984               0.000814762              -0.000297654               0.999999984               0.000812249              -0.000280221               0.999999984               0.000807228              -0.000255854               0.999999984               0.000799978              -0.000223696               0.999999984               0.000714129              -0.000522757               0.999999984               0.000708813              -0.000428402               0.999999984               0.000700241              -0.000393299               0.999999984               0.000695400              -0.000383585               0.999999984               0.000694653              -0.000385733               0.999999984               0.000696879              -0.000393188               0.999999984               0.000700945              -0.000403306               0.999999984               0.000705813              -0.000413716               0.999999984               0.000710282              -0.000422404               0.999999984               0.000713264              -0.000428003               0.999999984               0.000713905              -0.000429522               0.999999984               0.000711672              -0.000426270               0.999999984               0.000706329              -0.000417826               0.999999984               0.000697847              -0.000403650               0.999999984               0.000686403              -0.000383367               0.999999984               0.000672541              -0.000356832               0.999999984               0.000656974              -0.000324514               0.999999984               0.000678021              -0.000643943               0.999999984               0.000646521              -0.000532751               0.999999984               0.000627306              -0.000495150               0.999999984               0.000618157              -0.000487056               0.999999984               0.000615310              -0.000491976               0.999999984               0.000615927              -0.000502559               0.999999984               0.000618207              -0.000515480               0.999999984               0.000620275              -0.000527884               0.999999984               0.000620571              -0.000537521               0.999999984               0.000617981              -0.000543092               0.999999984               0.000611834              -0.000543626               0.999999984               0.000601872              -0.000538707               0.999999984               0.000588225              -0.000528129               0.999999984               0.000571122              -0.000511902               0.999999984               0.000551088              -0.000490397               0.999999984               0.000528872              -0.000464153               0.999999984               0.000505196              -0.000434408               0.999999984               0.000635406              -0.000758948               0.999999984               0.000577230              -0.000635787               0.999999984               0.000549842              -0.000597895               0.999999984               0.000538449              -0.000592284               0.999999984               0.000535023              -0.000600060               0.999999984               0.000535069              -0.000613282               0.999999984               0.000535736              -0.000628389               0.999999984               0.000534706              -0.000641942               0.999999984               0.000530201              -0.000651791               0.999999984               0.000521326              -0.000656776               0.999999984               0.000507627              -0.000656234               0.999999984               0.000489333              -0.000649980               0.999999984               0.000466859              -0.000638012               0.999999984               0.000440785              -0.000620956               0.999999984               0.000411808              -0.000599772               0.999999984               0.000380782              -0.000575411               0.999999984               0.000348470              -0.000549088               0.999999984               0.000586980              -0.000866726               0.999999984               0.000504151              -0.000737258               0.999999984               0.000472035              -0.000700613               0.999999984               0.000461087              -0.000697352               0.999999984               0.000458514              -0.000707508               0.999999984               0.000458367              -0.000722916               0.999999984               0.000457291              -0.000739585               0.999999984               0.000452668              -0.000753655               0.999999984               0.000442600              -0.000763157               0.999999984               0.000426458              -0.000767386               0.999999984               0.000404414              -0.000765759               0.999999984               0.000376983              -0.000758412               0.999999984               0.000344787              -0.000745953               0.999999984               0.000308790              -0.000729234               0.999999984               0.000270003              -0.000709542               0.999999984               0.000229543              -0.000687994               0.999999984               0.000188252              -0.000665388               0.999999984               0.000534412              -0.000965333               0.999999984               0.000429722              -0.000837065               0.999999984               0.000397909              -0.000801878               0.999999984               0.000389379              -0.000800264               0.999999984               0.000388318              -0.000812239               0.999999984               0.000388121              -0.000829432               0.999999984               0.000384965              -0.000847035               0.999999984               0.000375686              -0.000861293               0.999999984               0.000358836              -0.000870344               0.999999984               0.000334357              -0.000873651               0.999999984               0.000302826              -0.000871051               0.999999984               0.000264957              -0.000863076               0.999999984               0.000221926              -0.000850815               0.999999984               0.000175168              -0.000835463               0.999999984               0.000126261              -0.000818327               0.999999984               0.000076446              -0.000800340               0.999999984               0.000026428              -0.000782090               0.999999984               0.000480089              -0.001058363               0.999999984               0.000367593              -0.000948156               0.999999984               0.000332754              -0.000908728               0.999999984               0.000323167              -0.000901720               0.999999984               0.000321833              -0.000909280               0.999999984               0.000322079              -0.000923804               0.999999984               0.000320366              -0.000940858               0.999999984               0.000314199              -0.000957148               0.999999984               0.000301436              -0.000970290               0.999999984               0.000281487              -0.000979286               0.999999984               0.000254533              -0.000983806               0.999999984               0.000220906              -0.000983941               0.999999984               0.000181267              -0.000980068               0.999999984               0.000136616              -0.000973317               0.999999984               0.000088404              -0.000964438               0.999999984               0.000038370              -0.000954506               0.999999984              -0.000012281              -0.000943970               0.999999984               0.000420546              -0.001142934               0.999999984               0.000308307              -0.001055537               0.999999984               0.000270572              -0.001018289               0.999999984               0.000259315              -0.001008238               0.999999984               0.000257088              -0.001012822               0.999999984               0.000257097              -0.001025253               0.999999984               0.000256103              -0.001041649               0.999999984               0.000252006              -0.001059250               0.999999984               0.000242785              -0.001075717               0.999999984               0.000227055              -0.001089581               0.999999984               0.000204677              -0.001100168               0.999999984               0.000175532              -0.001107320               0.999999984               0.000140088              -0.001111033               0.999999984               0.000098599              -0.001111911               0.999999984               0.000052042              -0.001110694               0.999999984               0.000002191              -0.001108176               0.999999984              -0.000049328              -0.001105013               0.999999984               0.000356962              -0.001217116               0.999999984               0.000251807              -0.001155964               0.999999984               0.000213064              -0.001125531               0.999999984               0.000200017              -0.001115952               0.999999984               0.000196424              -0.001119487               0.999999984               0.000195718              -0.001130984               0.999999984               0.000194731              -0.001147263               0.999999984               0.000191766              -0.001165903               0.999999984               0.000185159              -0.001185092               0.999999984               0.000173369              -0.001203138               0.999999984               0.000155446              -0.001219126               0.999999984               0.000131233              -0.001232566               0.999999984               0.000100468              -0.001243352               0.999999984               0.000063080              -0.001251503               0.999999984               0.000019250              -0.001257477               0.999999984              -0.000029817              -0.001262009               0.999999984              -0.000082479              -0.001265802               0.999999984               0.000289943              -0.001279633               0.999999984               0.000198032              -0.001245391               0.999999984               0.000161077              -0.001225059               0.999999984               0.000147038              -0.001219088               0.999999984               0.000142222              -0.001223758               0.999999984               0.000140571              -0.001235775               0.999999984               0.000139261              -0.001252782               0.999999984               0.000136798              -0.001272916               0.999999984               0.000131951              -0.001294665               0.999999984               0.000123254              -0.001316641               0.999999984               0.000109484              -0.001337738               0.999999984               0.000090263              -0.001357273               0.999999984               0.000064804              -0.001374831               0.999999984               0.000032414              -0.001390182               0.999999984              -0.000007117              -0.001403376               0.999999984              -0.000053768              -0.001414792               0.999999984              -0.000106847              -0.001425288               0.999999984               0.000220081              -0.001329390               0.999999984               0.000146593              -0.001319845               0.999999984               0.000114711              -0.001311068               0.999999984               0.000101415              -0.001310536               0.999999984               0.000096150              -0.001318062               0.999999984               0.000093706              -0.001332035               0.999999984               0.000092082              -0.001350776               0.999999984               0.000089956              -0.001373027               0.999999984               0.000086307              -0.001397554               0.999999984               0.000079947              -0.001423227               0.999999984               0.000070015              -0.001449134               0.999999984               0.000055667              -0.001474524               0.999999984               0.000035886              -0.001498865               0.999999984               0.000009836              -0.001521648               0.999999984              -0.000023467              -0.001542546               0.999999984              -0.000064965              -0.001561465               0.999999984              -0.000115486              -0.001578831               0.999999984               0.000147971              -0.001365608               0.999999984               0.000096888              -0.001375772               0.999999984               0.000073375              -0.001377681               0.999999984               0.000062824              -0.001383060               0.999999984               0.000058199              -0.001394236               0.999999984               0.000055933              -0.001410798               0.999999984               0.000054277              -0.001431830               0.999999984               0.000052472              -0.001456468               0.999999984               0.000049865              -0.001483810               0.999999984               0.000045710              -0.001512935               0.999999984               0.000039126              -0.001543137               0.999999984               0.000029421              -0.001573807               0.999999984               0.000015859              -0.001604282               0.999999984              -0.000002555              -0.001634155               0.999999984              -0.000027028              -0.001662747               0.999999984              -0.000059091              -0.001689474               0.999999984              -0.000100586              -0.001714041               0.999999984               0.000074354              -0.001387608               0.999999984               0.000048234              -0.001410454               0.999999984               0.000035720              -0.001419940               0.999999984               0.000029843              -0.001429891               0.999999984               0.000027137              -0.001444052               0.999999984               0.000025753              -0.001462931               0.999999984               0.000024712              -0.001485960               0.999999984               0.000023501              -0.001512498               0.999999984               0.000022148              -0.001541960               0.999999984               0.000020154              -0.001573626               0.999999984               0.000016874              -0.001606918               0.999999984               0.000011956              -0.001641290               0.999999984               0.000005013              -0.001676262               0.999999984              -0.000004648              -0.001711350               0.999999984              -0.000017796              -0.001745714               0.999999984              -0.000035436              -0.001778646               0.999999984              -0.000059164              -0.001809093               0.999999984              -0.000000000              -0.001394972               0.999999984              -0.000000000              -0.001422232               0.999999984               0.000000000              -0.001434491               0.999999984              -0.000000000              -0.001446134               0.999999984              -0.000000000              -0.001461458               0.999999984              -0.000000000              -0.001481236               0.999999984               0.000000000              -0.001505130               0.999999984              -0.000000000              -0.001532433               0.999999984              -0.000000000              -0.001562540               0.999999984              -0.000000000              -0.001595046               0.999999984              -0.000000000              -0.001629469               0.999999984               0.000000000              -0.001665264               0.999999984              -0.000000000              -0.001701862               0.999999984              -0.000000000              -0.001738858               0.999999984              -0.000000000              -0.001775326               0.999999984               0.000000000              -0.001810398               0.999999984              -0.000000000              -0.001843035               0.999999984               0.000781546              -0.000000000               0.999999984               0.000833245              -0.000000000               0.999999984               0.000855748               0.000000000               0.999999984               0.000868301               0.000000000               0.999999984               0.000878043               0.000000000               0.999999984               0.000887603               0.000000000               0.999999984               0.000897969               0.000000000               0.999999984               0.000909537              -0.000000000               0.999999984               0.000922333               0.000000000               0.999999984               0.000936143              -0.000000000               0.999999984               0.000950736              -0.000000000               0.999999984               0.000965781               0.000000000               0.999999984               0.000980977               0.000000000               0.999999984               0.000995954               0.000000000               0.999999984               0.001009968              -0.000000000               0.999999984               0.001022201              -0.000000000               0.999999984               0.001031781              -0.000000000               0.999999984               0.000777136               0.000133940               0.999999984               0.000824872               0.000108277               0.999999984               0.000844851               0.000096853               0.999999984               0.000855832               0.000092211               0.999999984               0.000864520               0.000091279               0.999999984               0.000873355               0.000092034               0.999999984               0.000883264               0.000093987               0.999999984               0.000894331               0.000096359               0.999999984               0.000906502               0.000098600               0.999999984               0.000919569               0.000100447               0.999999984               0.000933187               0.000101564               0.999999984               0.000947071               0.000101607               0.999999984               0.000960779               0.000100158               0.999999984               0.000973764               0.000096352               0.999999984               0.000985505               0.000089560               0.999999984               0.000995350               0.000079076               0.999999984               0.001002603               0.000064133               0.999999984               0.000764236               0.000266535               0.999999984               0.000800356               0.000216046               0.999999984               0.000813191               0.000194343               0.999999984               0.000819822               0.000186264               0.999999984               0.000825806               0.000185097               0.999999984               0.000832663               0.000187438               0.999999984               0.000840931               0.000191607               0.999999984               0.000850510               0.000196569               0.999999984               0.000861148               0.000201167               0.999999984               0.000872341               0.000204728               0.999999984               0.000883460               0.000206633               0.999999984               0.000893903               0.000206198               0.999999984               0.000903203               0.000202708               0.999999984               0.000910997               0.000195042               0.999999984               0.000916800               0.000182129               0.999999984               0.000920382               0.000163123               0.999999984               0.000921471               0.000136764               0.999999984               0.000743091               0.000396543               0.999999984               0.000760956               0.000322837               0.999999984               0.000763704               0.000293024               0.999999984               0.000764589               0.000283215               0.999999984               0.000766997               0.000283165               0.999999984               0.000771446               0.000287750               0.999999984               0.000777681               0.000294725               0.999999984               0.000785214               0.000302478               0.999999984               0.000793238               0.000309356               0.999999984               0.000800907               0.000314304               0.999999984               0.000807484               0.000316302               0.999999984               0.000812244               0.000314747               0.999999984               0.000814720               0.000308890               0.999999984               0.000814762               0.000297654               0.999999984               0.000812249               0.000280221               0.999999984               0.000807228               0.000255854               0.999999984               0.000799978               0.000223696               0.999999984               0.000714129               0.000522757               0.999999984               0.000708813               0.000428402               0.999999984               0.000700241               0.000393299               0.999999984               0.000695400               0.000383585               0.999999984               0.000694653               0.000385733               0.999999984               0.000696879               0.000393188               0.999999984               0.000700945               0.000403306               0.999999984               0.000705813               0.000413716               0.999999984               0.000710282               0.000422404               0.999999984               0.000713264               0.000428003               0.999999984               0.000713905               0.000429522               0.999999984               0.000711672               0.000426270               0.999999984               0.000706329               0.000417826               0.999999984               0.000697847               0.000403650               0.999999984               0.000686403               0.000383367               0.999999984               0.000672541               0.000356832               0.999999984               0.000656974               0.000324514               0.999999984               0.000678021               0.000643943               0.999999984               0.000646521               0.000532751               0.999999984               0.000627306               0.000495150               0.999999984               0.000618157               0.000487056               0.999999984               0.000615310               0.000491976               0.999999984               0.000615927               0.000502559               0.999999984               0.000618207               0.000515480               0.999999984               0.000620275               0.000527884               0.999999984               0.000620571               0.000537521               0.999999984               0.000617981               0.000543092               0.999999984               0.000611834               0.000543626               0.999999984               0.000601872               0.000538707               0.999999984               0.000588225               0.000528129               0.999999984               0.000571122               0.000511902               0.999999984               0.000551088               0.000490397               0.999999984               0.000528872               0.000464153               0.999999984               0.000505196               0.000434408               0.999999984               0.000635406               0.000758948               0.999999984               0.000577230               0.000635787               0.999999984               0.000549842               0.000597895               0.999999984               0.000538449               0.000592284               0.999999984               0.000535023               0.000600060               0.999999984               0.000535069               0.000613282               0.999999984               0.000535736               0.000628389               0.999999984               0.000534706               0.000641942               0.999999984               0.000530201               0.000651791               0.999999984               0.000521326               0.000656776               0.999999984               0.000507627               0.000656234               0.999999984               0.000489333               0.000649980               0.999999984               0.000466859               0.000638012               0.999999984               0.000440785               0.000620956               0.999999984               0.000411808               0.000599772               0.999999984               0.000380782               0.000575411               0.999999984               0.000348470               0.000549088               0.999999984               0.000586980               0.000866726               0.999999984               0.000504151               0.000737258               0.999999984               0.000472035               0.000700613               0.999999984               0.000461087               0.000697352               0.999999984               0.000458514               0.000707508               0.999999984               0.000458367               0.000722916               0.999999984               0.000457291               0.000739585               0.999999984               0.000452668               0.000753655               0.999999984               0.000442600               0.000763157               0.999999984               0.000426458               0.000767386               0.999999984               0.000404414               0.000765759               0.999999984               0.000376983               0.000758412               0.999999984               0.000344787               0.000745953               0.999999984               0.000308790               0.000729234               0.999999984               0.000270003               0.000709542               0.999999984               0.000229543               0.000687994               0.999999984               0.000188252               0.000665388               0.999999984               0.000534412               0.000965333               0.999999984               0.000429722               0.000837065               0.999999984               0.000397909               0.000801878               0.999999984               0.000389379               0.000800264               0.999999984               0.000388318               0.000812239               0.999999984               0.000388121               0.000829432               0.999999984               0.000384965               0.000847035               0.999999984               0.000375686               0.000861293               0.999999984               0.000358836               0.000870344               0.999999984               0.000334357               0.000873651               0.999999984               0.000302826               0.000871051               0.999999984               0.000264957               0.000863076               0.999999984               0.000221926               0.000850815               0.999999984               0.000175168               0.000835463               0.999999984               0.000126261               0.000818327               0.999999984               0.000076446               0.000800340               0.999999984               0.000026428               0.000782090               0.999999984               0.000480089               0.001058363               0.999999984               0.000367593               0.000948156               0.999999984               0.000332754               0.000908728               0.999999984               0.000323167               0.000901720               0.999999984               0.000321833               0.000909280               0.999999984               0.000322079               0.000923804               0.999999984               0.000320366               0.000940858               0.999999984               0.000314199               0.000957148               0.999999984               0.000301436               0.000970290               0.999999984               0.000281487               0.000979286               0.999999984               0.000254533               0.000983806               0.999999984               0.000220906               0.000983941               0.999999984               0.000181267               0.000980068               0.999999984               0.000136616               0.000973317               0.999999984               0.000088404               0.000964438               0.999999984               0.000038370               0.000954506               0.999999984              -0.000012281               0.000943970               0.999999984               0.000420546               0.001142934               0.999999984               0.000308307               0.001055537               0.999999984               0.000270572               0.001018289               0.999999984               0.000259315               0.001008238               0.999999984               0.000257088               0.001012822               0.999999984               0.000257097               0.001025253               0.999999984               0.000256103               0.001041649               0.999999984               0.000252006               0.001059250               0.999999984               0.000242785               0.001075717               0.999999984               0.000227055               0.001089581               0.999999984               0.000204677               0.001100168               0.999999984               0.000175532               0.001107320               0.999999984               0.000140088               0.001111033               0.999999984               0.000098599               0.001111911               0.999999984               0.000052042               0.001110694               0.999999984               0.000002191               0.001108176               0.999999984              -0.000049328               0.001105013               0.999999984               0.000356962               0.001217116               0.999999984               0.000251807               0.001155964               0.999999984               0.000213064               0.001125531               0.999999984               0.000200017               0.001115952               0.999999984               0.000196424               0.001119487               0.999999984               0.000195718               0.001130984               0.999999984               0.000194731               0.001147263               0.999999984               0.000191766               0.001165903               0.999999984               0.000185159               0.001185092               0.999999984               0.000173369               0.001203138               0.999999984               0.000155446               0.001219126               0.999999984               0.000131233               0.001232566               0.999999984               0.000100468               0.001243352               0.999999984               0.000063080               0.001251503               0.999999984               0.000019250               0.001257477               0.999999984              -0.000029817               0.001262009               0.999999984              -0.000082479               0.001265802               0.999999984               0.000289943               0.001279633               0.999999984               0.000198032               0.001245391               0.999999984               0.000161077               0.001225059               0.999999984               0.000147038               0.001219088               0.999999984               0.000142222               0.001223758               0.999999984               0.000140571               0.001235775               0.999999984               0.000139261               0.001252782               0.999999984               0.000136798               0.001272916               0.999999984               0.000131951               0.001294665               0.999999984               0.000123254               0.001316641               0.999999984               0.000109484               0.001337738               0.999999984               0.000090263               0.001357273               0.999999984               0.000064804               0.001374831               0.999999984               0.000032414               0.001390182               0.999999984              -0.000007117               0.001403376               0.999999984              -0.000053768               0.001414792               0.999999984              -0.000106847               0.001425288               0.999999984               0.000220081               0.001329390               0.999999984               0.000146593               0.001319845               0.999999984               0.000114711               0.001311068               0.999999984               0.000101415               0.001310536               0.999999984               0.000096150               0.001318062               0.999999984               0.000093706               0.001332035               0.999999984               0.000092082               0.001350776               0.999999984               0.000089956               0.001373027               0.999999984               0.000086307               0.001397554               0.999999984               0.000079947               0.001423227               0.999999984               0.000070015               0.001449134               0.999999984               0.000055667               0.001474524               0.999999984               0.000035886               0.001498865               0.999999984               0.000009836               0.001521648               0.999999984              -0.000023467               0.001542546               0.999999984              -0.000064965               0.001561465               0.999999984              -0.000115486               0.001578831               0.999999984               0.000147971               0.001365608               0.999999984               0.000096888               0.001375772               0.999999984               0.000073375               0.001377681               0.999999984               0.000062824               0.001383060               0.999999984               0.000058199               0.001394236               0.999999984               0.000055933               0.001410798               0.999999984               0.000054277               0.001431830               0.999999984               0.000052472               0.001456468               0.999999984               0.000049865               0.001483810               0.999999984               0.000045710               0.001512935               0.999999984               0.000039126               0.001543137               0.999999984               0.000029421               0.001573807               0.999999984               0.000015859               0.001604282               0.999999984              -0.000002555               0.001634155               0.999999984              -0.000027028               0.001662747               0.999999984              -0.000059091               0.001689474               0.999999984              -0.000100586               0.001714041               0.999999984               0.000074354               0.001387608               0.999999984               0.000048234               0.001410454               0.999999984               0.000035720               0.001419940               0.999999984               0.000029843               0.001429891               0.999999984               0.000027137               0.001444052               0.999999984               0.000025753               0.001462931               0.999999984               0.000024712               0.001485960               0.999999984               0.000023501               0.001512498               0.999999984               0.000022148               0.001541960               0.999999984               0.000020154               0.001573626               0.999999984               0.000016874               0.001606918               0.999999984               0.000011956               0.001641290               0.999999984               0.000005013               0.001676262               0.999999984              -0.000004648               0.001711350               0.999999984              -0.000017796               0.001745714               0.999999984              -0.000035436               0.001778646               0.999999984              -0.000059164               0.001809093               0.999999984              -0.000000000               0.001394972               0.999999984               0.000000000               0.001422232               0.999999984              -0.000000000               0.001434491               0.999999984              -0.000000000               0.001446134               0.999999984               0.000000000               0.001461458               0.999999984               0.000000000               0.001481236               0.999999984               0.000000000               0.001505130               0.999999984               0.000000000               0.001532433               0.999999984               0.000000000               0.001562540               0.999999984               0.000000000               0.001595046               0.999999984               0.000000000               0.001629469               0.999999984              -0.000000000               0.001665264               0.999999984              -0.000000000               0.001701862               0.999999984               0.000000000               0.001738858               0.999999984              -0.000000000               0.001775326               0.999999984              -0.000000000               0.001810398               0.999999984              -0.000000000               0.001843035               0.999999984 </DataArray>
<DataArray type="Float64"                                    Name="defo"                                                      NumberOfComponents=" 3" format="ascii">
             -0.000781546               0.000000000               0.999999984              -0.000833245              -0.000000000               0.999999984              -0.000855748              -0.000000000               0.999999984              -0.000868301              -0.000000000               0.999999984              -0.000878043               0.000000000               0.999999984              -0.000887603              -0.000000000               0.999999984              -0.000897969               0.000000000               0.999999984              -0.000909537               0.000000000               0.999999984              -0.000922333              -0.000000000               0.999999984              -0.000936143               0.000000000               0.999999984              -0.000950736              -0.000000000               0.999999984              -0.000965781              -0.000000000               0.999999984              -0.000980977               0.000000000               0.999999984              -0.000995954              -0.000000000               0.999999984              -0.001009968              -0.000000000               0.999999984              -0.001022201              -0.000000000               0.999999984              -0.001031781               0.000000000               0.999999984              -0.000777136               0.000133940               0.999999984              -0.000824872               0.000108277               0.999999984              -0.000844851               0.000096853               0.999999984              -0.000855832               0.000092211               0.999999984              -0.000864520               0.000091279               0.999999984              -0.000873355               0.000092034               0.999999984              -0.000883264               0.000093987               0.999999984              -0.000894331               0.000096359               0.999999984              -0.000906502               0.000098600               0.999999984              -0.000919569               0.000100447               0.999999984              -0.000933187               0.000101564               0.999999984              -0.000947071               0.000101607               0.999999984              -0.000960779               0.000100158               0.999999984              -0.000973764               0.000096352               0.999999984              -0.000985505               0.000089560               0.999999984              -0.000995350               0.000079076               0.999999984              -0.001002603               0.000064133               0.999999984              -0.000764236               0.000266535               0.999999984              -0.000800356               0.000216046               0.999999984              -0.000813191               0.000194343               0.999999984              -0.000819822               0.000186264               0.999999984              -0.000825806               0.000185097               0.999999984              -0.000832663               0.000187438               0.999999984              -0.000840931               0.000191607               0.999999984              -0.000850510               0.000196569               0.999999984              -0.000861148               0.000201167               0.999999984              -0.000872341               0.000204728               0.999999984              -0.000883460               0.000206633               0.999999984              -0.000893903               0.000206198               0.999999984              -0.000903203               0.000202708               0.999999984              -0.000910997               0.000195042               0.999999984              -0.000916800               0.000182129               0.999999984              -0.000920382               0.000163123               0.999999984              -0.000921471               0.000136764               0.999999984              -0.000743091               0.000396543               0.999999984              -0.000760956               0.000322837               0.999999984              -0.000763704               0.000293024               0.999999984              -0.000764589               0.000283215               0.999999984              -0.000766997               0.000283165               0.999999984              -0.000771446               0.000287750               0.999999984              -0.000777681               0.000294725               0.999999984              -0.000785214               0.000302478               0.999999984              -0.000793238               0.000309356               0.999999984              -0.000800907               0.000314304               0.999999984              -0.000807484               0.000316302               0.999999984              -0.000812244               0.000314747               0.999999984              -0.000814720               0.000308890               0.999999984              -0.000814762               0.000297654               0.999999984              -0.000812249               0.000280221               0.999999984              -0.000807228               0.000255854               0.999999984              -0.000799978               0.000223696               0.999999984              -0.000714129               0.000522757               0.999999984              -0.000708813               0.000428402               0.999999984              -0.000700241               0.000393299               0.999999984              -0.000695400               0.000383585               0.999999984              -0.000694653               0.000385733               0.999999984              -0.000696879               0.000393188               0.999999984              -0.000700945               0.000403306               0.999999984              -0.000705813               0.000413716               0.999999984              -0.000710282               0.000422404               0.999999984              -0.000713264               0.000428003               0.999999984              -0.000713905               0.000429522               0.999999984              -0.000711672               0.000426270               0.999999984              -0.000706329               0.000417826               0.999999984              -0.000697847               0.000403650               0.999999984              -0.000686403               0.000383367               0.999999984              -0.000672541               0.000356832               0.999999984              -0.000656974               0.000324514               0.999999984              -0.000678021               0.000643943               0.999999984              -0.000646521               0.000532751               0.999999984              -0.000627306               0.000495150               0.999999984              -0.000618157               0.000487056               0.999999984              -0.000615310               0.000491976               0.999999984              -0.000615927               0.000502559               0.999999984              -0.000618207               0.000515480               0.999999984              -0.000620275               0.000527884               0.999999984              -0.000620571               0.000537521               0.999999984              -0.000617981               0.000543092               0.999999984              -0.000611834               0.000543626               0.999999984              -0.000601872               0.000538707               0.999999984              -0.000588225               0.000528129               0.999999984              -0.000571122               0.000511902               0.999999984              -0.000551088               0.000490397               0.999999984              -0.000528872               0.000464153               0.999999984              -0.000505196               0.000434408               0.999999984              -0.000635406               0.000758948               0.999999984              -0.000577230               0.000635787               0.999999984              -0.000549842               0.000597895               0.999999984              -0.000538449               0.000592284               0.999999984              -0.000535023               0.000600060               0.999999984              -0.000535069               0.000613282               0.999999984              -0.000535736               0.000628389               0.999999984              -0.000534706               0.000641942               0.999999984              -0.000530201               0.000651791               0.999999984              -0.000521326               0.000656776               0.999999984              -0.000507627               0.000656234               0.999999984              -0.000489333               0.000649980               0.999999984              -0.000466859               0.000638012               0.999999984              -0.000440785               0.000620956               0.999999984              -0.000411808               0.000599772               0.999999984              -0.000380782               0.000575411               0.999999984              -0.000348470               0.000549088               0.999999984              -0.000586980               0.000866726               0.999999984              -0.000504151               0.000737258               0.999999984              -0.000472035               0.000700613               0.999999984              -0.000461087               0.000697352               0.999999984              -0.000458514               0.000707508               0.999999984              -0.000458367               0.000722916               0.999999984              -0.000457291               0.000739585               0.999999984              -0.000452668               0.000753655               0.999999984              -0.000442600               0.000763157               0.999999984              -0.000426458               0.000767386               0.999999984              -0.000404414               0.000765759               0.999999984              -0.000376983               0.000758412               0.999999984              -0.000344787               0.000745953               0.999999984              -0.000308790               0.000729234               0.999999984              -0.000270003               0.000709542               0.999999984              -0.000229543               0.000687994               0.999999984              -0.000188252               0.000665388               0.999999984              -0.000534412               0.000965333               0.999999984              -0.000429722               0.000837065               0.999999984              -0.000397909               0.000801878               0.999999984              -0.000389379               0.000800264               0.999999984              -0.000388318               0.000812239               0.999999984              -0.000388121               0.000829432               0.999999984              -0.000384965               0.000847035               0.999999984              -0.000375686               0.000861293               0.999999984              -0.000358836               0.000870344               0.999999984              -0.000334357               0.000873651               0.999999984              -0.000302826               0.000871051               0.999999984              -0.000264957               0.000863076               0.999999984              -0.000221926               0.000850815               0.999999984              -0.000175168               0.000835463               0.999999984              -0.000126261               0.000818327               0.999999984              -0.000076446               0.000800340               0.999999984              -0.000026428               0.000782090               0.999999984              -0.000480089               0.001058363               0.999999984              -0.000367593               0.000948156               0.999999984              -0.000332754               0.000908728               0.999999984              -0.000323167               0.000901720               0.999999984              -0.000321833               0.000909280               0.999999984              -0.000322079               0.000923804               0.999999984              -0.000320366               0.000940858               0.999999984              -0.000314199               0.000957148               0.999999984              -0.000301436               0.000970290               0.999999984              -0.000281487               0.000979286               0.999999984              -0.000254533               0.000983806               0.999999984              -0.000220906               0.000983941               0.999999984              -0.000181267               0.000980068               0.999999984              -0.000136616               0.000973317               0.999999984              -0.000088404               0.000964438               0.999999984              -0.000038370               0.000954506               0.999999984               0.000012281               0.000943970               0.999999984              -0.000420546               0.001142934               0.999999984              -0.000308307               0.001055537               0.999999984              -0.000270572               0.001018289               0.999999984              -0.000259315               0.001008238               0.999999984              -0.000257088               0.001012822               0.999999984              -0.000257097               0.001025253               0.999999984              -0.000256103               0.001041649               0.999999984              -0.000252006               0.001059250               0.999999984              -0.000242785               0.001075717               0.999999984              -0.000227055               0.001089581               0.999999984              -0.000204677               0.001100168               0.999999984              -0.000175532               0.001107320               0.999999984              -0.000140088               0.001111033               0.999999984              -0.000098599               0.001111911               0.999999984              -0.000052042               0.001110694               0.999999984              -0.000002191               0.001108176               0.999999984               0.000049328               0.001105013               0.999999984              -0.000356962               0.001217116               0.999999984              -0.000251807               0.001155964               0.999999984              -0.000213064               0.001125531               0.999999984              -0.000200017               0.001115952               0.999999984              -0.000196424               0.001119487               0.999999984              -0.000195718               0.001130984               0.999999984              -0.000194731               0.001147263               0.999999984              -0.000191766               0.001165903               0.999999984              -0.000185159               0.001185092               0.999999984              -0.000173369               0.001203138               0.999999984              -0.000155446               0.001219126               0.999999984              -0.000131233               0.001232566               0.999999984              -0.000100468               0.001243352               0.999999984              -0.000063080               0.001251503               0.999999984              -0.000019250               0.001257477               0.999999984               0.000029817               0.001262009               0.999999984               0.000082479               0.001265802               0.999999984              -0.000289943               0.001279633               0.999999984              -0.000198032               0.001245391               0.999999984              -0.000161077               0.001225059               0.999999984              -0.000147038               0.001219088               0.999999984              -0.000142222               0.001223758               0.999999984              -0.000140571               0.001235775               0.999999984              -0.000139261               0.001252782               0.999999984              -0.000136798               0.001272916               0.999999984              -0.000131951               0.001294665               0.999999984              -0.000123254               0.001316641               0.999999984              -0.000109484               0.001337738               0.999999984              -0.000090263               0.001357273               0.999999984              -0.000064804               0.001374831               0.999999984              -0.000032414               0.001390182               0.999999984               0.000007117               0.001403376               0.999999984               0.000053768               0.001414792               0.999999984               0.000106847               0.001425288               0.999999984              -0.000220081               0.001329390               0.999999984              -0.000146593               0.001319845               0.999999984              -0.000114711               0.001311068               0.999999984              -0.000101415               0.001310536               0.999999984              -0.000096150               0.001318062               0.999999984              -0.000093706               0.001332035               0.999999984              -0.000092082               0.001350776               0.999999984              -0.000089956               0.001373027               0.999999984              -0.000086307               0.001397554               0.999999984              -0.000079947               0.001423227               0.999999984              -0.000070015               0.001449134               0.999999984              -0.000055667               0.001474524               0.999999984              -0.000035886               0.001498865               0.999999984              -0.000009836               0.001521648               0.999999984               0.000023467               0.001542546               0.999999984               0.000064965               0.001561465               0.999999984               0.000115486               0.001578831               0.999999984              -0.000147971               0.001365608               0.999999984              -0.000096888               0.001375772               0.999999984              -0.000073375               0.001377681               0.999999984              -0.000062824               0.001383060               0.999999984              -0.000058199               0.001394236               0.999999984              -0.000055933               0.001410798               0.999999984              -0.000054277               0.001431830               0.999999984              -0.000052472               0.001456468               0.999999984              -0.000049865               0.001483810               0.999999984              -0.000045710               0.001512935               0.999999984              -0.000039126               0.001543137               0.999999984              -0.000029421               0.001573807               0.999999984              -0.000015859               0.001604282               0.999999984               0.000002555               0.001634155               0.999999984               0.000027028               0.001662747               0.999999984               0.000059091               0.001689474               0.999999984               0.000100586               0.001714041               0.999999984              -0.000074354               0.001387608               0.999999984              -0.000048234               0.001410454               0.999999984              -0.000035720               0.001419940               0.999999984              -0.000029843               0.001429891               0.999999984              -0.000027137               0.001444052               0.999999984              -0.000025753               0.001462931               0.999999984              -0.000024712               0.001485960               0.999999984              -0.000023501               0.001512498               0.999999984              -0.000022148               0.001541960               0.999999984              -0.000020154               0.001573626               0.999999984              -0.000016874               0.001606918               0.999999984              -0.000011956               0.001641290               0.999999984              -0.000005013               0.001676262               0.999999984               0.000004648               0.001711350               0.999999984               0.000017796               0.001745714               0.999999984               0.000035436               0.001778646               0.999999984               0.000059164               0.001809093               0.999999984              -0.000000000               0.001394972               0.999999984               0.000000000               0.001422232               0.999999984              -0.000000000               0.001434491               0.999999984              -0.000000000               0.001446134               0.999999984               0.000000000               0.001461458               0.999999984               0.000000000               0.001481236               0.999999984               0.000000000               0.001505130               0.999999984               0.000000000               0.001532433               0.999999984               0.000000000               0.001562540               0.999999984               0.000000000               0.001595046               0.999999984               0.000000000               0.001629469               0.999999984              -0.000000000               0.001665264               0.999999984              -0.000000000               0.001701862               0.999999984               0.000000000               0.001738858               0.999999984              -0.000000000               0.001775326               0.999999984              -0.000000000               0.001810398               0.999999984              -0.000000000               0.001843035               0.999999984              -0.000781546               0.000000000               0.999999984              -0.000833245              -0.000000000               0.999999984              -0.000855748              -0.000000000               0.999999984              -0.000868301              -0.000000000               0.999999984              -0.000878043               0.000000000               0.999999984              -0.000887603              -0.000000000               0.999999984              -0.000897969               0.000000000               0.999999984              -0.000909537               0.000000000               0.999999984              -0.000922333              -0.000000000               0.999999984              -0.000936143               0.000000000               0.999999984              -0.000950736              -0.000000000               0.999999984              -0.000965781              -0.000000000               0.999999984              -0.000980977               0.000000000               0.999999984              -0.000995954              -0.000000000               0.999999984              -0.001009968              -0.000000000               0.999999984              -0.001022201              -0.000000000               0.999999984              -0.001031781               0.000000000               0.999999984              -0.000777136              -0.000133940               0.999999984              -0.000824872              -0.000108277               0.999999984              -0.000844851              -0.000096853               0.999999984              -0.000855832              -0.000092211               0.999999984              -0.000864520              -0.000091279               0.999999984              -0.000873355              -0.000092034               0.999999984              -0.000883264              -0.000093987               0.999999984              -0.000894331              -0.000096359               0.999999984              -0.000906502              -0.000098600               0.999999984              -0.000919569              -0.000100447               0.999999984              -0.000933187              -0.000101564               0.999999984              -0.000947071              -0.000101607               0.999999984              -0.000960779              -0.000100158               0.999999984              -0.000973764              -0.000096352               0.999999984              -0.000985505              -0.000089560               0.999999984              -0.000995350              -0.000079076               0.999999984              -0.001002603              -0.000064133               0.999999984              -0.000764236              -0.000266535               0.999999984              -0.000800356              -0.000216046               0.999999984              -0.000813191              -0.000194343               0.999999984              -0.000819822              -0.000186264               0.999999984              -0.000825806              -0.000185097               0.999999984              -0.000832663              -0.000187438               0.999999984              -0.000840931              -0.000191607               0.999999984              -0.000850510              -0.000196569               0.999999984              -0.000861148              -0.000201167               0.999999984              -0.000872341              -0.000204728               0.999999984              -0.000883460              -0.000206633               0.999999984              -0.000893903              -0.000206198               0.999999984              -0.000903203              -0.000202708               0.999999984              -0.000910997              -0.000195042               0.999999984              -0.000916800              -0.000182129               0.999999984              -0.000920382              -0.000163123               0.999999984              -0.000921471              -0.000136764               0.999999984              -0.000743091              -0.000396543               0.999999984              -0.000760956              -0.000322837               0.999999984              -0.000763704              -0.000293024               0.999999984              -0.000764589              -0.000283215               0.999999984              -0.000766997              -0.000283165               0.999999984              -0.000771446              -0.000287750               0.999999984              -0.000777681              -0.000294725               0.999999984              -0.000785214              -0.000302478               0.999999984              -0.000793238              -0.000309356               0.999999984              -0.000800907              -0.000314304               0.999999984              -0.000807484              -0.000316302               0.999999984              -0.000812244              -0.000314747               0.999999984              -0.000814720              -0.000308890               0.999999984              -0.000814762              -0.000297654               0.999999984              -0.000812249              -0.000280221               0.999999984              -0.000807228              -0.000255854               0.999999984              -0.000799978              -0.000223696               0.999999984              -0.000714129              -0.000522757               0.999999984              -0.000708813              -0.000428402               0.999999984              -0.000700241              -0.000393299               0.999999984              -0.000695400              -0.000383585               0.999999984              -0.000694653              -0.000385733               0.999999984              -0.000696879              -0.000393188               0.999999984              -0.000700945              -0.000403306               0.999999984              -0.000705813              -0.000413716               0.999999984              -0.000710282              -0.000422404               0.999999984              -0.000713264              -0.000428003               0.999999984              -0.000713905              -0.000429522               0.999999984              -0.000711672              -0.000426270               0.999999984              -0.000706329              -0.000417826               0.999999984              -0.000697847              -0.000403650               0.999999984              -0.000686403              -0.000383367               0.999999984              -0.000672541              -0.000356832               0.999999984              -0.000656974              -0.000324514               0.999999984              -0.000678021              -0.000643943               0.999999984              -0.000646521              -0.000532751               0.999999984              -0.000627306              -0.000495150               0.999999984              -0.000618157              -0.000487056               0.999999984              -0.000615310              -0.000491976               0.999999984              -0.000615927              -0.000502559               0.999999984              -0.000618207              -0.000515480               0.999999984              -0.000620275              -0.000527884               0.999999984              -0.000620571              -0.000537521               0.999999984              -0.000617981              -0.000543092               0.999999984              -0.000611834              -0.000543626               0.999999984              -0.000601872              -0.000538707               0.999999984              -0.000588225              -0.000528129               0.999999984              -0.000571122              -0.000511902               0.999999984              -0.000551088              -0.000490397               0.999999984              -0.000528872              -0.000464153               0.999999984              -0.000505196              -0.000434408               0.999999984              -0.000635406              -0.000758948               0.999999984              -0.000577230              -0.000635787               0.999999984              -0.000549842              -0.000597895               0.999999984              -0.000538449              -0.000592284               0.999999984              -0.000535023              -0.000600060               0.999999984              -0.000535069              -0.000613282               0.999999984              -0.000535736              -0.000628389               0.999999984              -0.000534706              -0.000641942               0.999999984              -0.000530201              -0.000651791               0.999999984              -0.000521326              -0.000656776               0.999999984              -0.000507627              -0.000656234               0.999999984              -0.000489333              -0.000649980               0.999999984              -0.000466859              -0.000638012               0.999999984              -0.000440785              -0.000620956               0.999999984              -0.000411808              -0.000599772               0.999999984              -0.000380782              -0.000575411               0.999999984              -0.000348470              -0.000549088               0.999999984              -0.000586980              -0.000866726               0.999999984              -0.000504151              -0.000737258               0.999999984              -0.000472035              -0.000700613               0.999999984              -0.000461087              -0.000697352               0.999999984              -0.000458514              -0.000707508               0.999999984              -0.000458367              -0.000722916               0.999999984              -0.000457291              -0.000739585               0.999999984              -0.000452668              -0.000753655               0.999999984              -0.000442600              -0.000763157               0.999999984              -0.000426458              -0.000767386               0.999999984              -0.000404414              -0.000765759               0.999999984              -0.000376983              -0.000758412               0.999999984              -0.000344787              -0.000745953               0.999999984              -0.000308790              -0.000729234               0.999999984              -0.000270003              -0.000709542               0.999999984              -0.000229543              -0.000687994               0.999999984              -0.000188252              -0.000665388               0.999999984              -0.000534412              -0.000965333               0.999999984              -0.000429722              -0.000837065               0.999999984              -0.000397909              -0.000801878               0.999999984              -0.000389379              -0.000800264               0.999999984              -0.000388318              -0.000812239               0.999999984              -0.000388121              -0.000829432               0.999999984              -0.000384965              -0.000847035               0.999999984              -0.000375686              -0.000861293               0.999999984              -0.000358836              -0.000870344               0.999999984              -0.000334357              -0.000873651               0.999999984              -0.000302826              -0.000871051               0.999999984              -0.000264957              -0.000863076               0.999999984              -0.000221926              -0.000850815               0.999999984              -0.000175168              -0.000835463               0.999999984              -0.000126261              -0.000818327               0.999999984              -0.000076446              -0.000800340               0.999999984              -0.000026428              -0.000782090               0.999999984              -0.000480089              -0.001058363               0.999999984              -0.000367593              -0.000948156               0.999999984              -0.000332754              -0.000908728               0.999999984              -0.000323167              -0.000901720               0.999999984              -0.000321833              -0.000909280               0.999999984              -0.000322079              -0.000923804               0.999999984              -0.000320366              -0.000940858               0.999999984              -0.000314199              -0.000957148               0.999999984              -0.000301436              -0.000970290               0.999999984              -0.000281487              -0.000979286               0.999999984              -0.000254533              -0.000983806               0.999999984              -0.000220906              -0.000983941               0.999999984              -0.000181267              -0.000980068               0.999999984              -0.000136616              -0.000973317               0.999999984              -0.000088404              -0.000964438               0.999999984              -0.000038370              -0.000954506               0.999999984               0.000012281              -0.000943970               0.999999984              -0.000420546              -0.001142934               0.999999984              -0.000308307              -0.001055537               0.999999984              -0.000270572              -0.001018289               0.999999984              -0.000259315              -0.001008238               0.999999984              -0.000257088              -0.001012822               0.999999984              -0.000257097              -0.001025253               0.999999984              -0.000256103              -0.001041649               0.999999984              -0.000252006              -0.001059250               0.999999984              -0.000242785              -0.001075717               0.999999984              -0.000227055              -0.001089581               0.999999984              -0.000204677              -0.001100168               0.999999984              -0.000175532              -0.001107320               0.999999984              -0.000140088              -0.001111033               0.999999984              -0.000098599              -0.001111911               0.999999984              -0.000052042              -0.001110694               0.999999984              -0.000002191              -0.001108176               0.999999984               0.000049328              -0.001105013               0.999999984              -0.000356962              -0.001217116               0.999999984              -0.000251807              -0.001155964               0.999999984              -0.000213064              -0.001125531               0.999999984              -0.000200017              -0.001115952               0.999999984              -0.000196424              -0.001119487               0.999999984              -0.000195718              -0.001130984               0.999999984              -0.000194731              -0.001147263               0.999999984              -0.000191766              -0.001165903               0.999999984              -0.000185159              -0.001185092               0.999999984              -0.000173369              -0.001203138               0.999999984              -0.000155446              -0.001219126               0.999999984              -0.000131233              -0.001232566               0.999999984              -0.000100468              -0.001243352               0.999999984              -0.000063080              -0.001251503               0.999999984              -0.000019250              -0.001257477               0.999999984               0.000029817              -0.001262009               0.999999984               0.000082479              -0.001265802               0.999999984              -0.000289943              -0.001279633               0.999999984              -0.000198032              -0.001245391               0.999999984              -0.000161077              -0.001225059               0.999999984              -0.000147038              -0.001219088               0.999999984              -0.000142222              -0.001223758               0.999999984              -0.000140571              -0.001235775               0.999999984              -0.000139261              -0.001252782               0.999999984              -0.000136798              -0.001272916               0.999999984              -0.000131951              -0.001294665               0.999999984              -0.000123254              -0.001316641               0.999999984              -0.000109484              -0.001337738               0.999999984              -0.000090263              -0.001357273               0.999999984              -0.000064804              -0.001374831               0.999999984              -0.000032414              -0.001390182               0.999999984               0.000007117              -0.001403376               0.999999984               0.000053768              -0.001414792               0.999999984               0.000106847              -0.001425288               0.999999984              -0.000220081              -0.001329390               0.999999984              -0.000146593              -0.001319845               0.999999984              -0.000114711              -0.001311068               0.999999984              -0.000101415              -0.001310536               0.999999984              -0.000096150              -0.001318062               0.999999984              -0.000093706              -0.001332035               0.999999984              -0.000092082              -0.001350776               0.999999984              -0.000089956              -0.001373027               0.999999984              -0.000086307              -0.001397554               0.999999984              -0.000079947              -0.001423227               0.999999984              -0.000070015              -0.001449134               0.999999984              -0.000055667              -0.001474524               0.999999984              -0.000035886              -0.001498865               0.999999984              -0.000009836              -0.001521648               0.999999984               0.000023467              -0.001542546               0.999999984               0.000064965              -0.001561465               0.999999984               0.000115486              -0.001578831               0.999999984              -0.000147971              -0.001365608               0.999999984              -0.000096888              -0.001375772               0.999999984              -0.000073375              -0.001377681               0.999999984              -0.000062824              -0.001383060               0.999999984              -0.000058199              -0.001394236               0.999999984              -0.000055933              -0.001410798               0.999999984              -0.000054277              -0.001431830               0.999999984              -0.000052472              -0.001456468               0.999999984              -0.000049865              -0.001483810               0.999999984              -0.000045710              -0.001512935               0.999999984              -0.000039126              -0.001543137               0.999999984              -0.000029421              -0.001573807               0.999999984              -0.000015859              -0.001604282               0.999999984               0.000002555              -0.001634155               0.999999984               0.000027028              -0.001662747               0.999999984               0.000059091              -0.001689474               0.999999984               0.000100586              -0.001714041               0.999999984              -0.000074354              -0.001387608               0.999999984              -0.000048234              -0.001410454               0.999999984              -0.000035720              -0.001419940               0.999999984              -0.000029843              -0.001429891               0.999999984              -0.000027137              -0.001444052               0.999999984              -0.000025753              -0.001462931               0.999999984              -0.000024712              -0.001485960               0.999999984              -0.000023501              -0.001512498               0.999999984              -0.000022148              -0.001541960               0.999999984              -0.000020154              -0.001573626               0.999999984              -0.000016874              -0.001606918               0.999999984              -0.000011956              -0.001641290               0.999999984              -0.000005013              -0.001676262               0.999999984               0.000004648              -0.001711350               0.999999984               0.000017796              -0.001745714               0.999999984               0.000035436              -0.001778646               0.999999984               0.000059164              -0.001809093               0.999999984              -0.000000000              -0.001394972               0.999999984              -0.000000000              -0.001422232               0.999999984               0.000000000              -0.001434491               0.999999984              -0.000000000              -0.001446134               0.999999984              -0.000000000              -0.001461458               0.999999984              -0.000000000              -0.001481236               0.999999984               0.000000000              -0.001505130               0.999999984              -0.000000000              -0.001532433               0.999999984              -0.000000000              -0.001562540               0.999999984              -0.000000000              -0.001595046               0.999999984              -0.000000000              -0.001629469               0.999999984               0.000000000              -0.001665264               0.999999984              -0.000000000              -0.001701862               0.999999984              -0.000000000              -0.001738858               0.999999984              -0.000000000              -0.001775326               0.999999984               0.000000000              -0.001810398               0.999999984              -0.000000000              -0.001843035               0.999999984               0.000781546              -0.000000000               0.999999984               0.000833245              -0.000000000               0.999999984               0.000855748               0.000000000               0.999999984               0.000868301               0.000000000               0.999999984               0.000878043               0.000000000               0.999999984               0.000887603               0.000000000               0.999999984               0.000897969               0.000000000               0.999999984               0.000909537              -0.000000000               0.999999984               0.000922333               0.000000000               0.999999984               0.000936143              -0.000000000               0.999999984               0.000950736              -0.000000000               0.999999984               0.000965781               0.000000000               0.999999984               0.000980977               0.000000000               0.999999984               0.000995954               0.000000000               0.999999984               0.001009968              -0.000000000               0.999999984               0.001022201              -0.000000000               0.999999984               0.001031781              -0.000000000               0.999999984               0.000777136              -0.000133940               0.999999984               0.000824872              -0.000108277               0.999999984               0.000844851              -0.000096853               0.999999984               0.000855832              -0.000092211               0.999999984               0.000864520              -0.000091279               0.999999984               0.000873355              -0.000092034               0.999999984               0.000883264              -0.000093987               0.999999984               0.000894331              -0.000096359               0.999999984               0.000906502              -0.000098600               0.999999984               0.000919569              -0.000100447               0.999999984               0.000933187              -0.000101564               0.999999984               0.000947071              -0.000101607               0.999999984               0.000960779              -0.000100158               0.999999984               0.000973764              -0.000096352               0.999999984               0.000985505              -0.000089560               0.999999984               0.000995350              -0.000079076               0.999999984               0.001002603              -0.000064133               0.999999984               0.000764236              -0.000266535               0.999999984               0.000800356              -0.000216046               0.999999984               0.000813191              -0.000194343               0.999999984               0.000819822              -0.000186264               0.999999984               0.000825806              -0.000185097               0.999999984               0.000832663              -0.000187438               0.999999984               0.000840931              -0.000191607               0.999999984               0.000850510              -0.000196569               0.999999984               0.000861148              -0.000201167               0.999999984               0.000872341              -0.000204728               0.999999984               0.000883460              -0.000206633               0.999999984               0.000893903              -0.000206198               0.999999984               0.000903203              -0.000202708               0.999999984               0.000910997              -0.000195042               0.999999984               0.000916800              -0.000182129               0.999999984               0.000920382              -0.000163123               0.999999984               0.000921471              -0.000136764               0.999999984               0.000743091              -0.000396543               0.999999984               0.000760956              -0.000322837               0.999999984               0.000763704              -0.000293024               0.999999984               0.000764589              -0.000283215               0.999999984               0.000766997              -0.000283165               0.999999984               0.000771446              -0.000287750               0.999999984               0.000777681              -0.000294725               0.999999984               0.000785214              -0.000302478               0.999999984               0.000793238              -0.000309356               0.999999984               0.000800907              -0.000314304               0.999999984               0.000807484              -0.000316302               0.999999984               0.000812244              -0.000314747               0.999999984               0.000814720              -0.000308890               0.999999984               0.000814762              -0.000297654               0.999999984               0.000812249              -0.000280221               0.999999984               0.000807228              -0.000255854               0.999999984               0.000799978              -0.000223696               0.999999984               0.000714129              -0.000522757               0.999999984               0.000708813              -0.000428402               0.999999984               0.000700241              -0.000393299               0.999999984               0.000695400              -0.000383585               0.999999984               0.000694653              -0.000385733               0.999999984               0.000696879              -0.000393188               0.999999984               0.000700945              -0.000403306               0.999999984               0.000705813              -0.000413716               0.999999984               0.000710282              -0.000422404               0.999999984               0.000713264              -0.000428003               0.999999984               0.000713905              -0.000429522               0.999999984               0.000711672              -0.000426270               0.999999984               0.000706329              -0.000417826               0.999999984               0.000697847              -0.000403650               0.999999984               0.000686403              -0.000383367               0.999999984               0.000672541              -0.000356832               0.999999984               0.000656974              -0.000324514               0.999999984               0.000678021              -0.000643943               0.999999984               0.000646521              -0.000532751               0.999999984               0.000627306              -0.000495150               0.999999984               0.000618157              -0.000487056               0.999999984               0.000615310              -0.000491976               0.999999984               0.000615927              -0.000502559               0.999999984               0.000618207              -0.000515480               0.999999984               0.000620275              -0.000527884               0.999999984               0.000620571              -0.000537521               0.999999984               0.000617981              -0.000543092               0.999999984               0.000611834              -0.000543626               0.999999984               0.000601872              -0.000538707               0.999999984               0.000588225              -0.000528129               0.999999984               0.000571122              -0.000511902               0.999999984               0.000551088              -0.000490397               0.999999984               0.000528872              -0.000464153               0.999999984               0.000505196              -0.000434408               0.999999984               0.000635406              -0.000758948               0.999999984               0.000577230              -0.000635787               0.999999984               0.000549842              -0.000597895               0.999999984               0.000538449              -0.000592284               0.999999984               0.000535023              -0.000600060               0.999999984               0.000535069              -0.000613282               0.999999984               0.000535736              -0.000628389               0.999999984               0.000534706              -0.000641942               0.999999984               0.000530201              -0.000651791               0.999999984               0.000521326              -0.000656776               0.999999984               0.000507627              -0.000656234               0.999999984               0.000489333              -0.000649980               0.999999984               0.000466859              -0.000638012               0.999999984               0.000440785              -0.000620956               0.999999984               0.000411808              -0.000599772               0.999999984               0.000380782              -0.000575411               0.999999984               0.000348470              -0.000549088               0.999999984               0.000586980              -0.000866726               0.999999984               0.000504151              -0.000737258               0.999999984               0.000472035              -0.000700613               0.999999984               0.000461087              -0.000697352               0.999999984               0.000458514              -0.000707508               0.999999984               0.000458367              -0.000722916               0.999999984               0.000457291              -0.000739585               0.999999984               0.000452668              -0.000753655               0.999999984               0.000442600              -0.000763157               0.999999984               0.000426458              -0.000767386               0.999999984               0.000404414              -0.000765759               0.999999984               0.000376983              -0.000758412               0.999999984               0.000344787              -0.000745953               0.999999984               0.000308790              -0.000729234               0.999999984               0.000270003              -0.000709542               0.999999984               0.000229543              -0.000687994               0.999999984               0.000188252              -0.000665388               0.999999984               0.000534412              -0.000965333               0.999999984               0.000429722              -0.000837065               0.999999984               0.000397909              -0.000801878               0.999999984               0.000389379              -0.000800264               0.999999984               0.000388318              -0.000812239               0.999999984               0.000388121              -0.000829432               0.999999984               0.000384965              -0.000847035               0.999999984               0.000375686              -0.000861293               0.999999984               0.000358836              -0.000870344               0.999999984               0.000334357              -0.000873651               0.999999984               0.000302826              -0.000871051               0.999999984               0.000264957              -0.000863076               0.999999984               0.000221926              -0.000850815               0.999999984               0.000175168              -0.000835463               0.999999984               0.000126261              -0.000818327               0.999999984               0.000076446              -0.000800340               0.999999984               0.000026428              -0.000782090               0.999999984               0.000480089              -0.001058363               0.999999984               0.000367593              -0.000948156               0.999999984               0.000332754              -0.000908728               0.999999984               0.000323167              -0.000901720               0.999999984               0.000321833              -0.000909280               0.999999984               0.000322079              -0.000923804               0.999999984               0.000320366              -0.000940858               0.999999984               0.000314199              -0.000957148               0.999999984               0.000301436              -0.000970290               0.999999984               0.000281487              -0.000979286               0.999999984               0.000254533              -0.000983806               0.999999984               0.000220906              -0.000983941               0.999999984               0.000181267              -0.000980068               0.999999984               0.000136616              -0.000973317               0.999999984               0.000088404              -0.000964438               0.999999984               0.000038370              -0.000954506               0.999999984              -0.000012281              -0.000943970               0.999999984               0.000420546              -0.001142934               0.999999984               0.000308307              -0.001055537               0.999999984               0.000270572              -0.001018289               0.999999984               0.000259315              -0.001008238               0.999999984               0.000257088              -0.001012822               0.999999984               0.000257097              -0.001025253               0.999999984               0.000256103              -0.001041649               0.999999984               0.000252006              -0.001059250               0.999999984               0.000242785              -0.001075717               0.999999984               0.000227055              -0.001089581               0.999999984               0.000204677              -0.001100168               0.999999984               0.000175532              -0.001107320               0.999999984               0.000140088              -0.001111033               0.999999984               0.000098599              -0.001111911               0.999999984               0.000052042              -0.001110694               0.999999984               0.000002191              -0.001108176               0.999999984              -0.000049328              -0.001105013               0.999999984               0.000356962              -0.001217116               0.999999984               0.000251807              -0.001155964               0.999999984               0.000213064              -0.001125531               0.999999984               0.000200017              -0.001115952               0.999999984               0.000196424              -0.001119487               0.999999984               0.000195718              -0.001130984               0.999999984               0.000194731              -0.001147263               0.999999984               0.000191766              -0.001165903               0.999999984               0.000185159              -0.001185092               0.999999984               0.000173369              -0.001203138               0.999999984               0.000155446              -0.001219126               0.999999984               0.000131233              -0.001232566               0.999999984               0.000100468              -0.001243352               0.999999984               0.000063080              -0.001251503               0.999999984               0.000019250              -0.001257477               0.999999984              -0.000029817              -0.001262009               0.999999984              -0.000082479              -0.001265802               0.999999984               0.000289943              -0.001279633               0.999999984               0.000198032              -0.001245391               0.999999984               0.000161077              -0.001225059               0.999999984               0.000147038              -0.001219088               0.999999984               0.000142222              -0.001223758               0.999999984               0.000140571              -0.001235775               0.999999984               0.000139261              -0.001252782               0.999999984               0.000136798              -0.001272916               0.999999984               0.000131951              -0.001294665               0.999999984               0.000123254              -0.001316641               0.999999984               0.000109484              -0.001337738               0.999999984               0.000090263              -0.001357273               0.999999984               0.000064804              -0.001374831               0.999999984               0.000032414              -0.001390182               0.999999984              -0.000007117              -0.001403376               0.999999984              -0.000053768              -0.001414792               0.999999984              -0.000106847              -0.001425288               0.999999984               0.000220081              -0.001329390               0.999999984               0.000146593              -0.001319845               0.999999984               0.000114711              -0.001311068               0.999999984               0.000101415              -0.001310536               0.999999984               0.000096150              -0.001318062               0.999999984               0.000093706              -0.001332035               0.999999984               0.000092082              -0.001350776               0.999999984               0.000089956              -0.001373027               0.999999984               0.000086307              -0.001397554               0.999999984               0.000079947              -0.001423227               0.999999984               0.000070015              -0.001449134               0.999999984               0.000055667              -0.001474524               0.999999984               0.000035886              -0.001498865               0.999999984               0.000009836              -0.001521648               0.999999984              -0.000023467              -0.001542546               0.999999984              -0.000064965              -0.001561465               0.999999984              -0.000115486              -0.001578831               0.999999984               0.000147971              -0.001365608               0.999999984               0.000096888              -0.001375772               0.999999984               0.000073375              -0.001377681               0.999999984               0.000062824              -0.001383060               0.999999984               0.000058199              -0.001394236               0.999999984               0.000055933              -0.001410798               0.999999984               0.000054277              -0.001431830               0.999999984               0.000052472              -0.001456468               0.999999984               0.000049865              -0.001483810               0.999999984               0.000045710              -0.001512935               0.999999984               0.000039126              -0.001543137               0.999999984               0.000029421              -0.001573807               0.999999984               0.000015859              -0.001604282               0.999999984              -0.000002555              -0.001634155               0.999999984              -0.000027028              -0.001662747               0.999999984              -0.000059091              -0.001689474               0.999999984              -0.000100586              -0.001714041               0.999999984               0.000074354              -0.001387608               0.999999984               0.000048234              -0.001410454               0.999999984               0.000035720              -0.001419940               0.999999984               0.000029843              -0.001429891               0.999999984               0.000027137              -0.001444052               0.999999984               0.000025753              -0.001462931               0.999999984               0.000024712              -0.001485960               0.999999984               0.000023501              -0.001512498               0.999999984               0.000022148              -0.001541960               0.999999984               0.000020154              -0.001573626               0.999999984               0.000016874              -0.001606918               0.999999984               0.000011956              -0.001641290               0.999999984               0.000005013              -0.001676262               0.999999984              -0.000004648              -0.001711350               0.999999984              -0.000017796              -0.001745714               0.999999984              -0.000035436              -0.001778646               0.999999984              -0.000059164              -0.001809093               0.999999984              -0.000000000              -0.001394972               0.999999984              -0.000000000              -0.001422232               0.999999984               0.000000000              -0.001434491               0.999999984              -0.000000000              -0.001446134               0.999999984              -0.000000000              -0.001461458               0.999999984              -0.000000000              -0.001481236               0.999999984               0.000000000              -0.001505130               0.999999984              -0.000000000              -0.001532433               0.999999984              -0.000000000              -0.001562540               0.999999984              -0.000000000              -0.001595046               0.999999984              -0.000000000              -0.001629469               0.999999984               0.000000000              -0.001665264               0.999999984              -0.000000000              -0.001701862               0.999999984              -0.000000000              -0.001738858               0.999999984              -0.000000000              -0.001775326               0.999999984               0.000000000              -0.001810398               0.999999984              -0.000000000              -0.001843035               0.999999984               0.000781546              -0.000000000               0.999999984               0.000833245              -0.000000000               0.999999984               0.000855748               0.000000000               0.999999984               0.000868301               0.000000000               0.999999984               0.000878043               0.000000000               0.999999984               0.000887603               0.000000000               0.999999984               0.000897969               0.000000000               0.999999984               0.000909537              -0.000000000               0.999999984               0.000922333               0.000000000               0.999999984               0.000936143              -0.000000000               0.999999984               0.000950736              -0.000000000               0.999999984               0.000965781               0.000000000               0.999999984               0.000980977               0.000000000               0.999999984               0.000995954               0.000000000               0.999999984               0.001009968              -0.000000000               0.999999984               0.001022201              -0.000000000               0.999999984               0.001031781              -0.000000000               0.999999984               0.000777136               0.000133940               0.999999984               0.000824872               0.000108277               0.999999984               0.000844851               0.000096853               0.999999984               0.000855832               0.000092211               0.999999984               0.000864520               0.000091279               0.999999984               0.000873355               0.000092034               0.999999984               0.000883264               0.000093987               0.999999984               0.000894331               0.000096359               0.999999984               0.000906502               0.000098600               0.999999984               0.000919569               0.000100447               0.999999984               0.000933187               0.000101564               0.999999984               0.000947071               0.000101607               0.999999984               0.000960779               0.000100158               0.999999984               0.000973764               0.000096352               0.999999984               0.000985505               0.000089560               0.999999984               0.000995350               0.000079076               0.999999984               0.001002603               0.000064133               0.999999984               0.000764236               0.000266535               0.999999984               0.000800356               0.000216046               0.999999984               0.000813191               0.000194343               0.999999984               0.000819822               0.000186264               0.999999984               0.000825806               0.000185097               0.999999984               0.000832663               0.000187438               0.999999984               0.000840931               0.000191607               0.999999984               0.000850510               0.000196569               0.999999984               0.000861148               0.000201167               0.999999984               0.000872341               0.000204728               0.999999984               0.000883460               0.000206633               0.999999984               0.000893903               0.000206198               0.999999984               0.000903203               0.000202708               0.999999984               0.000910997               0.000195042               0.999999984               0.000916800               0.000182129               0.999999984               0.000920382               0.000163123               0.999999984               0.000921471               0.000136764               0.999999984               0.000743091               0.000396543               0.999999984               0.000760956               0.000322837               0.999999984               0.000763704               0.000293024               0.999999984               0.000764589               0.000283215               0.999999984               0.000766997               0.000283165               0.999999984               0.000771446               0.000287750               0.999999984               0.000777681               0.000294725               0.999999984               0.000785214               0.000302478               0.999999984               0.000793238               0.000309356               0.999999984               0.000800907               0.000314304               0.999999984               0.000807484               0.000316302               0.999999984               0.000812244               0.000314747               0.999999984               0.000814720               0.000308890               0.999999984               0.000814762               0.000297654               0.999999984               0.000812249               0.000280221               0.999999984               0.000807228               0.000255854               0.999999984               0.000799978               0.000223696               0.999999984               0.000714129               0.000522757               0.999999984               0.000708813               0.000428402               0.999999984               0.000700241               0.000393299               0.999999984               0.000695400               0.000383585               0.999999984               0.000694653               0.000385733               0.999999984               0.000696879               0.000393188               0.999999984               0.000700945               0.000403306               0.999999984               0.000705813               0.000413716               0.999999984               0.000710282               0.000422404               0.999999984               0.000713264               0.000428003               0.999999984               0.000713905               0.000429522               0.999999984               0.000711672               0.000426270               0.999999984               0.000706329               0.000417826               0.999999984               0.000697847               0.000403650               0.999999984               0.000686403               0.000383367               0.999999984               0.000672541               0.000356832               0.999999984               0.000656974               0.000324514               0.999999984               0.000678021               0.000643943               0.999999984               0.000646521               0.000532751               0.999999984               0.000627306               0.000495150               0.999999984               0.000618157               0.000487056               0.999999984               0.000615310               0.000491976               0.999999984               0.000615927               0.000502559               0.999999984               0.000618207               0.000515480               0.999999984               0.000620275               0.000527884               0.999999984               0.000620571               0.000537521               0.999999984               0.000617981               0.000543092               0.999999984               0.000611834               0.000543626               0.999999984               0.000601872               0.000538707               0.999999984               0.000588225               0.000528129               0.999999984               0.000571122               0.000511902               0.999999984               0.000551088               0.000490397               0.999999984               0.000528872               0.000464153               0.999999984               0.000505196               0.000434408               0.999999984               0.000635406               0.000758948               0.999999984               0.000577230               0.000635787               0.999999984               0.000549842               0.000597895               0.999999984               0.000538449               0.000592284               0.999999984               0.000535023               0.000600060               0.999999984               0.000535069               0.000613282               0.999999984               0.000535736               0.000628389               0.999999984               0.000534706               0.000641942               0.999999984               0.000530201               0.000651791               0.999999984               0.000521326               0.000656776               0.999999984               0.000507627               0.000656234               0.999999984               0.000489333               0.000649980               0.999999984               0.000466859               0.000638012               0.999999984               0.000440785               0.000620956               0.999999984               0.000411808               0.000599772               0.999999984               0.000380782               0.000575411               0.999999984               0.000348470               0.000549088               0.999999984               0.000586980               0.000866726               0.999999984               0.000504151               0.000737258               0.999999984               0.000472035               0.000700613               0.999999984               0.000461087               0.000697352               0.999999984               0.000458514               0.000707508               0.999999984               0.000458367               0.000722916               0.999999984               0.000457291               0.000739585               0.999999984               0.000452668               0.000753655               0.999999984               0.000442600               0.000763157               0.999999984               0.000426458               0.000767386               0.999999984               0.000404414               0.000765759               0.999999984               0.000376983               0.000758412               0.999999984               0.000344787               0.000745953               0.999999984               0.000308790               0.000729234               0.999999984               0.000270003               0.000709542               0.999999984               0.000229543               0.000687994               0.999999984               0.000188252               0.000665388               0.999999984               0.000534412               0.000965333               0.999999984               0.000429722               0.000837065               0.999999984               0.000397909               0.000801878               0.999999984               0.000389379               0.000800264               0.999999984               0.000388318               0.000812239               0.999999984               0.000388121               0.000829432               0.999999984               0.000384965               0.000847035               0.999999984               0.000375686               0.000861293               0.999999984               0.000358836               0.000870344               0.999999984               0.000334357               0.000873651               0.999999984               0.000302826               0.000871051               0.999999984               0.000264957               0.000863076               0.999999984               0.000221926               0.000850815               0.999999984               0.000175168               0.000835463               0.999999984               0.000126261               0.000818327               0.999999984               0.000076446               0.000800340               0.999999984               0.000026428               0.000782090               0.999999984               0.000480089               0.001058363               0.999999984               0.000367593               0.000948156               0.999999984               0.000332754               0.000908728               0.999999984               0.000323167               0.000901720               0.999999984               0.000321833               0.000909280               0.999999984               0.000322079               0.000923804               0.999999984               0.000320366               0.000940858               0.999999984               0.000314199               0.000957148               0.999999984               0.000301436               0.000970290               0.999999984               0.000281487               0.000979286               0.999999984               0.000254533               0.000983806               0.999999984               0.000220906               0.000983941               0.999999984               0.000181267               0.000980068               0.999999984               0.000136616               0.000973317               0.999999984               0.000088404               0.000964438               0.999999984               0.000038370               0.000954506               0.999999984              -0.000012281               0.000943970               0.999999984               0.000420546               0.001142934               0.999999984               0.000308307               0.001055537               0.999999984               0.000270572               0.001018289               0.999999984               0.000259315               0.001008238               0.999999984               0.000257088               0.001012822               0.999999984               0.000257097               0.001025253               0.999999984               0.000256103               0.001041649               0.999999984               0.000252006               0.001059250               0.999999984               0.000242785               0.001075717               0.999999984               0.000227055               0.001089581               0.999999984               0.000204677               0.001100168               0.999999984               0.000175532               0.001107320               0.999999984               0.000140088               0.001111033               0.999999984               0.000098599               0.001111911               0.999999984               0.000052042               0.001110694               0.999999984               0.000002191               0.001108176               0.999999984              -0.000049328               0.001105013               0.999999984               0.000356962               0.001217116               0.999999984               0.000251807               0.001155964               0.999999984               0.000213064               0.001125531               0.999999984               0.000200017               0.001115952               0.999999984               0.000196424               0.001119487               0.999999984               0.000195718               0.001130984               0.999999984               0.000194731               0.001147263               0.999999984               0.000191766               0.001165903               0.999999984               0.000185159               0.001185092               0.999999984               0.000173369               0.001203138               0.999999984               0.000155446               0.001219126               0.999999984               0.000131233               0.001232566               0.999999984               0.000100468               0.001243352               0.999999984               0.000063080               0.001251503               0.999999984               0.000019250               0.001257477               0.999999984              -0.000029817               0.001262009               0.999999984              -0.000082479               0.001265802               0.999999984               0.000289943               0.001279633               0.999999984               0.000198032               0.001245391               0.999999984               0.000161077               0.001225059               0.999999984               0.000147038               0.001219088               0.999999984               0.000142222               0.001223758               0.999999984               0.000140571               0.001235775               0.999999984               0.000139261               0.001252782               0.999999984               0.000136798               0.001272916               0.999999984               0.000131951               0.001294665               0.999999984               0.000123254               0.001316641               0.999999984               0.000109484               0.001337738               0.999999984               0.000090263               0.001357273               0.999999984               0.000064804               0.001374831               0.999999984               0.000032414               0.001390182               0.999999984              -0.000007117               0.001403376               0.999999984              -0.000053768               0.001414792               0.999999984              -0.000106847               0.001425288               0.999999984               0.000220081               0.001329390               0.999999984               0.000146593               0.001319845               0.999999984               0.000114711               0.001311068               0.999999984               0.000101415               0.001310536               0.999999984               0.000096150               0.001318062               0.999999984               0.000093706               0.001332035               0.999999984               0.000092082               0.001350776               0.999999984               0.000089956               0.001373027               0.999999984               0.000086307               0.001397554               0.999999984               0.000079947               0.001423227               0.999999984               0.000070015               0.001449134               0.999999984               0.000055667               0.001474524               0.999999984               0.000035886               0.001498865               0.999999984               0.000009836               0.001521648               0.999999984              -0.000023467               0.001542546               0.999999984              -0.000064965               0.001561465               0.999999984              -0.000115486               0.001578831               0.999999984               0.000147971               0.001365608               0.999999984               0.000096888               0.001375772               0.999999984               0.000073375               0.001377681               0.999999984               0.000062824               0.001383060               0.999999984               0.000058199               0.001394236               0.999999984               0.000055933               0.001410798               0.999999984               0.000054277               0.001431830               0.999999984               0.000052472               0.001456468               0.999999984               0.000049865               0.001483810               0.999999984               0.000045710               0.001512935               0.999999984               0.000039126               0.001543137               0.999999984               0.000029421               0.001573807               0.999999984               0.000015859               0.001604282               0.999999984              -0.000002555               0.001634155               0.999999984              -0.000027028               0.001662747               0.999999984              -0.000059091               0.001689474               0.999999984              -0.000100586               0.001714041               0.999999984               0.000074354               0.001387608               0.999999984               0.000048234               0.001410454               0.999999984               0.000035720               0.001419940               0.999999984               0.000029843               0.001429891               0.999999984               0.000027137               0.001444052               0.999999984               0.000025753               0.001462931               0.999999984               0.000024712               0.001485960               0.999999984               0.000023501               0.001512498               0.999999984               0.000022148               0.001541960               0.999999984               0.000020154               0.001573626               0.999999984               0.000016874               0.001606918               0.999999984               0.000011956               0.001641290               0.999999984               0.000005013               0.001676262               0.999999984              -0.000004648               0.001711350               0.999999984              -0.000017796               0.001745714               0.999999984              -0.000035436               0.001778646               0.999999984              -0.000059164               0.001809093               0.999999984              -0.000000000               0.001394972               0.999999984               0.000000000               0.001422232               0.999999984              -0.000000000               0.001434491               0.999999984              -0.000000000               0.001446134               0.999999984               0.000000000               0.001461458               0.999999984               0.000000000               0.001481236               0.999999984               0.000000000               0.001505130               0.999999984               0.000000000               0.001532433               0.999999984               0.000000000               0.001562540               0.999999984               0.000000000               0.001595046               0.999999984               0.000000000               0.001629469               0.999999984              -0.000000000               0.001665264               0.999999984              -0.000000000               0.001701862               0.999999984               0.000000000               0.001738858               0.999999984              -0.000000000               0.001775326               0.999999984              -0.000000000               0.001810398               0.999999984              -0.000000000               0.001843035               0.999999984 </DataArray>
<DataArray type="Float64"                                    Name="stress"                                                      NumberOfComponents="10" format="ascii">
              0.002252580               0.024428976              -0.000000000              -0.002208899               0.008879210               0.006670311               0.000000000               0.000000000               0.000000000               0.000000000               0.002190802               0.018968560              -0.000000000              -0.001549515               0.006839295               0.005289780               0.000000000               0.000000000               0.000000000               0.000000000               0.002847623               0.014517581               0.000000000              -0.000746837               0.005088091               0.004341254               0.000000000               0.000000000               0.000000000               0.000000000               0.002690271               0.011977997               0.000000000              -0.000488397               0.004155425               0.003667028               0.000000000               0.000000000               0.000000000               0.000000000               0.002308465               0.010373115              -0.000000000              -0.000430964               0.003601325               0.003170361               0.000000000               0.000000000               0.000000000               0.000000000               0.001890157               0.009256886              -0.000000000              -0.000448301               0.003235032               0.002786731               0.000000000               0.000000000               0.000000000               0.000000000               0.001499496               0.008437460               0.000000000              -0.000492370               0.002976582               0.002484212               0.000000000               0.000000000               0.000000000               0.000000000               0.001148739               0.007788868              -0.000000000              -0.000542830               0.002777207               0.002234377               0.000000000               0.000000000               0.000000000               0.000000000               0.000841548               0.007235753               0.000000000              -0.000588887               0.002608189               0.002019302               0.000000000               0.000000000               0.000000000               0.000000000               0.000580528               0.006739614               0.000000000              -0.000624752               0.002454766               0.001830014               0.000000000               0.000000000               0.000000000               0.000000000               0.000361748               0.006270645              -0.000000000              -0.000648174               0.002306252               0.001658078               0.000000000               0.000000000               0.000000000               0.000000000               0.000182010               0.005805149               0.000000000              -0.000657388               0.002154160               0.001496771               0.000000000               0.000000000               0.000000000               0.000000000               0.000039680               0.005318785               0.000000000              -0.000649967               0.001989566               0.001339599               0.000000000               0.000000000               0.000000000               0.000000000              -0.000056058               0.004782837              -0.000000000              -0.000618875               0.001800555               0.001181680               0.000000000               0.000000000               0.000000000               0.000000000              -0.000091083               0.004180551               0.000000000              -0.000556724               0.001579078               0.001022354               0.000000000               0.000000000               0.000000000               0.000000000              -0.000062318               0.003494966               0.000000000              -0.000460239               0.001318390               0.000858151               0.000000000               0.000000000               0.000000000               0.000000000              -0.000088728               0.002968609               0.000000000              -0.000404348               0.001124309               0.000719961               0.000000000               0.000000000               0.000000000               0.000000000               0.002325323               0.023915444              -0.001654573              -0.002117430               0.008677545               0.006560115               0.000000000               0.000000000               0.000000000               0.000000000               0.002139368               0.018641859              -0.000803588              -0.001527966               0.006723213               0.005195247               0.000000000               0.000000000               0.000000000               0.000000000               0.002659291               0.014380218               0.000034578              -0.000800291               0.005060122               0.004259831               0.000000000               0.000000000               0.000000000               0.000000000               0.002449875               0.011944881               0.000381544              -0.000574406               0.004173056               0.003598650               0.000000000               0.000000000               0.000000000               0.000000000               0.002056224               0.010392704               0.000518940              -0.000528003               0.003640201               0.003112198               0.000000000               0.000000000               0.000000000               0.000000000               0.001643289               0.009310224               0.000566793              -0.000547543               0.003285892               0.002738348               0.000000000               0.000000000               0.000000000               0.000000000               0.001265802               0.008501793               0.000575506              -0.000588047               0.003029919               0.002441871               0.000000000               0.000000000               0.000000000               0.000000000               0.000938544               0.007858645               0.000558249              -0.000630375               0.002829647               0.002199272               0.000000000               0.000000000               0.000000000               0.000000000               0.000656882               0.007306686               0.000529722              -0.000667004               0.002657872               0.001990869               0.000000000               0.000000000               0.000000000               0.000000000               0.000424068               0.006806111               0.000498202              -0.000691737               0.002499260               0.001807523               0.000000000               0.000000000               0.000000000               0.000000000               0.000234854               0.006328629               0.000465321              -0.000703007               0.002343857               0.001640851               0.000000000               0.000000000               0.000000000               0.000000000               0.000084588               0.005852007               0.000430696              -0.000699779               0.002183909               0.001484130               0.000000000               0.000000000               0.000000000               0.000000000              -0.000023724               0.005358879               0.000384811              -0.000678755               0.002012527               0.001333772               0.000000000               0.000000000               0.000000000               0.000000000              -0.000087812               0.004829412               0.000321973              -0.000636604               0.001821989               0.001185385               0.000000000               0.000000000               0.000000000               0.000000000              -0.000103974               0.004249013               0.000241942              -0.000570116               0.001606362               0.001036246               0.000000000               0.000000000               0.000000000               0.000000000              -0.000067080               0.003608752               0.000136832              -0.000476248               0.001361655               0.000885407               0.000000000               0.000000000               0.000000000               0.000000000              -0.000087607               0.003127167               0.000088308              -0.000423747               0.001183628               0.000759880               0.000000000               0.000000000               0.000000000               0.000000000               0.002505893               0.022451381              -0.003073619              -0.001866710               0.008105955               0.006239246               0.000000000               0.000000000               0.000000000               0.000000000               0.001974267               0.017710678              -0.001496055              -0.001473481               0.006394661               0.004921179               0.000000000               0.000000000               0.000000000               0.000000000               0.002122910               0.013989274               0.000044537              -0.000952566               0.004980566               0.004028001               0.000000000               0.000000000               0.000000000               0.000000000               0.001779009               0.011832091               0.000660945              -0.000811881               0.004214618               0.003402737               0.000000000               0.000000000               0.000000000               0.000000000               0.001363438               0.010424608               0.000899236              -0.000791785               0.003738763               0.002946978               0.000000000               0.000000000               0.000000000               0.000000000               0.000981524               0.009419605               0.000977429              -0.000809377               0.003409629               0.002600252               0.000000000               0.000000000               0.000000000               0.000000000               0.000650157               0.008645315               0.000988059              -0.000836854               0.003160694               0.002323840               0.000000000               0.000000000               0.000000000               0.000000000               0.000377357               0.008012085               0.000957368              -0.000860000               0.002957335               0.002097335               0.000000000               0.000000000               0.000000000               0.000000000               0.000160213               0.007456680               0.000905808              -0.000872003               0.002776203               0.001904200               0.000000000               0.000000000               0.000000000               0.000000000               0.000001394               0.006942041               0.000849760              -0.000867231               0.002603067               0.001735837               0.000000000               0.000000000               0.000000000               0.000000000              -0.000103064               0.006444276               0.000792044              -0.000844182               0.002429464               0.001585283               0.000000000               0.000000000               0.000000000               0.000000000              -0.000163876               0.005951137               0.000731221              -0.000805344               0.002252140               0.001446797               0.000000000               0.000000000               0.000000000               0.000000000              -0.000193220               0.005452873               0.000653300              -0.000754065               0.002068961               0.001314896               0.000000000               0.000000000               0.000000000               0.000000000              -0.000188342               0.004948169               0.000545949              -0.000689148               0.001879089               0.001189941               0.000000000               0.000000000               0.000000000               0.000000000              -0.000150995               0.004436517               0.000408510              -0.000611186               0.001682553               0.001071367               0.000000000               0.000000000               0.000000000               0.000000000              -0.000086316               0.003918268               0.000230119              -0.000522151               0.001480126               0.000957976               0.000000000               0.000000000               0.000000000               0.000000000              -0.000087297               0.003553944               0.000144727              -0.000476978               0.001343629               0.000866651               0.000000000               0.000000000               0.000000000               0.000000000               0.002676742               0.020232599              -0.004072323              -0.001525295               0.007252563               0.005727268               0.000000000               0.000000000               0.000000000               0.000000000               0.001657091               0.016310001              -0.001994068              -0.001417338               0.005909058               0.004491720               0.000000000               0.000000000               0.000000000               0.000000000               0.001293014               0.013401601               0.000008766              -0.001190317               0.004863928               0.003673611               0.000000000               0.000000000               0.000000000               0.000000000               0.000803911               0.011630563               0.000771621              -0.001152351               0.004260932               0.003108581               0.000000000               0.000000000               0.000000000               0.000000000               0.000388780               0.010412200               0.001051332              -0.001155730               0.003855942               0.002700212               0.000000000               0.000000000               0.000000000               0.000000000               0.000066661               0.009496551               0.001137723              -0.001162068               0.003552841               0.002390773               0.000000000               0.000000000               0.000000000               0.000000000              -0.000178986               0.008768108               0.001146153              -0.001163131               0.003310383               0.002147253               0.000000000               0.000000000               0.000000000               0.000000000              -0.000355055               0.008144231               0.001108737              -0.001151172               0.003098440               0.001947268               0.000000000               0.000000000               0.000000000               0.000000000              -0.000461763               0.007579031               0.001048224              -0.001120537               0.002899831               0.001779293               0.000000000               0.000000000               0.000000000               0.000000000              -0.000508523               0.007044321               0.000980321              -0.001071234               0.002705161               0.001633928               0.000000000               0.000000000               0.000000000               0.000000000              -0.000502398               0.006527263               0.000909833              -0.001004305               0.002510501               0.001506196               0.000000000               0.000000000               0.000000000               0.000000000              -0.000454081               0.006025580               0.000834820              -0.000923476               0.002316332               0.001392856               0.000000000               0.000000000               0.000000000               0.000000000              -0.000384364               0.005540564               0.000738953              -0.000836705               0.002125738               0.001289033               0.000000000               0.000000000               0.000000000               0.000000000              -0.000299154               0.005083620               0.000611613              -0.000747634               0.001943734               0.001196101               0.000000000               0.000000000               0.000000000               0.000000000              -0.000200781               0.004667700               0.000450529              -0.000658754               0.001775469               0.001116715               0.000000000               0.000000000               0.000000000               0.000000000              -0.000100030               0.004304197               0.000247879              -0.000575534               0.001626563               0.001051028               0.000000000               0.000000000               0.000000000               0.000000000              -0.000072838               0.004086226               0.000147358              -0.000538091               0.001541426               0.001003334               0.000000000               0.000000000               0.000000000               0.000000000               0.002689216               0.017522748              -0.004567893              -0.001181888               0.006234819               0.005052931               0.000000000               0.000000000               0.000000000               0.000000000               0.001167132               0.014631478              -0.002271376              -0.001391258               0.005340863               0.003949605               0.000000000               0.000000000               0.000000000               0.000000000               0.000269488               0.012691096              -0.000091322              -0.001485325               0.004725432               0.003240106               0.000000000               0.000000000               0.000000000               0.000000000              -0.000317793               0.011338891               0.000687516              -0.001536530               0.004291769               0.002755239               0.000000000               0.000000000               0.000000000               0.000000000              -0.000678616               0.010307401               0.000959925              -0.001542903               0.003950067               0.002407164               0.000000000               0.000000000               0.000000000               0.000000000              -0.000892456               0.009482123               0.001044301              -0.001519933               0.003667320               0.002147387               0.000000000               0.000000000               0.000000000               0.000000000              -0.001011044               0.008787424               0.001053574              -0.001477566               0.003421634               0.001944068               0.000000000               0.000000000               0.000000000               0.000000000              -0.001056082               0.008160436               0.001017862              -0.001416082               0.003192145               0.001776063               0.000000000               0.000000000               0.000000000               0.000000000              -0.001032113               0.007577080               0.000959440              -0.001334174               0.002970393               0.001636219               0.000000000               0.000000000               0.000000000               0.000000000              -0.000951524               0.007027919               0.000891136              -0.001235309               0.002754386               0.001519077               0.000000000               0.000000000               0.000000000               0.000000000              -0.000830086               0.006509690               0.000816201              -0.001124991               0.002544872               0.001419881               0.000000000               0.000000000               0.000000000               0.000000000              -0.000685047               0.006022527               0.000733696              -0.001009706               0.002344058               0.001334351               0.000000000               0.000000000               0.000000000               0.000000000              -0.000529212               0.005574477               0.000633675              -0.000895262               0.002156561               0.001261299               0.000000000               0.000000000               0.000000000               0.000000000              -0.000370197               0.005183302               0.000508431              -0.000786735               0.001989995               0.001203260               0.000000000               0.000000000               0.000000000               0.000000000              -0.000222890               0.004864251               0.000356414              -0.000691613               0.001851939               0.001160325               0.000000000               0.000000000               0.000000000               0.000000000              -0.000100825               0.004633231               0.000183584              -0.000616962               0.001750049               0.001133087               0.000000000               0.000000000               0.000000000               0.000000000              -0.000055679               0.004526705               0.000099703              -0.000586716               0.001704459               0.001117742               0.000000000               0.000000000               0.000000000               0.000000000               0.002425834               0.014605236              -0.004565847              -0.000915968               0.005173685               0.004257717               0.000000000               0.000000000               0.000000000               0.000000000               0.000511398               0.012853812              -0.002354682              -0.001414950               0.004756211               0.003341260               0.000000000               0.000000000               0.000000000               0.000000000              -0.000823944               0.011901240              -0.000281163              -0.001796630               0.004565917               0.002769287               0.000000000               0.000000000               0.000000000               0.000000000              -0.001415021               0.010939699               0.000415214              -0.001898090               0.004279227               0.002381136               0.000000000               0.000000000               0.000000000               0.000000000              -0.001653425               0.010074005               0.000656726              -0.001879280               0.003984395               0.002105114               0.000000000               0.000000000               0.000000000               0.000000000              -0.001721516               0.009317583               0.000739643              -0.001810262               0.003709250               0.001898988               0.000000000               0.000000000               0.000000000               0.000000000              -0.001690409               0.008641831               0.000758418              -0.001714128               0.003451958               0.001737829               0.000000000               0.000000000               0.000000000               0.000000000              -0.001582029               0.008011695               0.000737622              -0.001594719               0.003202111               0.001607392               0.000000000               0.000000000               0.000000000               0.000000000              -0.001417359               0.007423069               0.000697504              -0.001459390               0.002960795               0.001501405               0.000000000               0.000000000               0.000000000               0.000000000              -0.001214879               0.006880426               0.000645379              -0.001315630               0.002731995               0.001416366               0.000000000               0.000000000               0.000000000               0.000000000              -0.000995034               0.006386058               0.000582144              -0.001171392               0.002519129               0.001347736               0.000000000               0.000000000               0.000000000               0.000000000              -0.000777075               0.005942041               0.000507210              -0.001034156               0.002325379               0.001291223               0.000000000               0.000000000               0.000000000               0.000000000              -0.000569033               0.005553075               0.000418755              -0.000907519               0.002153513               0.001245993               0.000000000               0.000000000               0.000000000               0.000000000              -0.000375715               0.005235393               0.000317668              -0.000795315               0.002010219               0.001214903               0.000000000               0.000000000               0.000000000               0.000000000              -0.000213273               0.005001516               0.000205455              -0.000705165               0.001902211               0.001197045               0.000000000               0.000000000               0.000000000               0.000000000              -0.000090060               0.004858076               0.000094729              -0.000641030               0.001833019               0.001191989               0.000000000               0.000000000               0.000000000               0.000000000              -0.000044124               0.004802825               0.000046592              -0.000616898               0.001806559               0.001189660               0.000000000               0.000000000               0.000000000               0.000000000               0.001804940               0.011726115              -0.004150377              -0.000788914               0.004171636               0.003382722               0.000000000               0.000000000               0.000000000               0.000000000              -0.000288183               0.011110904              -0.002303011              -0.001496930               0.004202574               0.002705644               0.000000000               0.000000000               0.000000000               0.000000000              -0.001868010               0.011060976              -0.000569087              -0.002083120               0.004381329               0.002298208               0.000000000               0.000000000               0.000000000               0.000000000              -0.002346085               0.010419520              -0.000003037              -0.002182217               0.004200544               0.002018328               0.000000000               0.000000000               0.000000000               0.000000000              -0.002412345               0.009688188               0.000208182              -0.002115648               0.003934580               0.001818932               0.000000000               0.000000000               0.000000000               0.000000000              -0.002311247               0.008995332               0.000306317              -0.001991129               0.003662124               0.001670995               0.000000000               0.000000000               0.000000000               0.000000000              -0.002120557               0.008349082               0.000353409              -0.001838840               0.003395946               0.001557106               0.000000000               0.000000000               0.000000000               0.000000000              -0.001861918               0.007734549               0.000363982              -0.001665034               0.003133168               0.001468135               0.000000000               0.000000000               0.000000000               0.000000000              -0.001567759               0.007165141               0.000358451              -0.001483548               0.002882873               0.001399324               0.000000000               0.000000000               0.000000000               0.000000000              -0.001265524               0.006652627               0.000338858              -0.001306147               0.002652902               0.001346756               0.000000000               0.000000000               0.000000000               0.000000000              -0.000976275               0.006198903               0.000303904              -0.001140963               0.002446601               0.001305638               0.000000000               0.000000000               0.000000000               0.000000000              -0.000716800               0.005806165               0.000254649              -0.000994568               0.002266892               0.001272323               0.000000000               0.000000000               0.000000000               0.000000000              -0.000491105               0.005482924               0.000196183              -0.000869528               0.002117465               0.001247938               0.000000000               0.000000000               0.000000000               0.000000000              -0.000301793               0.005236659               0.000137677              -0.000767753               0.002001453               0.001233700               0.000000000               0.000000000               0.000000000               0.000000000              -0.000157715               0.005069107               0.000081678              -0.000692780               0.001920612               0.001227832               0.000000000               0.000000000               0.000000000               0.000000000              -0.000061117               0.004974053               0.000033660              -0.000644674               0.001872892               0.001228218               0.000000000               0.000000000               0.000000000               0.000000000              -0.000030797               0.004935777               0.000017234              -0.000628520               0.001854749               0.001226230               0.000000000               0.000000000               0.000000000               0.000000000               0.000852927               0.009057787              -0.003438408              -0.000812377               0.003290023               0.002477647               0.000000000               0.000000000               0.000000000               0.000000000              -0.001189274               0.009503432              -0.002173106              -0.001633904               0.003712413               0.002078509               0.000000000               0.000000000               0.000000000               0.000000000              -0.002768826               0.010187743              -0.000947744              -0.002311772               0.004166471               0.001854699               0.000000000               0.000000000               0.000000000               0.000000000              -0.003030108               0.009789063              -0.000506043              -0.002359917               0.004049627               0.001689710               0.000000000               0.000000000               0.000000000               0.000000000              -0.002894579               0.009179888              -0.000292546              -0.002232948               0.003804248               0.001571300               0.000000000               0.000000000               0.000000000               0.000000000              -0.002622465               0.008565109              -0.000158325              -0.002054058               0.003539694               0.001485636               0.000000000               0.000000000               0.000000000               0.000000000              -0.002283617               0.007963085              -0.000069272              -0.001851737               0.003271581               0.001419844               0.000000000               0.000000000               0.000000000               0.000000000              -0.001897855               0.007387341              -0.000014526              -0.001635109               0.003007459               0.001372350               0.000000000               0.000000000               0.000000000               0.000000000              -0.001501536               0.006860578               0.000026216              -0.001420645               0.002760385               0.001339740               0.000000000               0.000000000               0.000000000               0.000000000              -0.001135410               0.006389347               0.000049810              -0.001224444               0.002537909               0.001313465               0.000000000               0.000000000               0.000000000               0.000000000              -0.000814243               0.005978449               0.000053866              -0.001052645               0.002343678               0.001291033               0.000000000               0.000000000               0.000000000               0.000000000              -0.000542886               0.005637457               0.000048036              -0.000908262               0.002181888               0.001273625               0.000000000               0.000000000               0.000000000               0.000000000              -0.000326246               0.005375349               0.000035830              -0.000794259               0.002056518               0.001262259               0.000000000               0.000000000               0.000000000               0.000000000              -0.000169391               0.005189210               0.000024178              -0.000712171               0.001967110               0.001254938               0.000000000               0.000000000               0.000000000               0.000000000              -0.000070867               0.005070008               0.000015503              -0.000660324               0.001910094               0.001249770               0.000000000               0.000000000               0.000000000               0.000000000              -0.000021715               0.005003763               0.000007271              -0.000633612               0.001879108               0.001245497               0.000000000               0.000000000               0.000000000               0.000000000              -0.000011626               0.004977665               0.000005643              -0.000626566               0.001868061               0.001241494               0.000000000               0.000000000               0.000000000               0.000000000              -0.000284572               0.006790812              -0.002556321              -0.000955565               0.002582102               0.001626537               0.000000000               0.000000000               0.000000000               0.000000000              -0.002066777               0.008063773              -0.002021915              -0.001783010               0.003282233               0.001499224               0.000000000               0.000000000               0.000000000               0.000000000              -0.003463933               0.009324384              -0.001403301              -0.002464517               0.003929603               0.001465085               0.000000000               0.000000000               0.000000000               0.000000000              -0.003484631               0.009185484              -0.001043028              -0.002454916               0.003880103               0.001425187               0.000000000               0.000000000               0.000000000               0.000000000              -0.003175897               0.008729084              -0.000800890              -0.002282091               0.003670363               0.001388271               0.000000000               0.000000000               0.000000000               0.000000000              -0.002769847               0.008215973              -0.000621007              -0.002065684               0.003427192               0.001361508               0.000000000               0.000000000               0.000000000               0.000000000              -0.002316978               0.007684052              -0.000481160              -0.001829369               0.003171115               0.001341746               0.000000000               0.000000000               0.000000000               0.000000000              -0.001834212               0.007165684              -0.000373148              -0.001583536               0.002916383               0.001332847               0.000000000               0.000000000               0.000000000               0.000000000              -0.001371717               0.006683686              -0.000283838              -0.001349851               0.002677824               0.001327972               0.000000000               0.000000000               0.000000000               0.000000000              -0.000966913               0.006244015              -0.000213040              -0.001143092               0.002462348               0.001319256               0.000000000               0.000000000               0.000000000               0.000000000              -0.000627413               0.005860613              -0.000158513              -0.000967854               0.002276136               0.001308282               0.000000000               0.000000000               0.000000000               0.000000000              -0.000356974               0.005547955              -0.000111091              -0.000827358               0.002125086               0.001297728               0.000000000               0.000000000               0.000000000               0.000000000              -0.000162895               0.005311852              -0.000069098              -0.000725065               0.002012288               0.001287223               0.000000000               0.000000000               0.000000000               0.000000000              -0.000046894               0.005152941              -0.000035231              -0.000661701               0.001938197               0.001276496               0.000000000               0.000000000               0.000000000               0.000000000               0.000002310               0.005056431              -0.000011716              -0.000631186               0.001895856               0.001264670               0.000000000               0.000000000               0.000000000               0.000000000               0.000011929               0.005007699              -0.000000838              -0.000621487               0.001876379               0.001254891               0.000000000               0.000000000               0.000000000               0.000000000               0.000008975               0.004991860               0.000002347              -0.000620615               0.001870809               0.001250193               0.000000000               0.000000000               0.000000000               0.000000000              -0.001622729               0.004687933              -0.001618390              -0.001194513               0.001960799               0.000766286               0.000000000               0.000000000               0.000000000               0.000000000              -0.002800540               0.006421824              -0.001854459              -0.001852927               0.002758228               0.000905302               0.000000000               0.000000000               0.000000000               0.000000000              -0.003867018               0.008105519              -0.001885902              -0.002463316               0.003522918               0.001059602               0.000000000               0.000000000               0.000000000               0.000000000              -0.003743956               0.008348697              -0.001617725              -0.002447565               0.003598726               0.001151161               0.000000000               0.000000000               0.000000000               0.000000000              -0.003350548               0.008154283              -0.001353172              -0.002275736               0.003476646               0.001200910               0.000000000               0.000000000               0.000000000               0.000000000              -0.002899728               0.007835798              -0.001125794              -0.002066868               0.003300862               0.001233995               0.000000000               0.000000000               0.000000000               0.000000000              -0.002430103               0.007464005              -0.000936311              -0.001844285               0.003102738               0.001258454               0.000000000               0.000000000               0.000000000               0.000000000              -0.001938819               0.007068178              -0.000777435              -0.001610575               0.002892894               0.001282319               0.000000000               0.000000000               0.000000000               0.000000000              -0.001458563               0.006672196              -0.000637462              -0.001380982               0.002684370               0.001303388               0.000000000               0.000000000               0.000000000               0.000000000              -0.001030546               0.006294232              -0.000514821              -0.001173231               0.002489133               0.001315902               0.000000000               0.000000000               0.000000000               0.000000000              -0.000668202               0.005948210              -0.000404765              -0.000994100               0.002314083               0.001319984               0.000000000               0.000000000               0.000000000               0.000000000              -0.000377850               0.005642296              -0.000301508              -0.000846979               0.002163073               0.001316094               0.000000000               0.000000000               0.000000000               0.000000000              -0.000158835               0.005398402              -0.000203415              -0.000734362               0.002044237               0.001309875               0.000000000               0.000000000               0.000000000               0.000000000              -0.000018425               0.005221198              -0.000115369              -0.000659557               0.001960234               0.001300677               0.000000000               0.000000000               0.000000000               0.000000000               0.000046580               0.005102706              -0.000050918              -0.000620369               0.001907675               0.001287305               0.000000000               0.000000000               0.000000000               0.000000000               0.000059923               0.005033473              -0.000015289              -0.000606711               0.001880045               0.001273333               0.000000000               0.000000000               0.000000000               0.000000000               0.000053391               0.005005065              -0.000003140              -0.000605610               0.001870208               0.001264599               0.000000000               0.000000000               0.000000000               0.000000000              -0.003348184               0.002791867              -0.000693331              -0.001604549               0.001465462              -0.000139088               0.000000000               0.000000000               0.000000000               0.000000000              -0.003630957               0.004783716              -0.001615089              -0.001959569               0.002247745               0.000288176               0.000000000               0.000000000               0.000000000               0.000000000              -0.004178806               0.006699033              -0.002271099              -0.002404426               0.003034463               0.000630037               0.000000000               0.000000000               0.000000000               0.000000000              -0.003920998               0.007311246              -0.002168526              -0.002384275               0.003231815               0.000847540               0.000000000               0.000000000               0.000000000               0.000000000              -0.003469537               0.007421926              -0.001917576              -0.002228812               0.003216888               0.000988075               0.000000000               0.000000000               0.000000000               0.000000000              -0.002996767               0.007330963              -0.001662858              -0.002040154               0.003123681               0.001083527               0.000000000               0.000000000               0.000000000               0.000000000              -0.002530565               0.007145509              -0.001435746              -0.001842146               0.002995861               0.001153715               0.000000000               0.000000000               0.000000000               0.000000000              -0.002060294               0.006898564              -0.001234574              -0.001634927               0.002844474               0.001209547               0.000000000               0.000000000               0.000000000               0.000000000              -0.001584544               0.006616456              -0.001050791              -0.001421258               0.002679216               0.001257958               0.000000000               0.000000000               0.000000000               0.000000000              -0.001136135               0.006320489              -0.000882380              -0.001216109               0.002512178               0.001296069               0.000000000               0.000000000               0.000000000               0.000000000              -0.000740158               0.006030044              -0.000725513              -0.001031312               0.002353765               0.001322453               0.000000000               0.000000000               0.000000000               0.000000000              -0.000404368               0.005753815              -0.000576527              -0.000870863               0.002208207               0.001337344               0.000000000               0.000000000               0.000000000               0.000000000              -0.000134362               0.005511534              -0.000429562              -0.000739326               0.002083601               0.001344276               0.000000000               0.000000000               0.000000000               0.000000000               0.000059765               0.005315081              -0.000282226              -0.000641972               0.001985667               0.001343695               0.000000000               0.000000000               0.000000000               0.000000000               0.000167150               0.005167168              -0.000155607              -0.000583214               0.001916777               0.001333563               0.000000000               0.000000000               0.000000000               0.000000000               0.000193348               0.005064025              -0.000063793              -0.000560496               0.001874823               0.001314327               0.000000000               0.000000000               0.000000000               0.000000000               0.000179583               0.005017982              -0.000024488              -0.000559903               0.001859278               0.001299376               0.000000000               0.000000000               0.000000000               0.000000000              -0.005343984               0.001242275               0.000132898              -0.002159276               0.001133842              -0.001025433               0.000000000               0.000000000               0.000000000               0.000000000              -0.004611527               0.003240279              -0.001288128              -0.002134354               0.001791531              -0.000342822               0.000000000               0.000000000               0.000000000               0.000000000              -0.004431119               0.005113071              -0.002439363              -0.002300799               0.002471272               0.000170473               0.000000000               0.000000000               0.000000000               0.000000000              -0.003964610               0.005988729              -0.002541995              -0.002235315               0.002741327               0.000506012               0.000000000               0.000000000               0.000000000               0.000000000              -0.003443131               0.006377296              -0.002355603              -0.002088332               0.002821854               0.000733522               0.000000000               0.000000000               0.000000000               0.000000000              -0.002946605               0.006523413              -0.002110384              -0.001920400               0.002814582               0.000894182               0.000000000               0.000000000               0.000000000               0.000000000              -0.002483105               0.006537469              -0.001873268              -0.001748344               0.002761915               0.001013571               0.000000000               0.000000000               0.000000000               0.000000000              -0.002034592               0.006464749              -0.001656230              -0.001571062               0.002678582               0.001107519               0.000000000               0.000000000               0.000000000               0.000000000              -0.001581916               0.006329000              -0.001452279              -0.001384340               0.002571092               0.001186752               0.000000000               0.000000000               0.000000000               0.000000000              -0.001134954               0.006149512              -0.001256901              -0.001194294               0.002447915               0.001253621               0.000000000               0.000000000               0.000000000               0.000000000              -0.000717755               0.005950334              -0.001072008              -0.001012948               0.002321074               0.001308126               0.000000000               0.000000000               0.000000000               0.000000000              -0.000339333               0.005747406              -0.000893535              -0.000845674               0.002197674               0.001352000               0.000000000               0.000000000               0.000000000               0.000000000              -0.000018836               0.005547367              -0.000707914              -0.000700483               0.002082598               0.001382115               0.000000000               0.000000000               0.000000000               0.000000000               0.000230362               0.005361146              -0.000511499              -0.000583756               0.001981616               0.001397860               0.000000000               0.000000000               0.000000000               0.000000000               0.000396267               0.005207135              -0.000318884              -0.000502291               0.001903125               0.001400834               0.000000000               0.000000000               0.000000000               0.000000000               0.000461763               0.005091338              -0.000148818              -0.000463255               0.001851514               0.001388259               0.000000000               0.000000000               0.000000000               0.000000000               0.000454562               0.005036093              -0.000067735              -0.000459050               0.001831697               0.001372648               0.000000000               0.000000000               0.000000000               0.000000000              -0.007463709               0.000118620               0.000743619              -0.002813716               0.000977439              -0.001836277               0.000000000               0.000000000               0.000000000               0.000000000              -0.005681826               0.001877175              -0.000924343              -0.002365328               0.001414158              -0.000951171               0.000000000               0.000000000               0.000000000               0.000000000              -0.004651845               0.003484364              -0.002361166              -0.002179983               0.001888102              -0.000291881               0.000000000               0.000000000               0.000000000               0.000000000              -0.003895319               0.004484710              -0.002643147              -0.002021330               0.002168664               0.000147334               0.000000000               0.000000000               0.000000000               0.000000000              -0.003273239               0.005085887              -0.002549942              -0.001863197               0.002316343               0.000453146               0.000000000               0.000000000               0.000000000               0.000000000              -0.002747720               0.005447253              -0.002349421              -0.001711298               0.002386165               0.000674866               0.000000000               0.000000000               0.000000000               0.000000000              -0.002278577               0.005662219              -0.002135587              -0.001562241               0.002408134               0.000845893               0.000000000               0.000000000               0.000000000               0.000000000              -0.001841302               0.005776158              -0.001933176              -0.001412505               0.002396201               0.000983696               0.000000000               0.000000000               0.000000000               0.000000000              -0.001415362               0.005807181              -0.001736425              -0.001256656               0.002354592               0.001097936               0.000000000               0.000000000               0.000000000               0.000000000              -0.000991014               0.005772394              -0.001540348              -0.001093177               0.002288504               0.001195327               0.000000000               0.000000000               0.000000000               0.000000000              -0.000569569               0.005696242              -0.001353166              -0.000925617               0.002207267               0.001281650               0.000000000               0.000000000               0.000000000               0.000000000              -0.000166230               0.005594808              -0.001167229              -0.000761686               0.002118812               0.001357126               0.000000000               0.000000000               0.000000000               0.000000000               0.000201584               0.005472377              -0.000965117              -0.000608452               0.002026925               0.001418473               0.000000000               0.000000000               0.000000000               0.000000000               0.000518750               0.005336588              -0.000744533              -0.000472541               0.001936358               0.001463817               0.000000000               0.000000000               0.000000000               0.000000000               0.000766867               0.005203190              -0.000506741              -0.000362823               0.001855320               0.001492497               0.000000000               0.000000000               0.000000000               0.000000000               0.000917709               0.005094046              -0.000257036              -0.000292614               0.001795536               0.001502922               0.000000000               0.000000000               0.000000000               0.000000000               0.000959304               0.005045064              -0.000129685              -0.000270894               0.001771969               0.001501076               0.000000000               0.000000000               0.000000000               0.000000000              -0.009503627              -0.000592993               0.001034353              -0.003489733               0.000965573              -0.002524160               0.000000000               0.000000000               0.000000000               0.000000000              -0.006743097               0.000774337              -0.000583118              -0.002625451               0.001133255              -0.001492196               0.000000000               0.000000000               0.000000000               0.000000000              -0.004854381               0.001967074              -0.002035084              -0.002066274               0.001344439              -0.000721835               0.000000000               0.000000000               0.000000000               0.000000000              -0.003764377               0.002966741              -0.002416024              -0.001782481               0.001583062              -0.000199419               0.000000000               0.000000000               0.000000000               0.000000000              -0.003012666               0.003708176              -0.002408266              -0.001593269               0.001767135               0.000173866               0.000000000               0.000000000               0.000000000               0.000000000              -0.002434626               0.004243150              -0.002272444              -0.001443376               0.001895493               0.000452117               0.000000000               0.000000000               0.000000000               0.000000000              -0.001954198               0.004632319              -0.002108405              -0.001311862               0.001981377               0.000669515               0.000000000               0.000000000               0.000000000               0.000000000              -0.001524552               0.004914946              -0.001943601              -0.001186073               0.002033656               0.000847583               0.000000000               0.000000000               0.000000000               0.000000000              -0.001118701               0.005103768              -0.001778580              -0.001057482               0.002053732               0.000996250               0.000000000               0.000000000               0.000000000               0.000000000              -0.000713449               0.005218810              -0.001612264              -0.000919893               0.002046217               0.001126323               0.000000000               0.000000000               0.000000000               0.000000000              -0.000300545               0.005281115              -0.001448725              -0.000772842               0.002017968               0.001245125               0.000000000               0.000000000               0.000000000               0.000000000               0.000113612               0.005302748              -0.001279239              -0.000620238               0.001974311               0.001354073               0.000000000               0.000000000               0.000000000               0.000000000               0.000525287               0.005289706              -0.001093476              -0.000464230               0.001917961               0.001453731               0.000000000               0.000000000               0.000000000               0.000000000               0.000922907               0.005243025              -0.000883935              -0.000309288               0.001850753               0.001541466               0.000000000               0.000000000               0.000000000               0.000000000               0.001283794               0.005166057              -0.000637531              -0.000164334               0.001776780               0.001612446               0.000000000               0.000000000               0.000000000               0.000000000               0.001581736               0.005080786              -0.000343386              -0.000041948               0.001707561               0.001665613               0.000000000               0.000000000               0.000000000               0.000000000               0.001741324               0.005050698              -0.000189263               0.000021658               0.001676330               0.001697988               0.000000000               0.000000000               0.000000000               0.000000000              -0.011220095              -0.000979775               0.000960962              -0.004085061               0.001035088              -0.003049973               0.000000000               0.000000000               0.000000000               0.000000000              -0.007663894              -0.000024735              -0.000312819              -0.002870866               0.000948704              -0.001922162               0.000000000               0.000000000               0.000000000               0.000000000              -0.005031852               0.000733905              -0.001490170              -0.001978681               0.000904188              -0.001074492               0.000000000               0.000000000               0.000000000               0.000000000              -0.003622640               0.001658305              -0.001851927              -0.001565776               0.001074685              -0.000491091               0.000000000               0.000000000               0.000000000               0.000000000              -0.002737208               0.002464701              -0.001895755              -0.001334538               0.001266403              -0.000068135               0.000000000               0.000000000               0.000000000               0.000000000              -0.002098006               0.003114585              -0.001822025              -0.001176073               0.001430208               0.000254135               0.000000000               0.000000000               0.000000000               0.000000000              -0.001596582               0.003631704              -0.001713624              -0.001052679               0.001561448               0.000508769               0.000000000               0.000000000               0.000000000               0.000000000              -0.001170224               0.004042777              -0.001600571              -0.000944180               0.001662305               0.000718125               0.000000000               0.000000000               0.000000000               0.000000000              -0.000772737               0.004361362              -0.001487675              -0.000834945               0.001732087               0.000897142               0.000000000               0.000000000               0.000000000               0.000000000              -0.000377281               0.004605865              -0.001370056              -0.000717213               0.001774343               0.001057131               0.000000000               0.000000000               0.000000000               0.000000000               0.000026734               0.004794831              -0.001248063              -0.000589328               0.001794703               0.001205375               0.000000000               0.000000000               0.000000000               0.000000000               0.000448517               0.004935058              -0.001121479              -0.000448688               0.001794565               0.001345877               0.000000000               0.000000000               0.000000000               0.000000000               0.000899073               0.005038197              -0.000981747              -0.000292622               0.001776923               0.001484301               0.000000000               0.000000000               0.000000000               0.000000000               0.001374229               0.005097427              -0.000816528              -0.000121843               0.001739740               0.001617897               0.000000000               0.000000000               0.000000000               0.000000000               0.001866451               0.005100801              -0.000609515               0.000062318               0.001679477               0.001741795               0.000000000               0.000000000               0.000000000               0.000000000               0.002370244               0.005060804              -0.000340140               0.000256239               0.001601505               0.001857743               0.000000000               0.000000000               0.000000000               0.000000000               0.002719690               0.005066887              -0.000199695               0.000386519               0.001560106               0.001946625               0.000000000               0.000000000               0.000000000               0.000000000              -0.012368675              -0.001149715               0.000571797              -0.004494536               0.001114933              -0.003379603               0.000000000               0.000000000               0.000000000               0.000000000              -0.008299393              -0.000501645              -0.000128450              -0.003049565               0.000849301              -0.002200264               0.000000000               0.000000000               0.000000000               0.000000000              -0.005160346              -0.000068475              -0.000787422              -0.001926569               0.000619360              -0.001307209               0.000000000               0.000000000               0.000000000               0.000000000              -0.003513313               0.000766789              -0.001007482              -0.001413339               0.000726704              -0.000686635               0.000000000               0.000000000               0.000000000               0.000000000              -0.002522901               0.001591615              -0.001049001              -0.001145038               0.000912211              -0.000232827               0.000000000               0.000000000               0.000000000               0.000000000              -0.001841869               0.002301404              -0.001020134              -0.000978374               0.001093251               0.000114877               0.000000000               0.000000000               0.000000000               0.000000000              -0.001317440               0.002889986              -0.000966891              -0.000855287               0.001248414               0.000393128               0.000000000               0.000000000               0.000000000               0.000000000              -0.000878666               0.003378512              -0.000911104              -0.000751812               0.001376763               0.000624951               0.000000000               0.000000000               0.000000000               0.000000000              -0.000484447               0.003780237              -0.000855591              -0.000654196               0.001478132               0.000823936               0.000000000               0.000000000               0.000000000               0.000000000              -0.000101436               0.004110418              -0.000793433              -0.000551840               0.001554072               0.001002232               0.000000000               0.000000000               0.000000000               0.000000000               0.000297960               0.004386002              -0.000727441              -0.000436515               0.001607491               0.001170976               0.000000000               0.000000000               0.000000000               0.000000000               0.000729884               0.004614950              -0.000660402              -0.000303162               0.001639355               0.001336193               0.000000000               0.000000000               0.000000000               0.000000000               0.001209253               0.004807456              -0.000585056              -0.000147462               0.001651623               0.001504161               0.000000000               0.000000000               0.000000000               0.000000000               0.001744847               0.004947406              -0.000492672               0.000035891               0.001637155               0.001673046               0.000000000               0.000000000               0.000000000               0.000000000               0.002349439               0.005023379              -0.000374047               0.000253115               0.001590071               0.001843186               0.000000000               0.000000000               0.000000000               0.000000000               0.003042513               0.005034321              -0.000211684               0.000511647               0.001507541               0.002019188               0.000000000               0.000000000               0.000000000               0.000000000               0.003575514               0.005078612              -0.000127729               0.000705984               0.001457526               0.002163510               0.000000000               0.000000000               0.000000000               0.000000000              -0.012772364              -0.001191936               0.000000000              -0.004640642               0.001149561              -0.003491081               0.000000000               0.000000000               0.000000000               0.000000000              -0.008527594              -0.000657695              -0.000000000              -0.003115634               0.000819307              -0.002296327               0.000000000               0.000000000               0.000000000               0.000000000              -0.005208204              -0.000347027              -0.000000000              -0.001909697               0.000520886              -0.001388811               0.000000000               0.000000000               0.000000000               0.000000000              -0.003472676               0.000449147               0.000000000              -0.001358395               0.000602510              -0.000755885               0.000000000               0.000000000               0.000000000               0.000000000              -0.002442649               0.001275898               0.000000000              -0.001075479               0.000783787              -0.000291692               0.000000000               0.000000000               0.000000000               0.000000000              -0.001744740               0.002005198              -0.000000000              -0.000904925               0.000970034               0.000065109               0.000000000               0.000000000               0.000000000               0.000000000              -0.001209974               0.002616869              -0.000000000              -0.000780847               0.001132563               0.000351716               0.000000000               0.000000000               0.000000000               0.000000000              -0.000762076               0.003126063               0.000000000              -0.000676535               0.001267522               0.000590987               0.000000000               0.000000000               0.000000000               0.000000000              -0.000370846               0.003552783              -0.000000000              -0.000583164               0.001378637               0.000795473               0.000000000               0.000000000               0.000000000               0.000000000               0.000005152               0.003916209              -0.000000000              -0.000487593               0.001467921               0.000980328               0.000000000               0.000000000               0.000000000               0.000000000               0.000402653               0.004226439              -0.000000000              -0.000377309               0.001534569               0.001157260               0.000000000               0.000000000               0.000000000               0.000000000               0.000838230               0.004487309              -0.000000000              -0.000246577               0.001577947               0.001331370               0.000000000               0.000000000               0.000000000               0.000000000               0.001328822               0.004711003               0.000000000              -0.000090567               0.001600508               0.001509941               0.000000000               0.000000000               0.000000000               0.000000000               0.001889997               0.004881127               0.000000000               0.000098607               0.001594157               0.001692764               0.000000000               0.000000000               0.000000000               0.000000000               0.002539446               0.004981669              -0.000000000               0.000329580               0.001550680               0.001880260               0.000000000               0.000000000               0.000000000               0.000000000               0.003307911               0.005013801               0.000000000               0.000613736               0.001466672               0.002080407               0.000000000               0.000000000               0.000000000               0.000000000               0.003916202               0.005077398              -0.000000000               0.000833893               0.001414485               0.002248378               0.000000000               0.000000000               0.000000000               0.000000000               0.000000000               0.000000000               0.000000000               0.000000000               0.000000000               0.000000000               0.000000000               0.000000000               0.000000000               0.000000000               0.000000000               0.000000000               0.000000000               0.000000000               0.000000000               0.000000000               0.000000000               0.000000000               0.000000000               0.000000000               0.000000000               0.000000000               0.000000000               0.000000000               0.000000000               0.000000000               0.000000000               0.000000000               0.000000000               0.000000000               0.000000000               0.000000000               0.000000000               0.000000000               0.000000000               0.000000000               0.000000000               0.000000000               0.000000000               0.000000000               0.000000000               0.000000000               0.000000000               0.000000000               0.000000000               0.000000000               0.000000000               0.000000000               0.000000000               0.000000000               0.000000000               0.000000000               0.000000000               0.000000000               0.000000000               0.000000000               0.000000000               0.000000000               0.000000000               0.000000000               0.000000000               0.000000000               0.000000000               0.000000000               0.000000000               0.000000000               0.000000000               0.000000000               0.000000000               0.000000000               0.000000000               0.000000000               0.000000000               0.000000000               0.000000000               0.000000000               0.000000000               0.000000000               0.000000000               0.000000000               0.000000000               0.000000000               0.000000000               0.000000000               0.000000000               0.000000000               0.000000000               0.000000000               0.000000000               0.000000000               0.000000000               0.000000000               0.000000000               0.000000000               0.000000000               0.000000000               0.000000000               0.000000000               0.000000000               0.000000000               0.000000000               0.000000000               0.000000000               0.000000000               0.000000000               0.000000000               0.000000000               0.000000000               0.000000000               0.000000000               0.000000000               0.000000000               0.000000000               0.000000000               0.000000000               0.000000000               0.000000000               0.000000000               0.000000000               0.000000000               0.000000000               0.000000000               0.000000000               0.000000000               0.000000000               0.000000000               0.000000000               0.000000000               0.000000000               0.000000000               0.000000000               0.000000000               0.000000000               0.000000000               0.000000000               0.000000000               0.000000000               0.000000000               0.000000000               0.000000000               0.000000000               0.000000000               0.000000000               0.000000000               0.000000000               0.000000000               0.000000000               0.000000000               0.000000000               0.000000000               0.000000000               0.000000000               0.000000000               0.000000000               0.000000000               0.000000000               0.000000000               0.000000000               0.000000000               0.000000000               0.000000000               0.000000000               0.000000000               0.000000000               0.000000000               0.000000000               0.000000000               0.000000000               0.000000000               0.000000000               0.002325323               0.023915444               0.001654573              -0.002117430               0.008677545               0.006560115               0.000000000               0.000000000               0.000000000               0.000000000               0.002139368               0.018641859               0.000803588              -0.001527966               0.006723213               0.005195247               0.000000000               0.000000000               0.000000000               0.000000000               0.002659291               0.014380218              -0.000034578              -0.000800291               0.005060122               0.004259831               0.000000000               0.000000000               0.000000000               0.000000000               0.002449875               0.011944881              -0.000381544              -0.000574406               0.004173056               0.003598650               0.000000000               0.000000000               0.000000000               0.000000000               0.002056224               0.010392704              -0.000518940              -0.000528003               0.003640201               0.003112198               0.000000000               0.000000000               0.000000000               0.000000000               0.001643289               0.009310224              -0.000566793              -0.000547543               0.003285892               0.002738348               0.000000000               0.000000000               0.000000000               0.000000000               0.001265802               0.008501793              -0.000575506              -0.000588047               0.003029919               0.002441871               0.000000000               0.000000000               0.000000000               0.000000000               0.000938544               0.007858645              -0.000558249              -0.000630375               0.002829647               0.002199272               0.000000000               0.000000000               0.000000000               0.000000000               0.000656882               0.007306686              -0.000529722              -0.000667004               0.002657872               0.001990869               0.000000000               0.000000000               0.000000000               0.000000000               0.000424068               0.006806111              -0.000498202              -0.000691737               0.002499260               0.001807523               0.000000000               0.000000000               0.000000000               0.000000000               0.000234854               0.006328629              -0.000465321              -0.000703007               0.002343857               0.001640851               0.000000000               0.000000000               0.000000000               0.000000000               0.000084588               0.005852007              -0.000430696              -0.000699779               0.002183909               0.001484130               0.000000000               0.000000000               0.000000000               0.000000000              -0.000023724               0.005358879              -0.000384811              -0.000678755               0.002012527               0.001333772               0.000000000               0.000000000               0.000000000               0.000000000              -0.000087812               0.004829412              -0.000321973              -0.000636604               0.001821989               0.001185385               0.000000000               0.000000000               0.000000000               0.000000000              -0.000103974               0.004249013              -0.000241942              -0.000570116               0.001606362               0.001036246               0.000000000               0.000000000               0.000000000               0.000000000              -0.000067080               0.003608752              -0.000136832              -0.000476248               0.001361655               0.000885407               0.000000000               0.000000000               0.000000000               0.000000000              -0.000087607               0.003127167              -0.000088308              -0.000423747               0.001183628               0.000759880               0.000000000               0.000000000               0.000000000               0.000000000               0.002505893               0.022451381               0.003073619              -0.001866710               0.008105955               0.006239246               0.000000000               0.000000000               0.000000000               0.000000000               0.001974267               0.017710678               0.001496055              -0.001473481               0.006394661               0.004921179               0.000000000               0.000000000               0.000000000               0.000000000               0.002122910               0.013989274              -0.000044537              -0.000952566               0.004980566               0.004028001               0.000000000               0.000000000               0.000000000               0.000000000               0.001779009               0.011832091              -0.000660945              -0.000811881               0.004214618               0.003402737               0.000000000               0.000000000               0.000000000               0.000000000               0.001363438               0.010424608              -0.000899236              -0.000791785               0.003738763               0.002946978               0.000000000               0.000000000               0.000000000               0.000000000               0.000981524               0.009419605              -0.000977429              -0.000809377               0.003409629               0.002600252               0.000000000               0.000000000               0.000000000               0.000000000               0.000650157               0.008645315              -0.000988059              -0.000836854               0.003160694               0.002323840               0.000000000               0.000000000               0.000000000               0.000000000               0.000377357               0.008012085              -0.000957368              -0.000860000               0.002957335               0.002097335               0.000000000               0.000000000               0.000000000               0.000000000               0.000160213               0.007456680              -0.000905808              -0.000872003               0.002776203               0.001904200               0.000000000               0.000000000               0.000000000               0.000000000               0.000001394               0.006942041              -0.000849760              -0.000867231               0.002603067               0.001735837               0.000000000               0.000000000               0.000000000               0.000000000              -0.000103064               0.006444276              -0.000792044              -0.000844182               0.002429464               0.001585283               0.000000000               0.000000000               0.000000000               0.000000000              -0.000163876               0.005951137              -0.000731221              -0.000805344               0.002252140               0.001446797               0.000000000               0.000000000               0.000000000               0.000000000              -0.000193220               0.005452873              -0.000653300              -0.000754065               0.002068961               0.001314896               0.000000000               0.000000000               0.000000000               0.000000000              -0.000188342               0.004948169              -0.000545949              -0.000689148               0.001879089               0.001189941               0.000000000               0.000000000               0.000000000               0.000000000              -0.000150995               0.004436517              -0.000408510              -0.000611186               0.001682553               0.001071367               0.000000000               0.000000000               0.000000000               0.000000000              -0.000086316               0.003918268              -0.000230119              -0.000522151               0.001480126               0.000957976               0.000000000               0.000000000               0.000000000               0.000000000              -0.000087297               0.003553944              -0.000144727              -0.000476978               0.001343629               0.000866651               0.000000000               0.000000000               0.000000000               0.000000000               0.002676742               0.020232599               0.004072323              -0.001525295               0.007252563               0.005727268               0.000000000               0.000000000               0.000000000               0.000000000               0.001657091               0.016310001               0.001994068              -0.001417338               0.005909058               0.004491720               0.000000000               0.000000000               0.000000000               0.000000000               0.001293014               0.013401601              -0.000008766              -0.001190317               0.004863928               0.003673611               0.000000000               0.000000000               0.000000000               0.000000000               0.000803911               0.011630563              -0.000771621              -0.001152351               0.004260932               0.003108581               0.000000000               0.000000000               0.000000000               0.000000000               0.000388780               0.010412200              -0.001051332              -0.001155730               0.003855942               0.002700212               0.000000000               0.000000000               0.000000000               0.000000000               0.000066661               0.009496551              -0.001137723              -0.001162068               0.003552841               0.002390773               0.000000000               0.000000000               0.000000000               0.000000000              -0.000178986               0.008768108              -0.001146153              -0.001163131               0.003310383               0.002147253               0.000000000               0.000000000               0.000000000               0.000000000              -0.000355055               0.008144231              -0.001108737              -0.001151172               0.003098440               0.001947268               0.000000000               0.000000000               0.000000000               0.000000000              -0.000461763               0.007579031              -0.001048224              -0.001120537               0.002899831               0.001779293               0.000000000               0.000000000               0.000000000               0.000000000              -0.000508523               0.007044321              -0.000980321              -0.001071234               0.002705161               0.001633928               0.000000000               0.000000000               0.000000000               0.000000000              -0.000502398               0.006527263              -0.000909833              -0.001004305               0.002510501               0.001506196               0.000000000               0.000000000               0.000000000               0.000000000              -0.000454081               0.006025580              -0.000834820              -0.000923476               0.002316332               0.001392856               0.000000000               0.000000000               0.000000000               0.000000000              -0.000384364               0.005540564              -0.000738953              -0.000836705               0.002125738               0.001289033               0.000000000               0.000000000               0.000000000               0.000000000              -0.000299154               0.005083620              -0.000611613              -0.000747634               0.001943734               0.001196101               0.000000000               0.000000000               0.000000000               0.000000000              -0.000200781               0.004667700              -0.000450529              -0.000658754               0.001775469               0.001116715               0.000000000               0.000000000               0.000000000               0.000000000              -0.000100030               0.004304197              -0.000247879              -0.000575534               0.001626563               0.001051028               0.000000000               0.000000000               0.000000000               0.000000000              -0.000072838               0.004086226              -0.000147358              -0.000538091               0.001541426               0.001003334               0.000000000               0.000000000               0.000000000               0.000000000               0.002689216               0.017522748               0.004567893              -0.001181888               0.006234819               0.005052931               0.000000000               0.000000000               0.000000000               0.000000000               0.001167132               0.014631478               0.002271376              -0.001391258               0.005340863               0.003949605               0.000000000               0.000000000               0.000000000               0.000000000               0.000269488               0.012691096               0.000091322              -0.001485325               0.004725432               0.003240106               0.000000000               0.000000000               0.000000000               0.000000000              -0.000317793               0.011338891              -0.000687516              -0.001536530               0.004291769               0.002755239               0.000000000               0.000000000               0.000000000               0.000000000              -0.000678616               0.010307401              -0.000959925              -0.001542903               0.003950067               0.002407164               0.000000000               0.000000000               0.000000000               0.000000000              -0.000892456               0.009482123              -0.001044301              -0.001519933               0.003667320               0.002147387               0.000000000               0.000000000               0.000000000               0.000000000              -0.001011044               0.008787424              -0.001053574              -0.001477566               0.003421634               0.001944068               0.000000000               0.000000000               0.000000000               0.000000000              -0.001056082               0.008160436              -0.001017862              -0.001416082               0.003192145               0.001776063               0.000000000               0.000000000               0.000000000               0.000000000              -0.001032113               0.007577080              -0.000959440              -0.001334174               0.002970393               0.001636219               0.000000000               0.000000000               0.000000000               0.000000000              -0.000951524               0.007027919              -0.000891136              -0.001235309               0.002754386               0.001519077               0.000000000               0.000000000               0.000000000               0.000000000              -0.000830086               0.006509690              -0.000816201              -0.001124991               0.002544872               0.001419881               0.000000000               0.000000000               0.000000000               0.000000000              -0.000685047               0.006022527              -0.000733696              -0.001009706               0.002344058               0.001334351               0.000000000               0.000000000               0.000000000               0.000000000              -0.000529212               0.005574477              -0.000633675              -0.000895262               0.002156561               0.001261299               0.000000000               0.000000000               0.000000000               0.000000000              -0.000370197               0.005183302              -0.000508431              -0.000786735               0.001989995               0.001203260               0.000000000               0.000000000               0.000000000               0.000000000              -0.000222890               0.004864251              -0.000356414              -0.000691613               0.001851939               0.001160325               0.000000000               0.000000000               0.000000000               0.000000000              -0.000100825               0.004633231              -0.000183584              -0.000616962               0.001750049               0.001133087               0.000000000               0.000000000               0.000000000               0.000000000              -0.000055679               0.004526705              -0.000099703              -0.000586716               0.001704459               0.001117742               0.000000000               0.000000000               0.000000000               0.000000000               0.002425834               0.014605236               0.004565847              -0.000915968               0.005173685               0.004257717               0.000000000               0.000000000               0.000000000               0.000000000               0.000511398               0.012853812               0.002354682              -0.001414950               0.004756211               0.003341260               0.000000000               0.000000000               0.000000000               0.000000000              -0.000823944               0.011901240               0.000281163              -0.001796630               0.004565917               0.002769287               0.000000000               0.000000000               0.000000000               0.000000000              -0.001415021               0.010939699              -0.000415214              -0.001898090               0.004279227               0.002381136               0.000000000               0.000000000               0.000000000               0.000000000              -0.001653425               0.010074005              -0.000656726              -0.001879280               0.003984395               0.002105114               0.000000000               0.000000000               0.000000000               0.000000000              -0.001721516               0.009317583              -0.000739643              -0.001810262               0.003709250               0.001898988               0.000000000               0.000000000               0.000000000               0.000000000              -0.001690409               0.008641831              -0.000758418              -0.001714128               0.003451958               0.001737829               0.000000000               0.000000000               0.000000000               0.000000000              -0.001582029               0.008011695              -0.000737622              -0.001594719               0.003202111               0.001607392               0.000000000               0.000000000               0.000000000               0.000000000              -0.001417359               0.007423069              -0.000697504              -0.001459390               0.002960795               0.001501405               0.000000000               0.000000000               0.000000000               0.000000000              -0.001214879               0.006880426              -0.000645379              -0.001315630               0.002731995               0.001416366               0.000000000               0.000000000               0.000000000               0.000000000              -0.000995034               0.006386058              -0.000582144              -0.001171392               0.002519129               0.001347736               0.000000000               0.000000000               0.000000000               0.000000000              -0.000777075               0.005942041              -0.000507210              -0.001034156               0.002325379               0.001291223               0.000000000               0.000000000               0.000000000               0.000000000              -0.000569033               0.005553075              -0.000418755              -0.000907519               0.002153513               0.001245993               0.000000000               0.000000000               0.000000000               0.000000000              -0.000375715               0.005235393              -0.000317668              -0.000795315               0.002010219               0.001214903               0.000000000               0.000000000               0.000000000               0.000000000              -0.000213273               0.005001516              -0.000205455              -0.000705165               0.001902211               0.001197045               0.000000000               0.000000000               0.000000000               0.000000000              -0.000090060               0.004858076              -0.000094729              -0.000641030               0.001833019               0.001191989               0.000000000               0.000000000               0.000000000               0.000000000              -0.000044124               0.004802825              -0.000046592              -0.000616898               0.001806559               0.001189660               0.000000000               0.000000000               0.000000000               0.000000000               0.001804940               0.011726115               0.004150377              -0.000788914               0.004171636               0.003382722               0.000000000               0.000000000               0.000000000               0.000000000              -0.000288183               0.011110904               0.002303011              -0.001496930               0.004202574               0.002705644               0.000000000               0.000000000               0.000000000               0.000000000              -0.001868010               0.011060976               0.000569087              -0.002083120               0.004381329               0.002298208               0.000000000               0.000000000               0.000000000               0.000000000              -0.002346085               0.010419520               0.000003037              -0.002182217               0.004200544               0.002018328               0.000000000               0.000000000               0.000000000               0.000000000              -0.002412345               0.009688188              -0.000208182              -0.002115648               0.003934580               0.001818932               0.000000000               0.000000000               0.000000000               0.000000000              -0.002311247               0.008995332              -0.000306317              -0.001991129               0.003662124               0.001670995               0.000000000               0.000000000               0.000000000               0.000000000              -0.002120557               0.008349082              -0.000353409              -0.001838840               0.003395946               0.001557106               0.000000000               0.000000000               0.000000000               0.000000000              -0.001861918               0.007734549              -0.000363982              -0.001665034               0.003133168               0.001468135               0.000000000               0.000000000               0.000000000               0.000000000              -0.001567759               0.007165141              -0.000358451              -0.001483548               0.002882873               0.001399324               0.000000000               0.000000000               0.000000000               0.000000000              -0.001265524               0.006652627              -0.000338858              -0.001306147               0.002652902               0.001346756               0.000000000               0.000000000               0.000000000               0.000000000              -0.000976275               0.006198903              -0.000303904              -0.001140963               0.002446601               0.001305638               0.000000000               0.000000000               0.000000000               0.000000000              -0.000716800               0.005806165              -0.000254649              -0.000994568               0.002266892               0.001272323               0.000000000               0.000000000               0.000000000               0.000000000              -0.000491105               0.005482924              -0.000196183              -0.000869528               0.002117465               0.001247938               0.000000000               0.000000000               0.000000000               0.000000000              -0.000301793               0.005236659              -0.000137677              -0.000767753               0.002001453               0.001233700               0.000000000               0.000000000               0.000000000               0.000000000              -0.000157715               0.005069107              -0.000081678              -0.000692780               0.001920612               0.001227832               0.000000000               0.000000000               0.000000000               0.000000000              -0.000061117               0.004974053              -0.000033660              -0.000644674               0.001872892               0.001228218               0.000000000               0.000000000               0.000000000               0.000000000              -0.000030797               0.004935777              -0.000017234              -0.000628520               0.001854749               0.001226230               0.000000000               0.000000000               0.000000000               0.000000000               0.000852927               0.009057787               0.003438408              -0.000812377               0.003290023               0.002477647               0.000000000               0.000000000               0.000000000               0.000000000              -0.001189274               0.009503432               0.002173106              -0.001633904               0.003712413               0.002078509               0.000000000               0.000000000               0.000000000               0.000000000              -0.002768826               0.010187743               0.000947744              -0.002311772               0.004166471               0.001854699               0.000000000               0.000000000               0.000000000               0.000000000              -0.003030108               0.009789063               0.000506043              -0.002359917               0.004049627               0.001689710               0.000000000               0.000000000               0.000000000               0.000000000              -0.002894579               0.009179888               0.000292546              -0.002232948               0.003804248               0.001571300               0.000000000               0.000000000               0.000000000               0.000000000              -0.002622465               0.008565109               0.000158325              -0.002054058               0.003539694               0.001485636               0.000000000               0.000000000               0.000000000               0.000000000              -0.002283617               0.007963085               0.000069272              -0.001851737               0.003271581               0.001419844               0.000000000               0.000000000               0.000000000               0.000000000              -0.001897855               0.007387341               0.000014526              -0.001635109               0.003007459               0.001372350               0.000000000               0.000000000               0.000000000               0.000000000              -0.001501536               0.006860578              -0.000026216              -0.001420645               0.002760385               0.001339740               0.000000000               0.000000000               0.000000000               0.000000000              -0.001135410               0.006389347              -0.000049810              -0.001224444               0.002537909               0.001313465               0.000000000               0.000000000               0.000000000               0.000000000              -0.000814243               0.005978449              -0.000053866              -0.001052645               0.002343678               0.001291033               0.000000000               0.000000000               0.000000000               0.000000000              -0.000542886               0.005637457              -0.000048036              -0.000908262               0.002181888               0.001273625               0.000000000               0.000000000               0.000000000               0.000000000              -0.000326246               0.005375349              -0.000035830              -0.000794259               0.002056518               0.001262259               0.000000000               0.000000000               0.000000000               0.000000000              -0.000169391               0.005189210              -0.000024178              -0.000712171               0.001967110               0.001254938               0.000000000               0.000000000               0.000000000               0.000000000              -0.000070867               0.005070008              -0.000015503              -0.000660324               0.001910094               0.001249770               0.000000000               0.000000000               0.000000000               0.000000000              -0.000021715               0.005003763              -0.000007271              -0.000633612               0.001879108               0.001245497               0.000000000               0.000000000               0.000000000               0.000000000              -0.000011626               0.004977665              -0.000005643              -0.000626566               0.001868061               0.001241494               0.000000000               0.000000000               0.000000000               0.000000000              -0.000284572               0.006790812               0.002556321              -0.000955565               0.002582102               0.001626537               0.000000000               0.000000000               0.000000000               0.000000000              -0.002066777               0.008063773               0.002021915              -0.001783010               0.003282233               0.001499224               0.000000000               0.000000000               0.000000000               0.000000000              -0.003463933               0.009324384               0.001403301              -0.002464517               0.003929603               0.001465085               0.000000000               0.000000000               0.000000000               0.000000000              -0.003484631               0.009185484               0.001043028              -0.002454916               0.003880103               0.001425187               0.000000000               0.000000000               0.000000000               0.000000000              -0.003175897               0.008729084               0.000800890              -0.002282091               0.003670363               0.001388271               0.000000000               0.000000000               0.000000000               0.000000000              -0.002769847               0.008215973               0.000621007              -0.002065684               0.003427192               0.001361508               0.000000000               0.000000000               0.000000000               0.000000000              -0.002316978               0.007684052               0.000481160              -0.001829369               0.003171115               0.001341746               0.000000000               0.000000000               0.000000000               0.000000000              -0.001834212               0.007165684               0.000373148              -0.001583536               0.002916383               0.001332847               0.000000000               0.000000000               0.000000000               0.000000000              -0.001371717               0.006683686               0.000283838              -0.001349851               0.002677824               0.001327972               0.000000000               0.000000000               0.000000000               0.000000000              -0.000966913               0.006244015               0.000213040              -0.001143092               0.002462348               0.001319256               0.000000000               0.000000000               0.000000000               0.000000000              -0.000627413               0.005860613               0.000158513              -0.000967854               0.002276136               0.001308282               0.000000000               0.000000000               0.000000000               0.000000000              -0.000356974               0.005547955               0.000111091              -0.000827358               0.002125086               0.001297728               0.000000000               0.000000000               0.000000000               0.000000000              -0.000162895               0.005311852               0.000069098              -0.000725065               0.002012288               0.001287223               0.000000000               0.000000000               0.000000000               0.000000000              -0.000046894               0.005152941               0.000035231              -0.000661701               0.001938197               0.001276496               0.000000000               0.000000000               0.000000000               0.000000000               0.000002310               0.005056431               0.000011716              -0.000631186               0.001895856               0.001264670               0.000000000               0.000000000               0.000000000               0.000000000               0.000011929               0.005007699               0.000000838              -0.000621487               0.001876379               0.001254891               0.000000000               0.000000000               0.000000000               0.000000000               0.000008975               0.004991860              -0.000002347              -0.000620615               0.001870809               0.001250193               0.000000000               0.000000000               0.000000000               0.000000000              -0.001622729               0.004687933               0.001618390              -0.001194513               0.001960799               0.000766286               0.000000000               0.000000000               0.000000000               0.000000000              -0.002800540               0.006421824               0.001854459              -0.001852927               0.002758228               0.000905302               0.000000000               0.000000000               0.000000000               0.000000000              -0.003867018               0.008105519               0.001885902              -0.002463316               0.003522918               0.001059602               0.000000000               0.000000000               0.000000000               0.000000000              -0.003743956               0.008348697               0.001617725              -0.002447565               0.003598726               0.001151161               0.000000000               0.000000000               0.000000000               0.000000000              -0.003350548               0.008154283               0.001353172              -0.002275736               0.003476646               0.001200910               0.000000000               0.000000000               0.000000000               0.000000000              -0.002899728               0.007835798               0.001125794              -0.002066868               0.003300862               0.001233995               0.000000000               0.000000000               0.000000000               0.000000000              -0.002430103               0.007464005               0.000936311              -0.001844285               0.003102738               0.001258454               0.000000000               0.000000000               0.000000000               0.000000000              -0.001938819               0.007068178               0.000777435              -0.001610575               0.002892894               0.001282319               0.000000000               0.000000000               0.000000000               0.000000000              -0.001458563               0.006672196               0.000637462              -0.001380982               0.002684370               0.001303388               0.000000000               0.000000000               0.000000000               0.000000000              -0.001030546               0.006294232               0.000514821              -0.001173231               0.002489133               0.001315902               0.000000000               0.000000000               0.000000000               0.000000000              -0.000668202               0.005948210               0.000404765              -0.000994100               0.002314083               0.001319984               0.000000000               0.000000000               0.000000000               0.000000000              -0.000377850               0.005642296               0.000301508              -0.000846979               0.002163073               0.001316094               0.000000000               0.000000000               0.000000000               0.000000000              -0.000158835               0.005398402               0.000203415              -0.000734362               0.002044237               0.001309875               0.000000000               0.000000000               0.000000000               0.000000000              -0.000018425               0.005221198               0.000115369              -0.000659557               0.001960234               0.001300677               0.000000000               0.000000000               0.000000000               0.000000000               0.000046580               0.005102706               0.000050918              -0.000620369               0.001907675               0.001287305               0.000000000               0.000000000               0.000000000               0.000000000               0.000059923               0.005033473               0.000015289              -0.000606711               0.001880045               0.001273333               0.000000000               0.000000000               0.000000000               0.000000000               0.000053391               0.005005065               0.000003140              -0.000605610               0.001870208               0.001264599               0.000000000               0.000000000               0.000000000               0.000000000              -0.003348184               0.002791867               0.000693331              -0.001604549               0.001465462              -0.000139088               0.000000000               0.000000000               0.000000000               0.000000000              -0.003630957               0.004783716               0.001615089              -0.001959569               0.002247745               0.000288176               0.000000000               0.000000000               0.000000000               0.000000000              -0.004178806               0.006699033               0.002271099              -0.002404426               0.003034463               0.000630037               0.000000000               0.000000000               0.000000000               0.000000000              -0.003920998               0.007311246               0.002168526              -0.002384275               0.003231815               0.000847540               0.000000000               0.000000000               0.000000000               0.000000000              -0.003469537               0.007421926               0.001917576              -0.002228812               0.003216888               0.000988075               0.000000000               0.000000000               0.000000000               0.000000000              -0.002996767               0.007330963               0.001662858              -0.002040154               0.003123681               0.001083527               0.000000000               0.000000000               0.000000000               0.000000000              -0.002530565               0.007145509               0.001435746              -0.001842146               0.002995861               0.001153715               0.000000000               0.000000000               0.000000000               0.000000000              -0.002060294               0.006898564               0.001234574              -0.001634927               0.002844474               0.001209547               0.000000000               0.000000000               0.000000000               0.000000000              -0.001584544               0.006616456               0.001050791              -0.001421258               0.002679216               0.001257958               0.000000000               0.000000000               0.000000000               0.000000000              -0.001136135               0.006320489               0.000882380              -0.001216109               0.002512178               0.001296069               0.000000000               0.000000000               0.000000000               0.000000000              -0.000740158               0.006030044               0.000725513              -0.001031312               0.002353765               0.001322453               0.000000000               0.000000000               0.000000000               0.000000000              -0.000404368               0.005753815               0.000576527              -0.000870863               0.002208207               0.001337344               0.000000000               0.000000000               0.000000000               0.000000000              -0.000134362               0.005511534               0.000429562              -0.000739326               0.002083601               0.001344276               0.000000000               0.000000000               0.000000000               0.000000000               0.000059765               0.005315081               0.000282226              -0.000641972               0.001985667               0.001343695               0.000000000               0.000000000               0.000000000               0.000000000               0.000167150               0.005167168               0.000155607              -0.000583214               0.001916777               0.001333563               0.000000000               0.000000000               0.000000000               0.000000000               0.000193348               0.005064025               0.000063793              -0.000560496               0.001874823               0.001314327               0.000000000               0.000000000               0.000000000               0.000000000               0.000179583               0.005017982               0.000024488              -0.000559903               0.001859278               0.001299376               0.000000000               0.000000000               0.000000000               0.000000000              -0.005343984               0.001242275              -0.000132898              -0.002159276               0.001133842              -0.001025433               0.000000000               0.000000000               0.000000000               0.000000000              -0.004611527               0.003240279               0.001288128              -0.002134354               0.001791531              -0.000342822               0.000000000               0.000000000               0.000000000               0.000000000              -0.004431119               0.005113071               0.002439363              -0.002300799               0.002471272               0.000170473               0.000000000               0.000000000               0.000000000               0.000000000              -0.003964610               0.005988729               0.002541995              -0.002235315               0.002741327               0.000506012               0.000000000               0.000000000               0.000000000               0.000000000              -0.003443131               0.006377296               0.002355603              -0.002088332               0.002821854               0.000733522               0.000000000               0.000000000               0.000000000               0.000000000              -0.002946605               0.006523413               0.002110384              -0.001920400               0.002814582               0.000894182               0.000000000               0.000000000               0.000000000               0.000000000              -0.002483105               0.006537469               0.001873268              -0.001748344               0.002761915               0.001013571               0.000000000               0.000000000               0.000000000               0.000000000              -0.002034592               0.006464749               0.001656230              -0.001571062               0.002678582               0.001107519               0.000000000               0.000000000               0.000000000               0.000000000              -0.001581916               0.006329000               0.001452279              -0.001384340               0.002571092               0.001186752               0.000000000               0.000000000               0.000000000               0.000000000              -0.001134954               0.006149512               0.001256901              -0.001194294               0.002447915               0.001253621               0.000000000               0.000000000               0.000000000               0.000000000              -0.000717755               0.005950334               0.001072008              -0.001012948               0.002321074               0.001308126               0.000000000               0.000000000               0.000000000               0.000000000              -0.000339333               0.005747406               0.000893535              -0.000845674               0.002197674               0.001352000               0.000000000               0.000000000               0.000000000               0.000000000              -0.000018836               0.005547367               0.000707914              -0.000700483               0.002082598               0.001382115               0.000000000               0.000000000               0.000000000               0.000000000               0.000230362               0.005361146               0.000511499              -0.000583756               0.001981616               0.001397860               0.000000000               0.000000000               0.000000000               0.000000000               0.000396267               0.005207135               0.000318884              -0.000502291               0.001903125               0.001400834               0.000000000               0.000000000               0.000000000               0.000000000               0.000461763               0.005091338               0.000148818              -0.000463255               0.001851514               0.001388259               0.000000000               0.000000000               0.000000000               0.000000000               0.000454562               0.005036093               0.000067735              -0.000459050               0.001831697               0.001372648               0.000000000               0.000000000               0.000000000               0.000000000              -0.007463709               0.000118620              -0.000743619              -0.002813716               0.000977439              -0.001836277               0.000000000               0.000000000               0.000000000               0.000000000              -0.005681826               0.001877175               0.000924343              -0.002365328               0.001414158              -0.000951171               0.000000000               0.000000000               0.000000000               0.000000000              -0.004651845               0.003484364               0.002361166              -0.002179983               0.001888102              -0.000291881               0.000000000               0.000000000               0.000000000               0.000000000              -0.003895319               0.004484710               0.002643147              -0.002021330               0.002168664               0.000147334               0.000000000               0.000000000               0.000000000               0.000000000              -0.003273239               0.005085887               0.002549942              -0.001863197               0.002316343               0.000453146               0.000000000               0.000000000               0.000000000               0.000000000              -0.002747720               0.005447253               0.002349421              -0.001711298               0.002386165               0.000674866               0.000000000               0.000000000               0.000000000               0.000000000              -0.002278577               0.005662219               0.002135587              -0.001562241               0.002408134               0.000845893               0.000000000               0.000000000               0.000000000               0.000000000              -0.001841302               0.005776158               0.001933176              -0.001412505               0.002396201               0.000983696               0.000000000               0.000000000               0.000000000               0.000000000              -0.001415362               0.005807181               0.001736425              -0.001256656               0.002354592               0.001097936               0.000000000               0.000000000               0.000000000               0.000000000              -0.000991014               0.005772394               0.001540348              -0.001093177               0.002288504               0.001195327               0.000000000               0.000000000               0.000000000               0.000000000              -0.000569569               0.005696242               0.001353166              -0.000925617               0.002207267               0.001281650               0.000000000               0.000000000               0.000000000               0.000000000              -0.000166230               0.005594808               0.001167229              -0.000761686               0.002118812               0.001357126               0.000000000               0.000000000               0.000000000               0.000000000               0.000201584               0.005472377               0.000965117              -0.000608452               0.002026925               0.001418473               0.000000000               0.000000000               0.000000000               0.000000000               0.000518750               0.005336588               0.000744533              -0.000472541               0.001936358               0.001463817               0.000000000               0.000000000               0.000000000               0.000000000               0.000766867               0.005203190               0.000506741              -0.000362823               0.001855320               0.001492497               0.000000000               0.000000000               0.000000000               0.000000000               0.000917709               0.005094046               0.000257036              -0.000292614               0.001795536               0.001502922               0.000000000               0.000000000               0.000000000               0.000000000               0.000959304               0.005045064               0.000129685              -0.000270894               0.001771969               0.001501076               0.000000000               0.000000000               0.000000000               0.000000000              -0.009503627              -0.000592993              -0.001034353              -0.003489733               0.000965573              -0.002524160               0.000000000               0.000000000               0.000000000               0.000000000              -0.006743097               0.000774337               0.000583118              -0.002625451               0.001133255              -0.001492196               0.000000000               0.000000000               0.000000000               0.000000000              -0.004854381               0.001967074               0.002035084              -0.002066274               0.001344439              -0.000721835               0.000000000               0.000000000               0.000000000               0.000000000              -0.003764377               0.002966741               0.002416024              -0.001782481               0.001583062              -0.000199419               0.000000000               0.000000000               0.000000000               0.000000000              -0.003012666               0.003708176               0.002408266              -0.001593269               0.001767135               0.000173866               0.000000000               0.000000000               0.000000000               0.000000000              -0.002434626               0.004243150               0.002272444              -0.001443376               0.001895493               0.000452117               0.000000000               0.000000000               0.000000000               0.000000000              -0.001954198               0.004632319               0.002108405              -0.001311862               0.001981377               0.000669515               0.000000000               0.000000000               0.000000000               0.000000000              -0.001524552               0.004914946               0.001943601              -0.001186073               0.002033656               0.000847583               0.000000000               0.000000000               0.000000000               0.000000000              -0.001118701               0.005103768               0.001778580              -0.001057482               0.002053732               0.000996250               0.000000000               0.000000000               0.000000000               0.000000000              -0.000713449               0.005218810               0.001612264              -0.000919893               0.002046217               0.001126323               0.000000000               0.000000000               0.000000000               0.000000000              -0.000300545               0.005281115               0.001448725              -0.000772842               0.002017968               0.001245125               0.000000000               0.000000000               0.000000000               0.000000000               0.000113612               0.005302748               0.001279239              -0.000620238               0.001974311               0.001354073               0.000000000               0.000000000               0.000000000               0.000000000               0.000525287               0.005289706               0.001093476              -0.000464230               0.001917961               0.001453731               0.000000000               0.000000000               0.000000000               0.000000000               0.000922907               0.005243025               0.000883935              -0.000309288               0.001850753               0.001541466               0.000000000               0.000000000               0.000000000               0.000000000               0.001283794               0.005166057               0.000637531              -0.000164334               0.001776780               0.001612446               0.000000000               0.000000000               0.000000000               0.000000000               0.001581736               0.005080786               0.000343386              -0.000041948               0.001707561               0.001665613               0.000000000               0.000000000               0.000000000               0.000000000               0.001741324               0.005050698               0.000189263               0.000021658               0.001676330               0.001697988               0.000000000               0.000000000               0.000000000               0.000000000              -0.011220095              -0.000979775              -0.000960962              -0.004085061               0.001035088              -0.003049973               0.000000000               0.000000000               0.000000000               0.000000000              -0.007663894              -0.000024735               0.000312819              -0.002870866               0.000948704              -0.001922162               0.000000000               0.000000000               0.000000000               0.000000000              -0.005031852               0.000733905               0.001490170              -0.001978681               0.000904188              -0.001074492               0.000000000               0.000000000               0.000000000               0.000000000              -0.003622640               0.001658305               0.001851927              -0.001565776               0.001074685              -0.000491091               0.000000000               0.000000000               0.000000000               0.000000000              -0.002737208               0.002464701               0.001895755              -0.001334538               0.001266403              -0.000068135               0.000000000               0.000000000               0.000000000               0.000000000              -0.002098006               0.003114585               0.001822025              -0.001176073               0.001430208               0.000254135               0.000000000               0.000000000               0.000000000               0.000000000              -0.001596582               0.003631704               0.001713624              -0.001052679               0.001561448               0.000508769               0.000000000               0.000000000               0.000000000               0.000000000              -0.001170224               0.004042777               0.001600571              -0.000944180               0.001662305               0.000718125               0.000000000               0.000000000               0.000000000               0.000000000              -0.000772737               0.004361362               0.001487675              -0.000834945               0.001732087               0.000897142               0.000000000               0.000000000               0.000000000               0.000000000              -0.000377281               0.004605865               0.001370056              -0.000717213               0.001774343               0.001057131               0.000000000               0.000000000               0.000000000               0.000000000               0.000026734               0.004794831               0.001248063              -0.000589328               0.001794703               0.001205375               0.000000000               0.000000000               0.000000000               0.000000000               0.000448517               0.004935058               0.001121479              -0.000448688               0.001794565               0.001345877               0.000000000               0.000000000               0.000000000               0.000000000               0.000899073               0.005038197               0.000981747              -0.000292622               0.001776923               0.001484301               0.000000000               0.000000000               0.000000000               0.000000000               0.001374229               0.005097427               0.000816528              -0.000121843               0.001739740               0.001617897               0.000000000               0.000000000               0.000000000               0.000000000               0.001866451               0.005100801               0.000609515               0.000062318               0.001679477               0.001741795               0.000000000               0.000000000               0.000000000               0.000000000               0.002370244               0.005060804               0.000340140               0.000256239               0.001601505               0.001857743               0.000000000               0.000000000               0.000000000               0.000000000               0.002719690               0.005066887               0.000199695               0.000386519               0.001560106               0.001946625               0.000000000               0.000000000               0.000000000               0.000000000              -0.012368675              -0.001149715              -0.000571797              -0.004494536               0.001114933              -0.003379603               0.000000000               0.000000000               0.000000000               0.000000000              -0.008299393              -0.000501645               0.000128450              -0.003049565               0.000849301              -0.002200264               0.000000000               0.000000000               0.000000000               0.000000000              -0.005160346              -0.000068475               0.000787422              -0.001926569               0.000619360              -0.001307209               0.000000000               0.000000000               0.000000000               0.000000000              -0.003513313               0.000766789               0.001007482              -0.001413339               0.000726704              -0.000686635               0.000000000               0.000000000               0.000000000               0.000000000              -0.002522901               0.001591615               0.001049001              -0.001145038               0.000912211              -0.000232827               0.000000000               0.000000000               0.000000000               0.000000000              -0.001841869               0.002301404               0.001020134              -0.000978374               0.001093251               0.000114877               0.000000000               0.000000000               0.000000000               0.000000000              -0.001317440               0.002889986               0.000966891              -0.000855287               0.001248414               0.000393128               0.000000000               0.000000000               0.000000000               0.000000000              -0.000878666               0.003378512               0.000911104              -0.000751812               0.001376763               0.000624951               0.000000000               0.000000000               0.000000000               0.000000000              -0.000484447               0.003780237               0.000855591              -0.000654196               0.001478132               0.000823936               0.000000000               0.000000000               0.000000000               0.000000000              -0.000101436               0.004110418               0.000793433              -0.000551840               0.001554072               0.001002232               0.000000000               0.000000000               0.000000000               0.000000000               0.000297960               0.004386002               0.000727441              -0.000436515               0.001607491               0.001170976               0.000000000               0.000000000               0.000000000               0.000000000               0.000729884               0.004614950               0.000660402              -0.000303162               0.001639355               0.001336193               0.000000000               0.000000000               0.000000000               0.000000000               0.001209253               0.004807456               0.000585056              -0.000147462               0.001651623               0.001504161               0.000000000               0.000000000               0.000000000               0.000000000               0.001744847               0.004947406               0.000492672               0.000035891               0.001637155               0.001673046               0.000000000               0.000000000               0.000000000               0.000000000               0.002349439               0.005023379               0.000374047               0.000253115               0.001590071               0.001843186               0.000000000               0.000000000               0.000000000               0.000000000               0.003042513               0.005034321               0.000211684               0.000511647               0.001507541               0.002019188               0.000000000               0.000000000               0.000000000               0.000000000               0.003575514               0.005078612               0.000127729               0.000705984               0.001457526               0.002163510               0.000000000               0.000000000               0.000000000               0.000000000              -0.012772364              -0.001191936              -0.000000000              -0.004640642               0.001149561              -0.003491081               0.000000000               0.000000000               0.000000000               0.000000000              -0.008527594              -0.000657695              -0.000000000              -0.003115634               0.000819307              -0.002296327               0.000000000               0.000000000               0.000000000               0.000000000              -0.005208204              -0.000347027               0.000000000              -0.001909697               0.000520886              -0.001388811               0.000000000               0.000000000               0.000000000               0.000000000              -0.003472676               0.000449147               0.000000000              -0.001358395               0.000602510              -0.000755885               0.000000000               0.000000000               0.000000000               0.000000000              -0.002442649               0.001275898               0.000000000              -0.001075479               0.000783787              -0.000291692               0.000000000               0.000000000               0.000000000               0.000000000              -0.001744740               0.002005198              -0.000000000              -0.000904925               0.000970034               0.000065109               0.000000000               0.000000000               0.000000000               0.000000000              -0.001209974               0.002616869               0.000000000              -0.000780847               0.001132563               0.000351716               0.000000000               0.000000000               0.000000000               0.000000000              -0.000762076               0.003126063               0.000000000              -0.000676535               0.001267522               0.000590987               0.000000000               0.000000000               0.000000000               0.000000000              -0.000370846               0.003552783              -0.000000000              -0.000583164               0.001378637               0.000795473               0.000000000               0.000000000               0.000000000               0.000000000               0.000005152               0.003916209               0.000000000              -0.000487593               0.001467921               0.000980328               0.000000000               0.000000000               0.000000000               0.000000000               0.000402653               0.004226439              -0.000000000              -0.000377309               0.001534569               0.001157260               0.000000000               0.000000000               0.000000000               0.000000000               0.000838230               0.004487309              -0.000000000              -0.000246577               0.001577947               0.001331370               0.000000000               0.000000000               0.000000000               0.000000000               0.001328822               0.004711003               0.000000000              -0.000090567               0.001600508               0.001509941               0.000000000               0.000000000               0.000000000               0.000000000               0.001889997               0.004881127               0.000000000               0.000098607               0.001594157               0.001692764               0.000000000               0.000000000               0.000000000               0.000000000               0.002539446               0.004981669              -0.000000000               0.000329580               0.001550680               0.001880260               0.000000000               0.000000000               0.000000000               0.000000000               0.003307911               0.005013801              -0.000000000               0.000613736               0.001466672               0.002080407               0.000000000               0.000000000               0.000000000               0.000000000               0.003916202               0.005077398               0.000000000               0.000833893               0.001414485               0.002248378               0.000000000               0.000000000               0.000000000               0.000000000               0.002252580               0.024428976              -0.000000000              -0.002208899               0.008879210               0.006670311               0.000000000               0.000000000               0.000000000               0.000000000               0.002190802               0.018968560              -0.000000000              -0.001549515               0.006839295               0.005289780               0.000000000               0.000000000               0.000000000               0.000000000               0.002847623               0.014517581              -0.000000000              -0.000746837               0.005088091               0.004341254               0.000000000               0.000000000               0.000000000               0.000000000               0.002690271               0.011977997              -0.000000000              -0.000488397               0.004155425               0.003667028               0.000000000               0.000000000               0.000000000               0.000000000               0.002308465               0.010373115              -0.000000000              -0.000430964               0.003601325               0.003170361               0.000000000               0.000000000               0.000000000               0.000000000               0.001890157               0.009256886              -0.000000000              -0.000448301               0.003235032               0.002786731               0.000000000               0.000000000               0.000000000               0.000000000               0.001499496               0.008437460               0.000000000              -0.000492370               0.002976582               0.002484212               0.000000000               0.000000000               0.000000000               0.000000000               0.001148739               0.007788868               0.000000000              -0.000542830               0.002777207               0.002234377               0.000000000               0.000000000               0.000000000               0.000000000               0.000841548               0.007235753              -0.000000000              -0.000588887               0.002608189               0.002019302               0.000000000               0.000000000               0.000000000               0.000000000               0.000580528               0.006739614               0.000000000              -0.000624752               0.002454766               0.001830014               0.000000000               0.000000000               0.000000000               0.000000000               0.000361748               0.006270645              -0.000000000              -0.000648174               0.002306252               0.001658078               0.000000000               0.000000000               0.000000000               0.000000000               0.000182010               0.005805149              -0.000000000              -0.000657388               0.002154160               0.001496771               0.000000000               0.000000000               0.000000000               0.000000000               0.000039680               0.005318785               0.000000000              -0.000649967               0.001989566               0.001339599               0.000000000               0.000000000               0.000000000               0.000000000              -0.000056058               0.004782837               0.000000000              -0.000618875               0.001800555               0.001181680               0.000000000               0.000000000               0.000000000               0.000000000              -0.000091083               0.004180551              -0.000000000              -0.000556724               0.001579078               0.001022354               0.000000000               0.000000000               0.000000000               0.000000000              -0.000062318               0.003494966              -0.000000000              -0.000460239               0.001318390               0.000858151               0.000000000               0.000000000               0.000000000               0.000000000              -0.000088728               0.002968609               0.000000000              -0.000404348               0.001124309               0.000719961               0.000000000               0.000000000               0.000000000               0.000000000               0.002325323               0.023915444              -0.001654573              -0.002117430               0.008677545               0.006560115               0.000000000               0.000000000               0.000000000               0.000000000               0.002139368               0.018641859              -0.000803588              -0.001527966               0.006723213               0.005195247               0.000000000               0.000000000               0.000000000               0.000000000               0.002659291               0.014380218               0.000034578              -0.000800291               0.005060122               0.004259831               0.000000000               0.000000000               0.000000000               0.000000000               0.002449875               0.011944881               0.000381544              -0.000574406               0.004173056               0.003598650               0.000000000               0.000000000               0.000000000               0.000000000               0.002056224               0.010392704               0.000518940              -0.000528003               0.003640201               0.003112198               0.000000000               0.000000000               0.000000000               0.000000000               0.001643289               0.009310224               0.000566793              -0.000547543               0.003285892               0.002738348               0.000000000               0.000000000               0.000000000               0.000000000               0.001265802               0.008501793               0.000575506              -0.000588047               0.003029919               0.002441871               0.000000000               0.000000000               0.000000000               0.000000000               0.000938544               0.007858645               0.000558249              -0.000630375               0.002829647               0.002199272               0.000000000               0.000000000               0.000000000               0.000000000               0.000656882               0.007306686               0.000529722              -0.000667004               0.002657872               0.001990869               0.000000000               0.000000000               0.000000000               0.000000000               0.000424068               0.006806111               0.000498202              -0.000691737               0.002499260               0.001807523               0.000000000               0.000000000               0.000000000               0.000000000               0.000234854               0.006328629               0.000465321              -0.000703007               0.002343857               0.001640851               0.000000000               0.000000000               0.000000000               0.000000000               0.000084588               0.005852007               0.000430696              -0.000699779               0.002183909               0.001484130               0.000000000               0.000000000               0.000000000               0.000000000              -0.000023724               0.005358879               0.000384811              -0.000678755               0.002012527               0.001333772               0.000000000               0.000000000               0.000000000               0.000000000              -0.000087812               0.004829412               0.000321973              -0.000636604               0.001821989               0.001185385               0.000000000               0.000000000               0.000000000               0.000000000              -0.000103974               0.004249013               0.000241942              -0.000570116               0.001606362               0.001036246               0.000000000               0.000000000               0.000000000               0.000000000              -0.000067080               0.003608752               0.000136832              -0.000476248               0.001361655               0.000885407               0.000000000               0.000000000               0.000000000               0.000000000              -0.000087607               0.003127167               0.000088308              -0.000423747               0.001183628               0.000759880               0.000000000               0.000000000               0.000000000               0.000000000               0.002505893               0.022451381              -0.003073619              -0.001866710               0.008105955               0.006239246               0.000000000               0.000000000               0.000000000               0.000000000               0.001974267               0.017710678              -0.001496055              -0.001473481               0.006394661               0.004921179               0.000000000               0.000000000               0.000000000               0.000000000               0.002122910               0.013989274               0.000044537              -0.000952566               0.004980566               0.004028001               0.000000000               0.000000000               0.000000000               0.000000000               0.001779009               0.011832091               0.000660945              -0.000811881               0.004214618               0.003402737               0.000000000               0.000000000               0.000000000               0.000000000               0.001363438               0.010424608               0.000899236              -0.000791785               0.003738763               0.002946978               0.000000000               0.000000000               0.000000000               0.000000000               0.000981524               0.009419605               0.000977429              -0.000809377               0.003409629               0.002600252               0.000000000               0.000000000               0.000000000               0.000000000               0.000650157               0.008645315               0.000988059              -0.000836854               0.003160694               0.002323840               0.000000000               0.000000000               0.000000000               0.000000000               0.000377357               0.008012085               0.000957368              -0.000860000               0.002957335               0.002097335               0.000000000               0.000000000               0.000000000               0.000000000               0.000160213               0.007456680               0.000905808              -0.000872003               0.002776203               0.001904200               0.000000000               0.000000000               0.000000000               0.000000000               0.000001394               0.006942041               0.000849760              -0.000867231               0.002603067               0.001735837               0.000000000               0.000000000               0.000000000               0.000000000              -0.000103064               0.006444276               0.000792044              -0.000844182               0.002429464               0.001585283               0.000000000               0.000000000               0.000000000               0.000000000              -0.000163876               0.005951137               0.000731221              -0.000805344               0.002252140               0.001446797               0.000000000               0.000000000               0.000000000               0.000000000              -0.000193220               0.005452873               0.000653300              -0.000754065               0.002068961               0.001314896               0.000000000               0.000000000               0.000000000               0.000000000              -0.000188342               0.004948169               0.000545949              -0.000689148               0.001879089               0.001189941               0.000000000               0.000000000               0.000000000               0.000000000              -0.000150995               0.004436517               0.000408510              -0.000611186               0.001682553               0.001071367               0.000000000               0.000000000               0.000000000               0.000000000              -0.000086316               0.003918268               0.000230119              -0.000522151               0.001480126               0.000957976               0.000000000               0.000000000               0.000000000               0.000000000              -0.000087297               0.003553944               0.000144727              -0.000476978               0.001343629               0.000866651               0.000000000               0.000000000               0.000000000               0.000000000               0.002676742               0.020232599              -0.004072323              -0.001525295               0.007252563               0.005727268               0.000000000               0.000000000               0.000000000               0.000000000               0.001657091               0.016310001              -0.001994068              -0.001417338               0.005909058               0.004491720               0.000000000               0.000000000               0.000000000               0.000000000               0.001293014               0.013401601               0.000008766              -0.001190317               0.004863928               0.003673611               0.000000000               0.000000000               0.000000000               0.000000000               0.000803911               0.011630563               0.000771621              -0.001152351               0.004260932               0.003108581               0.000000000               0.000000000               0.000000000               0.000000000               0.000388780               0.010412200               0.001051332              -0.001155730               0.003855942               0.002700212               0.000000000               0.000000000               0.000000000               0.000000000               0.000066661               0.009496551               0.001137723              -0.001162068               0.003552841               0.002390773               0.000000000               0.000000000               0.000000000               0.000000000              -0.000178986               0.008768108               0.001146153              -0.001163131               0.003310383               0.002147253               0.000000000               0.000000000               0.000000000               0.000000000              -0.000355055               0.008144231               0.001108737              -0.001151172               0.003098440               0.001947268               0.000000000               0.000000000               0.000000000               0.000000000              -0.000461763               0.007579031               0.001048224              -0.001120537               0.002899831               0.001779293               0.000000000               0.000000000               0.000000000               0.000000000              -0.000508523               0.007044321               0.000980321              -0.001071234               0.002705161               0.001633928               0.000000000               0.000000000               0.000000000               0.000000000              -0.000502398               0.006527263               0.000909833              -0.001004305               0.002510501               0.001506196               0.000000000               0.000000000               0.000000000               0.000000000              -0.000454081               0.006025580               0.000834820              -0.000923476               0.002316332               0.001392856               0.000000000               0.000000000               0.000000000               0.000000000              -0.000384364               0.005540564               0.000738953              -0.000836705               0.002125738               0.001289033               0.000000000               0.000000000               0.000000000               0.000000000              -0.000299154               0.005083620               0.000611613              -0.000747634               0.001943734               0.001196101               0.000000000               0.000000000               0.000000000               0.000000000              -0.000200781               0.004667700               0.000450529              -0.000658754               0.001775469               0.001116715               0.000000000               0.000000000               0.000000000               0.000000000              -0.000100030               0.004304197               0.000247879              -0.000575534               0.001626563               0.001051028               0.000000000               0.000000000               0.000000000               0.000000000              -0.000072838               0.004086226               0.000147358              -0.000538091               0.001541426               0.001003334               0.000000000               0.000000000               0.000000000               0.000000000               0.002689216               0.017522748              -0.004567893              -0.001181888               0.006234819               0.005052931               0.000000000               0.000000000               0.000000000               0.000000000               0.001167132               0.014631478              -0.002271376              -0.001391258               0.005340863               0.003949605               0.000000000               0.000000000               0.000000000               0.000000000               0.000269488               0.012691096              -0.000091322              -0.001485325               0.004725432               0.003240106               0.000000000               0.000000000               0.000000000               0.000000000              -0.000317793               0.011338891               0.000687516              -0.001536530               0.004291769               0.002755239               0.000000000               0.000000000               0.000000000               0.000000000              -0.000678616               0.010307401               0.000959925              -0.001542903               0.003950067               0.002407164               0.000000000               0.000000000               0.000000000               0.000000000              -0.000892456               0.009482123               0.001044301              -0.001519933               0.003667320               0.002147387               0.000000000               0.000000000               0.000000000               0.000000000              -0.001011044               0.008787424               0.001053574              -0.001477566               0.003421634               0.001944068               0.000000000               0.000000000               0.000000000               0.000000000              -0.001056082               0.008160436               0.001017862              -0.001416082               0.003192145               0.001776063               0.000000000               0.000000000               0.000000000               0.000000000              -0.001032113               0.007577080               0.000959440              -0.001334174               0.002970393               0.001636219               0.000000000               0.000000000               0.000000000               0.000000000              -0.000951524               0.007027919               0.000891136              -0.001235309               0.002754386               0.001519077               0.000000000               0.000000000               0.000000000               0.000000000              -0.000830086               0.006509690               0.000816201              -0.001124991               0.002544872               0.001419881               0.000000000               0.000000000               0.000000000               0.000000000              -0.000685047               0.006022527               0.000733696              -0.001009706               0.002344058               0.001334351               0.000000000               0.000000000               0.000000000               0.000000000              -0.000529212               0.005574477               0.000633675              -0.000895262               0.002156561               0.001261299               0.000000000               0.000000000               0.000000000               0.000000000              -0.000370197               0.005183302               0.000508431              -0.000786735               0.001989995               0.001203260               0.000000000               0.000000000               0.000000000               0.000000000              -0.000222890               0.004864251               0.000356414              -0.000691613               0.001851939               0.001160325               0.000000000               0.000000000               0.000000000               0.000000000              -0.000100825               0.004633231               0.000183584              -0.000616962               0.001750049               0.001133087               0.000000000               0.000000000               0.000000000               0.000000000              -0.000055679               0.004526705               0.000099703              -0.000586716               0.001704459               0.001117742               0.000000000               0.000000000               0.000000000               0.000000000               0.002425834               0.014605236              -0.004565847              -0.000915968               0.005173685               0.004257717               0.000000000               0.000000000               0.000000000               0.000000000               0.000511398               0.012853812              -0.002354682              -0.001414950               0.004756211               0.003341260               0.000000000               0.000000000               0.000000000               0.000000000              -0.000823944               0.011901240              -0.000281163              -0.001796630               0.004565917               0.002769287               0.000000000               0.000000000               0.000000000               0.000000000              -0.001415021               0.010939699               0.000415214              -0.001898090               0.004279227               0.002381136               0.000000000               0.000000000               0.000000000               0.000000000              -0.001653425               0.010074005               0.000656726              -0.001879280               0.003984395               0.002105114               0.000000000               0.000000000               0.000000000               0.000000000              -0.001721516               0.009317583               0.000739643              -0.001810262               0.003709250               0.001898988               0.000000000               0.000000000               0.000000000               0.000000000              -0.001690409               0.008641831               0.000758418              -0.001714128               0.003451958               0.001737829               0.000000000               0.000000000               0.000000000               0.000000000              -0.001582029               0.008011695               0.000737622              -0.001594719               0.003202111               0.001607392               0.000000000               0.000000000               0.000000000               0.000000000              -0.001417359               0.007423069               0.000697504              -0.001459390               0.002960795               0.001501405               0.000000000               0.000000000               0.000000000               0.000000000              -0.001214879               0.006880426               0.000645379              -0.001315630               0.002731995               0.001416366               0.000000000               0.000000000               0.000000000               0.000000000              -0.000995034               0.006386058               0.000582144              -0.001171392               0.002519129               0.001347736               0.000000000               0.000000000               0.000000000               0.000000000              -0.000777075               0.005942041               0.000507210              -0.001034156               0.002325379               0.001291223               0.000000000               0.000000000               0.000000000               0.000000000              -0.000569033               0.005553075               0.000418755              -0.000907519               0.002153513               0.001245993               0.000000000               0.000000000               0.000000000               0.000000000              -0.000375715               0.005235393               0.000317668              -0.000795315               0.002010219               0.001214903               0.000000000               0.000000000               0.000000000               0.000000000              -0.000213273               0.005001516               0.000205455              -0.000705165               0.001902211               0.001197045               0.000000000               0.000000000               0.000000000               0.000000000              -0.000090060               0.004858076               0.000094729              -0.000641030               0.001833019               0.001191989               0.000000000               0.000000000               0.000000000               0.000000000              -0.000044124               0.004802825               0.000046592              -0.000616898               0.001806559               0.001189660               0.000000000               0.000000000               0.000000000               0.000000000               0.001804940               0.011726115              -0.004150377              -0.000788914               0.004171636               0.003382722               0.000000000               0.000000000               0.000000000               0.000000000              -0.000288183               0.011110904              -0.002303011              -0.001496930               0.004202574               0.002705644               0.000000000               0.000000000               0.000000000               0.000000000              -0.001868010               0.011060976              -0.000569087              -0.002083120               0.004381329               0.002298208               0.000000000               0.000000000               0.000000000               0.000000000              -0.002346085               0.010419520              -0.000003037              -0.002182217               0.004200544               0.002018328               0.000000000               0.000000000               0.000000000               0.000000000              -0.002412345               0.009688188               0.000208182              -0.002115648               0.003934580               0.001818932               0.000000000               0.000000000               0.000000000               0.000000000              -0.002311247               0.008995332               0.000306317              -0.001991129               0.003662124               0.001670995               0.000000000               0.000000000               0.000000000               0.000000000              -0.002120557               0.008349082               0.000353409              -0.001838840               0.003395946               0.001557106               0.000000000               0.000000000               0.000000000               0.000000000              -0.001861918               0.007734549               0.000363982              -0.001665034               0.003133168               0.001468135               0.000000000               0.000000000               0.000000000               0.000000000              -0.001567759               0.007165141               0.000358451              -0.001483548               0.002882873               0.001399324               0.000000000               0.000000000               0.000000000               0.000000000              -0.001265524               0.006652627               0.000338858              -0.001306147               0.002652902               0.001346756               0.000000000               0.000000000               0.000000000               0.000000000              -0.000976275               0.006198903               0.000303904              -0.001140963               0.002446601               0.001305638               0.000000000               0.000000000               0.000000000               0.000000000              -0.000716800               0.005806165               0.000254649              -0.000994568               0.002266892               0.001272323               0.000000000               0.000000000               0.000000000               0.000000000              -0.000491105               0.005482924               0.000196183              -0.000869528               0.002117465               0.001247938               0.000000000               0.000000000               0.000000000               0.000000000              -0.000301793               0.005236659               0.000137677              -0.000767753               0.002001453               0.001233700               0.000000000               0.000000000               0.000000000               0.000000000              -0.000157715               0.005069107               0.000081678              -0.000692780               0.001920612               0.001227832               0.000000000               0.000000000               0.000000000               0.000000000              -0.000061117               0.004974053               0.000033660              -0.000644674               0.001872892               0.001228218               0.000000000               0.000000000               0.000000000               0.000000000              -0.000030797               0.004935777               0.000017234              -0.000628520               0.001854749               0.001226230               0.000000000               0.000000000               0.000000000               0.000000000               0.000852927               0.009057787              -0.003438408              -0.000812377               0.003290023               0.002477647               0.000000000               0.000000000               0.000000000               0.000000000              -0.001189274               0.009503432              -0.002173106              -0.001633904               0.003712413               0.002078509               0.000000000               0.000000000               0.000000000               0.000000000              -0.002768826               0.010187743              -0.000947744              -0.002311772               0.004166471               0.001854699               0.000000000               0.000000000               0.000000000               0.000000000              -0.003030108               0.009789063              -0.000506043              -0.002359917               0.004049627               0.001689710               0.000000000               0.000000000               0.000000000               0.000000000              -0.002894579               0.009179888              -0.000292546              -0.002232948               0.003804248               0.001571300               0.000000000               0.000000000               0.000000000               0.000000000              -0.002622465               0.008565109              -0.000158325              -0.002054058               0.003539694               0.001485636               0.000000000               0.000000000               0.000000000               0.000000000              -0.002283617               0.007963085              -0.000069272              -0.001851737               0.003271581               0.001419844               0.000000000               0.000000000               0.000000000               0.000000000              -0.001897855               0.007387341              -0.000014526              -0.001635109               0.003007459               0.001372350               0.000000000               0.000000000               0.000000000               0.000000000              -0.001501536               0.006860578               0.000026216              -0.001420645               0.002760385               0.001339740               0.000000000               0.000000000               0.000000000               0.000000000              -0.001135410               0.006389347               0.000049810              -0.001224444               0.002537909               0.001313465               0.000000000               0.000000000               0.000000000               0.000000000              -0.000814243               0.005978449               0.000053866              -0.001052645               0.002343678               0.001291033               0.000000000               0.000000000               0.000000000               0.000000000              -0.000542886               0.005637457               0.000048036              -0.000908262               0.002181888               0.001273625               0.000000000               0.000000000               0.000000000               0.000000000              -0.000326246               0.005375349               0.000035830              -0.000794259               0.002056518               0.001262259               0.000000000               0.000000000               0.000000000               0.000000000              -0.000169391               0.005189210               0.000024178              -0.000712171               0.001967110               0.001254938               0.000000000               0.000000000               0.000000000               0.000000000              -0.000070867               0.005070008               0.000015503              -0.000660324               0.001910094               0.001249770               0.000000000               0.000000000               0.000000000               0.000000000              -0.000021715               0.005003763               0.000007271              -0.000633612               0.001879108               0.001245497               0.000000000               0.000000000               0.000000000               0.000000000              -0.000011626               0.004977665               0.000005643              -0.000626566               0.001868061               0.001241494               0.000000000               0.000000000               0.000000000               0.000000000              -0.000284572               0.006790812              -0.002556321              -0.000955565               0.002582102               0.001626537               0.000000000               0.000000000               0.000000000               0.000000000              -0.002066777               0.008063773              -0.002021915              -0.001783010               0.003282233               0.001499224               0.000000000               0.000000000               0.000000000               0.000000000              -0.003463933               0.009324384              -0.001403301              -0.002464517               0.003929603               0.001465085               0.000000000               0.000000000               0.000000000               0.000000000              -0.003484631               0.009185484              -0.001043028              -0.002454916               0.003880103               0.001425187               0.000000000               0.000000000               0.000000000               0.000000000              -0.003175897               0.008729084              -0.000800890              -0.002282091               0.003670363               0.001388271               0.000000000               0.000000000               0.000000000               0.000000000              -0.002769847               0.008215973              -0.000621007              -0.002065684               0.003427192               0.001361508               0.000000000               0.000000000               0.000000000               0.000000000              -0.002316978               0.007684052              -0.000481160              -0.001829369               0.003171115               0.001341746               0.000000000               0.000000000               0.000000000               0.000000000              -0.001834212               0.007165684              -0.000373148              -0.001583536               0.002916383               0.001332847               0.000000000               0.000000000               0.000000000               0.000000000              -0.001371717               0.006683686              -0.000283838              -0.001349851               0.002677824               0.001327972               0.000000000               0.000000000               0.000000000               0.000000000              -0.000966913               0.006244015              -0.000213040              -0.001143092               0.002462348               0.001319256               0.000000000               0.000000000               0.000000000               0.000000000              -0.000627413               0.005860613              -0.000158513              -0.000967854               0.002276136               0.001308282               0.000000000               0.000000000               0.000000000               0.000000000              -0.000356974               0.005547955              -0.000111091              -0.000827358               0.002125086               0.001297728               0.000000000               0.000000000               0.000000000               0.000000000              -0.000162895               0.005311852              -0.000069098              -0.000725065               0.002012288               0.001287223               0.000000000               0.000000000               0.000000000               0.000000000              -0.000046894               0.005152941              -0.000035231              -0.000661701               0.001938197               0.001276496               0.000000000               0.000000000               0.000000000               0.000000000               0.000002310               0.005056431              -0.000011716              -0.000631186               0.001895856               0.001264670               0.000000000               0.000000000               0.000000000               0.000000000               0.000011929               0.005007699              -0.000000838              -0.000621487               0.001876379               0.001254891               0.000000000               0.000000000               0.000000000               0.000000000               0.000008975               0.004991860               0.000002347              -0.000620615               0.001870809               0.001250193               0.000000000               0.000000000               0.000000000               0.000000000              -0.001622729               0.004687933              -0.001618390              -0.001194513               0.001960799               0.000766286               0.000000000               0.000000000               0.000000000               0.000000000              -0.002800540               0.006421824              -0.001854459              -0.001852927               0.002758228               0.000905302               0.000000000               0.000000000               0.000000000               0.000000000              -0.003867018               0.008105519              -0.001885902              -0.002463316               0.003522918               0.001059602               0.000000000               0.000000000               0.000000000               0.000000000              -0.003743956               0.008348697              -0.001617725              -0.002447565               0.003598726               0.001151161               0.000000000               0.000000000               0.000000000               0.000000000              -0.003350548               0.008154283              -0.001353172              -0.002275736               0.003476646               0.001200910               0.000000000               0.000000000               0.000000000               0.000000000              -0.002899728               0.007835798              -0.001125794              -0.002066868               0.003300862               0.001233995               0.000000000               0.000000000               0.000000000               0.000000000              -0.002430103               0.007464005              -0.000936311              -0.001844285               0.003102738               0.001258454               0.000000000               0.000000000               0.000000000               0.000000000              -0.001938819               0.007068178              -0.000777435              -0.001610575               0.002892894               0.001282319               0.000000000               0.000000000               0.000000000               0.000000000              -0.001458563               0.006672196              -0.000637462              -0.001380982               0.002684370               0.001303388               0.000000000               0.000000000               0.000000000               0.000000000              -0.001030546               0.006294232              -0.000514821              -0.001173231               0.002489133               0.001315902               0.000000000               0.000000000               0.000000000               0.000000000              -0.000668202               0.005948210              -0.000404765              -0.000994100               0.002314083               0.001319984               0.000000000               0.000000000               0.000000000               0.000000000              -0.000377850               0.005642296              -0.000301508              -0.000846979               0.002163073               0.001316094               0.000000000               0.000000000               0.000000000               0.000000000              -0.000158835               0.005398402              -0.000203415              -0.000734362               0.002044237               0.001309875               0.000000000               0.000000000               0.000000000               0.000000000              -0.000018425               0.005221198              -0.000115369              -0.000659557               0.001960234               0.001300677               0.000000000               0.000000000               0.000000000               0.000000000               0.000046580               0.005102706              -0.000050918              -0.000620369               0.001907675               0.001287305               0.000000000               0.000000000               0.000000000               0.000000000               0.000059923               0.005033473              -0.000015289              -0.000606711               0.001880045               0.001273333               0.000000000               0.000000000               0.000000000               0.000000000               0.000053391               0.005005065              -0.000003140              -0.000605610               0.001870208               0.001264599               0.000000000               0.000000000               0.000000000               0.000000000              -0.003348184               0.002791867              -0.000693331              -0.001604549               0.001465462              -0.000139088               0.000000000               0.000000000               0.000000000               0.000000000              -0.003630957               0.004783716              -0.001615089              -0.001959569               0.002247745               0.000288176               0.000000000               0.000000000               0.000000000               0.000000000              -0.004178806               0.006699033              -0.002271099              -0.002404426               0.003034463               0.000630037               0.000000000               0.000000000               0.000000000               0.000000000              -0.003920998               0.007311246              -0.002168526              -0.002384275               0.003231815               0.000847540               0.000000000               0.000000000               0.000000000               0.000000000              -0.003469537               0.007421926              -0.001917576              -0.002228812               0.003216888               0.000988075               0.000000000               0.000000000               0.000000000               0.000000000              -0.002996767               0.007330963              -0.001662858              -0.002040154               0.003123681               0.001083527               0.000000000               0.000000000               0.000000000               0.000000000              -0.002530565               0.007145509              -0.001435746              -0.001842146               0.002995861               0.001153715               0.000000000               0.000000000               0.000000000               0.000000000              -0.002060294               0.006898564              -0.001234574              -0.001634927               0.002844474               0.001209547               0.000000000               0.000000000               0.000000000               0.000000000              -0.001584544               0.006616456              -0.001050791              -0.001421258               0.002679216               0.001257958               0.000000000               0.000000000               0.000000000               0.000000000              -0.001136135               0.006320489              -0.000882380              -0.001216109               0.002512178               0.001296069               0.000000000               0.000000000               0.000000000               0.000000000              -0.000740158               0.006030044              -0.000725513              -0.001031312               0.002353765               0.001322453               0.000000000               0.000000000               0.000000000               0.000000000              -0.000404368               0.005753815              -0.000576527              -0.000870863               0.002208207               0.001337344               0.000000000               0.000000000               0.000000000               0.000000000              -0.000134362               0.005511534              -0.000429562              -0.000739326               0.002083601               0.001344276               0.000000000               0.000000000               0.000000000               0.000000000               0.000059765               0.005315081              -0.000282226              -0.000641972               0.001985667               0.001343695               0.000000000               0.000000000               0.000000000               0.000000000               0.000167150               0.005167168              -0.000155607              -0.000583214               0.001916777               0.001333563               0.000000000               0.000000000               0.000000000               0.000000000               0.000193348               0.005064025              -0.000063793              -0.000560496               0.001874823               0.001314327               0.000000000               0.000000000               0.000000000               0.000000000               0.000179583               0.005017982              -0.000024488              -0.000559903               0.001859278               0.001299376               0.000000000               0.000000000               0.000000000               0.000000000              -0.005343984               0.001242275               0.000132898              -0.002159276               0.001133842              -0.001025433               0.000000000               0.000000000               0.000000000               0.000000000              -0.004611527               0.003240279              -0.001288128              -0.002134354               0.001791531              -0.000342822               0.000000000               0.000000000               0.000000000               0.000000000              -0.004431119               0.005113071              -0.002439363              -0.002300799               0.002471272               0.000170473               0.000000000               0.000000000               0.000000000               0.000000000              -0.003964610               0.005988729              -0.002541995              -0.002235315               0.002741327               0.000506012               0.000000000               0.000000000               0.000000000               0.000000000              -0.003443131               0.006377296              -0.002355603              -0.002088332               0.002821854               0.000733522               0.000000000               0.000000000               0.000000000               0.000000000              -0.002946605               0.006523413              -0.002110384              -0.001920400               0.002814582               0.000894182               0.000000000               0.000000000               0.000000000               0.000000000              -0.002483105               0.006537469              -0.001873268              -0.001748344               0.002761915               0.001013571               0.000000000               0.000000000               0.000000000               0.000000000              -0.002034592               0.006464749              -0.001656230              -0.001571062               0.002678582               0.001107519               0.000000000               0.000000000               0.000000000               0.000000000              -0.001581916               0.006329000              -0.001452279              -0.001384340               0.002571092               0.001186752               0.000000000               0.000000000               0.000000000               0.000000000              -0.001134954               0.006149512              -0.001256901              -0.001194294               0.002447915               0.001253621               0.000000000               0.000000000               0.000000000               0.000000000              -0.000717755               0.005950334              -0.001072008              -0.001012948               0.002321074               0.001308126               0.000000000               0.000000000               0.000000000               0.000000000              -0.000339333               0.005747406              -0.000893535              -0.000845674               0.002197674               0.001352000               0.000000000               0.000000000               0.000000000               0.000000000              -0.000018836               0.005547367              -0.000707914              -0.000700483               0.002082598               0.001382115               0.000000000               0.000000000               0.000000000               0.000000000               0.000230362               0.005361146              -0.000511499              -0.000583756               0.001981616               0.001397860               0.000000000               0.000000000               0.000000000               0.000000000               0.000396267               0.005207135              -0.000318884              -0.000502291               0.001903125               0.001400834               0.000000000               0.000000000               0.000000000               0.000000000               0.000461763               0.005091338              -0.000148818              -0.000463255               0.001851514               0.001388259               0.000000000               0.000000000               0.000000000               0.000000000               0.000454562               0.005036093              -0.000067735              -0.000459050               0.001831697               0.001372648               0.000000000               0.000000000               0.000000000               0.000000000              -0.007463709               0.000118620               0.000743619              -0.002813716               0.000977439              -0.001836277               0.000000000               0.000000000               0.000000000               0.000000000              -0.005681826               0.001877175              -0.000924343              -0.002365328               0.001414158              -0.000951171               0.000000000               0.000000000               0.000000000               0.000000000              -0.004651845               0.003484364              -0.002361166              -0.002179983               0.001888102              -0.000291881               0.000000000               0.000000000               0.000000000               0.000000000              -0.003895319               0.004484710              -0.002643147              -0.002021330               0.002168664               0.000147334               0.000000000               0.000000000               0.000000000               0.000000000              -0.003273239               0.005085887              -0.002549942              -0.001863197               0.002316343               0.000453146               0.000000000               0.000000000               0.000000000               0.000000000              -0.002747720               0.005447253              -0.002349421              -0.001711298               0.002386165               0.000674866               0.000000000               0.000000000               0.000000000               0.000000000              -0.002278577               0.005662219              -0.002135587              -0.001562241               0.002408134               0.000845893               0.000000000               0.000000000               0.000000000               0.000000000              -0.001841302               0.005776158              -0.001933176              -0.001412505               0.002396201               0.000983696               0.000000000               0.000000000               0.000000000               0.000000000              -0.001415362               0.005807181              -0.001736425              -0.001256656               0.002354592               0.001097936               0.000000000               0.000000000               0.000000000               0.000000000              -0.000991014               0.005772394              -0.001540348              -0.001093177               0.002288504               0.001195327               0.000000000               0.000000000               0.000000000               0.000000000              -0.000569569               0.005696242              -0.001353166              -0.000925617               0.002207267               0.001281650               0.000000000               0.000000000               0.000000000               0.000000000              -0.000166230               0.005594808              -0.001167229              -0.000761686               0.002118812               0.001357126               0.000000000               0.000000000               0.000000000               0.000000000               0.000201584               0.005472377              -0.000965117              -0.000608452               0.002026925               0.001418473               0.000000000               0.000000000               0.000000000               0.000000000               0.000518750               0.005336588              -0.000744533              -0.000472541               0.001936358               0.001463817               0.000000000               0.000000000               0.000000000               0.000000000               0.000766867               0.005203190              -0.000506741              -0.000362823               0.001855320               0.001492497               0.000000000               0.000000000               0.000000000               0.000000000               0.000917709               0.005094046              -0.000257036              -0.000292614               0.001795536               0.001502922               0.000000000               0.000000000               0.000000000               0.000000000               0.000959304               0.005045064              -0.000129685              -0.000270894               0.001771969               0.001501076               0.000000000               0.000000000               0.000000000               0.000000000              -0.009503627              -0.000592993               0.001034353              -0.003489733               0.000965573              -0.002524160               0.000000000               0.000000000               0.000000000               0.000000000              -0.006743097               0.000774337              -0.000583118              -0.002625451               0.001133255              -0.001492196               0.000000000               0.000000000               0.000000000               0.000000000              -0.004854381               0.001967074              -0.002035084              -0.002066274               0.001344439              -0.000721835               0.000000000               0.000000000               0.000000000               0.000000000              -0.003764377               0.002966741              -0.002416024              -0.001782481               0.001583062              -0.000199419               0.000000000               0.000000000               0.000000000               0.000000000              -0.003012666               0.003708176              -0.002408266              -0.001593269               0.001767135               0.000173866               0.000000000               0.000000000               0.000000000               0.000000000              -0.002434626               0.004243150              -0.002272444              -0.001443376               0.001895493               0.000452117               0.000000000               0.000000000               0.000000000               0.000000000              -0.001954198               0.004632319              -0.002108405              -0.001311862               0.001981377               0.000669515               0.000000000               0.000000000               0.000000000               0.000000000              -0.001524552               0.004914946              -0.001943601              -0.001186073               0.002033656               0.000847583               0.000000000               0.000000000               0.000000000               0.000000000              -0.001118701               0.005103768              -0.001778580              -0.001057482               0.002053732               0.000996250               0.000000000               0.000000000               0.000000000               0.000000000              -0.000713449               0.005218810              -0.001612264              -0.000919893               0.002046217               0.001126323               0.000000000               0.000000000               0.000000000               0.000000000              -0.000300545               0.005281115              -0.001448725              -0.000772842               0.002017968               0.001245125               0.000000000               0.000000000               0.000000000               0.000000000               0.000113612               0.005302748              -0.001279239              -0.000620238               0.001974311               0.001354073               0.000000000               0.000000000               0.000000000               0.000000000               0.000525287               0.005289706              -0.001093476              -0.000464230               0.001917961               0.001453731               0.000000000               0.000000000               0.000000000               0.000000000               0.000922907               0.005243025              -0.000883935              -0.000309288               0.001850753               0.001541466               0.000000000               0.000000000               0.000000000               0.000000000               0.001283794               0.005166057              -0.000637531              -0.000164334               0.001776780               0.001612446               0.000000000               0.000000000               0.000000000               0.000000000               0.001581736               0.005080786              -0.000343386              -0.000041948               0.001707561               0.001665613               0.000000000               0.000000000               0.000000000               0.000000000               0.001741324               0.005050698              -0.000189263               0.000021658               0.001676330               0.001697988               0.000000000               0.000000000               0.000000000               0.000000000              -0.011220095              -0.000979775               0.000960962              -0.004085061               0.001035088              -0.003049973               0.000000000               0.000000000               0.000000000               0.000000000              -0.007663894              -0.000024735              -0.000312819              -0.002870866               0.000948704              -0.001922162               0.000000000               0.000000000               0.000000000               0.000000000              -0.005031852               0.000733905              -0.001490170              -0.001978681               0.000904188              -0.001074492               0.000000000               0.000000000               0.000000000               0.000000000              -0.003622640               0.001658305              -0.001851927              -0.001565776               0.001074685              -0.000491091               0.000000000               0.000000000               0.000000000               0.000000000              -0.002737208               0.002464701              -0.001895755              -0.001334538               0.001266403              -0.000068135               0.000000000               0.000000000               0.000000000               0.000000000              -0.002098006               0.003114585              -0.001822025              -0.001176073               0.001430208               0.000254135               0.000000000               0.000000000               0.000000000               0.000000000              -0.001596582               0.003631704              -0.001713624              -0.001052679               0.001561448               0.000508769               0.000000000               0.000000000               0.000000000               0.000000000              -0.001170224               0.004042777              -0.001600571              -0.000944180               0.001662305               0.000718125               0.000000000               0.000000000               0.000000000               0.000000000              -0.000772737               0.004361362              -0.001487675              -0.000834945               0.001732087               0.000897142               0.000000000               0.000000000               0.000000000               0.000000000              -0.000377281               0.004605865              -0.001370056              -0.000717213               0.001774343               0.001057131               0.000000000               0.000000000               0.000000000               0.000000000               0.000026734               0.004794831              -0.001248063              -0.000589328               0.001794703               0.001205375               0.000000000               0.000000000               0.000000000               0.000000000               0.000448517               0.004935058              -0.001121479              -0.000448688               0.001794565               0.001345877               0.000000000               0.000000000               0.000000000               0.000000000               0.000899073               0.005038197              -0.000981747              -0.000292622               0.001776923               0.001484301               0.000000000               0.000000000               0.000000000               0.000000000               0.001374229               0.005097427              -0.000816528              -0.000121843               0.001739740               0.001617897               0.000000000               0.000000000               0.000000000               0.000000000               0.001866451               0.005100801              -0.000609515               0.000062318               0.001679477               0.001741795               0.000000000               0.000000000               0.000000000               0.000000000               0.002370244               0.005060804              -0.000340140               0.000256239               0.001601505               0.001857743               0.000000000               0.000000000               0.000000000               0.000000000               0.002719690               0.005066887              -0.000199695               0.000386519               0.001560106               0.001946625               0.000000000               0.000000000               0.000000000               0.000000000              -0.012368675              -0.001149715               0.000571797              -0.004494536               0.001114933              -0.003379603               0.000000000               0.000000000               0.000000000               0.000000000              -0.008299393              -0.000501645              -0.000128450              -0.003049565               0.000849301              -0.002200264               0.000000000               0.000000000               0.000000000               0.000000000              -0.005160346              -0.000068475              -0.000787422              -0.001926569               0.000619360              -0.001307209               0.000000000               0.000000000               0.000000000               0.000000000              -0.003513313               0.000766789              -0.001007482              -0.001413339               0.000726704              -0.000686635               0.000000000               0.000000000               0.000000000               0.000000000              -0.002522901               0.001591615              -0.001049001              -0.001145038               0.000912211              -0.000232827               0.000000000               0.000000000               0.000000000               0.000000000              -0.001841869               0.002301404              -0.001020134              -0.000978374               0.001093251               0.000114877               0.000000000               0.000000000               0.000000000               0.000000000              -0.001317440               0.002889986              -0.000966891              -0.000855287               0.001248414               0.000393128               0.000000000               0.000000000               0.000000000               0.000000000              -0.000878666               0.003378512              -0.000911104              -0.000751812               0.001376763               0.000624951               0.000000000               0.000000000               0.000000000               0.000000000              -0.000484447               0.003780237              -0.000855591              -0.000654196               0.001478132               0.000823936               0.000000000               0.000000000               0.000000000               0.000000000              -0.000101436               0.004110418              -0.000793433              -0.000551840               0.001554072               0.001002232               0.000000000               0.000000000               0.000000000               0.000000000               0.000297960               0.004386002              -0.000727441              -0.000436515               0.001607491               0.001170976               0.000000000               0.000000000               0.000000000               0.000000000               0.000729884               0.004614950              -0.000660402              -0.000303162               0.001639355               0.001336193               0.000000000               0.000000000               0.000000000               0.000000000               0.001209253               0.004807456              -0.000585056              -0.000147462               0.001651623               0.001504161               0.000000000               0.000000000               0.000000000               0.000000000               0.001744847               0.004947406              -0.000492672               0.000035891               0.001637155               0.001673046               0.000000000               0.000000000               0.000000000               0.000000000               0.002349439               0.005023379              -0.000374047               0.000253115               0.001590071               0.001843186               0.000000000               0.000000000               0.000000000               0.000000000               0.003042513               0.005034321              -0.000211684               0.000511647               0.001507541               0.002019188               0.000000000               0.000000000               0.000000000               0.000000000               0.003575514               0.005078612              -0.000127729               0.000705984               0.001457526               0.002163510               0.000000000               0.000000000               0.000000000               0.000000000               0.000000000               0.000000000               0.000000000               0.000000000               0.000000000               0.000000000               0.000000000               0.000000000               0.000000000               0.000000000               0.000000000               0.000000000               0.000000000               0.000000000               0.000000000               0.000000000               0.000000000               0.000000000               0.000000000               0.000000000               0.000000000               0.000000000               0.000000000               0.000000000               0.000000000               0.000000000               0.000000000               0.000000000               0.000000000               0.000000000               0.000000000               0.000000000               0.000000000               0.000000000               0.000000000               0.000000000               0.000000000               0.000000000               0.000000000               0.000000000               0.000000000               0.000000000               0.000000000               0.000000000               0.000000000               0.000000000               0.000000000               0.000000000               0.000000000               0.000000000               0.000000000               0.000000000               0.000000000               0.000000000               0.000000000               0.000000000               0.000000000               0.000000000               0.000000000               0.000000000               0.000000000               0.000000000               0.000000000               0.000000000               0.000000000               0.000000000               0.000000000               0.000000000               0.000000000               0.000000000               0.000000000               0.000000000               0.000000000               0.000000000               0.000000000               0.000000000               0.000000000               0.000000000               0.000000000               0.000000000               0.000000000               0.000000000               0.000000000               0.000000000               0.000000000               0.000000000               0.000000000               0.000000000               0.000000000               0.000000000               0.000000000               0.000000000               0.000000000               0.000000000               0.000000000               0.000000000               0.000000000               0.000000000               0.000000000               0.000000000               0.000000000               0.000000000               0.000000000               0.000000000               0.000000000               0.000000000               0.000000000               0.000000000               0.000000000               0.000000000               0.000000000               0.000000000               0.000000000               0.000000000               0.000000000               0.000000000               0.000000000               0.000000000               0.000000000               0.000000000               0.000000000               0.000000000               0.000000000               0.000000000               0.000000000               0.000000000               0.000000000               0.000000000               0.000000000               0.000000000               0.000000000               0.000000000               0.000000000               0.000000000               0.000000000               0.000000000               0.000000000               0.000000000               0.000000000               0.000000000               0.000000000               0.000000000               0.000000000               0.000000000               0.000000000               0.000000000               0.000000000               0.000000000               0.000000000               0.000000000               0.000000000               0.000000000               0.000000000               0.000000000               0.000000000               0.000000000               0.000000000               0.000000000               0.000000000               0.000000000               0.000000000               0.000000000               0.000000000               0.000000000               0.000000000               0.000000000               0.000000000               0.000000000               0.000000000               0.000000000               0.000000000               0.000000000               0.000000000               0.000000000               0.000000000               0.000000000               0.000000000               0.000000000               0.000000000               0.000000000               0.000000000               0.000000000               0.000000000               0.000000000               0.000000000               0.000000000               0.000000000               0.000000000               0.000000000               0.000000000               0.000000000               0.000000000               0.000000000               0.000000000               0.000000000               0.000000000               0.000000000               0.000000000               0.000000000               0.000000000               0.000000000               0.000000000               0.000000000               0.000000000               0.000000000               0.000000000               0.000000000               0.000000000               0.000000000               0.000000000               0.000000000               0.000000000               0.000000000               0.000000000               0.000000000               0.000000000               0.000000000               0.000000000               0.000000000               0.000000000               0.000000000               0.000000000               0.000000000               0.000000000               0.000000000               0.000000000               0.000000000               0.000000000               0.000000000               0.000000000               0.000000000               0.000000000               0.000000000               0.000000000               0.000000000               0.000000000               0.000000000               0.000000000               0.000000000               0.000000000               0.000000000               0.000000000               0.000000000               0.000000000               0.000000000               0.000000000               0.000000000               0.000000000               0.000000000               0.000000000               0.000000000               0.000000000               0.000000000               0.000000000               0.000000000               0.000000000               0.000000000               0.000000000               0.000000000               0.000000000               0.000000000               0.000000000               0.000000000               0.000000000               0.000000000               0.000000000               0.000000000               0.000000000               0.000000000               0.000000000               0.000000000               0.000000000               0.000000000               0.000000000               0.000000000               0.000000000               0.000000000               0.000000000               0.000000000               0.000000000               0.000000000               0.000000000               0.000000000               0.000000000               0.000000000               0.000000000               0.000000000               0.000000000               0.000000000               0.000000000               0.000000000               0.000000000               0.000000000               0.000000000               0.000000000               0.000000000               0.000000000               0.000000000               0.000000000               0.000000000               0.000000000               0.000000000               0.000000000               0.000000000               0.000000000               0.000000000               0.000000000               0.000000000               0.000000000               0.000000000               0.000000000               0.000000000               0.000000000               0.000000000               0.000000000               0.000000000               0.000000000               0.000000000               0.000000000               0.000000000               0.000000000               0.000000000               0.000000000               0.000000000               0.000000000               0.000000000               0.000000000               0.000000000               0.000000000               0.000000000               0.000000000               0.000000000               0.000000000               0.000000000               0.000000000               0.000000000               0.000000000               0.000000000               0.000000000               0.000000000               0.002325323               0.023915444               0.001654573              -0.002117430               0.008677545               0.006560115               0.000000000               0.000000000               0.000000000               0.000000000               0.002139368               0.018641859               0.000803588              -0.001527966               0.006723213               0.005195247               0.000000000               0.000000000               0.000000000               0.000000000               0.002659291               0.014380218              -0.000034578              -0.000800291               0.005060122               0.004259831               0.000000000               0.000000000               0.000000000               0.000000000               0.002449875               0.011944881              -0.000381544              -0.000574406               0.004173056               0.003598650               0.000000000               0.000000000               0.000000000               0.000000000               0.002056224               0.010392704              -0.000518940              -0.000528003               0.003640201               0.003112198               0.000000000               0.000000000               0.000000000               0.000000000               0.001643289               0.009310224              -0.000566793              -0.000547543               0.003285892               0.002738348               0.000000000               0.000000000               0.000000000               0.000000000               0.001265802               0.008501793              -0.000575506              -0.000588047               0.003029919               0.002441871               0.000000000               0.000000000               0.000000000               0.000000000               0.000938544               0.007858645              -0.000558249              -0.000630375               0.002829647               0.002199272               0.000000000               0.000000000               0.000000000               0.000000000               0.000656882               0.007306686              -0.000529722              -0.000667004               0.002657872               0.001990869               0.000000000               0.000000000               0.000000000               0.000000000               0.000424068               0.006806111              -0.000498202              -0.000691737               0.002499260               0.001807523               0.000000000               0.000000000               0.000000000               0.000000000               0.000234854               0.006328629              -0.000465321              -0.000703007               0.002343857               0.001640851               0.000000000               0.000000000               0.000000000               0.000000000               0.000084588               0.005852007              -0.000430696              -0.000699779               0.002183909               0.001484130               0.000000000               0.000000000               0.000000000               0.000000000              -0.000023724               0.005358879              -0.000384811              -0.000678755               0.002012527               0.001333772               0.000000000               0.000000000               0.000000000               0.000000000              -0.000087812               0.004829412              -0.000321973              -0.000636604               0.001821989               0.001185385               0.000000000               0.000000000               0.000000000               0.000000000              -0.000103974               0.004249013              -0.000241942              -0.000570116               0.001606362               0.001036246               0.000000000               0.000000000               0.000000000               0.000000000              -0.000067080               0.003608752              -0.000136832              -0.000476248               0.001361655               0.000885407               0.000000000               0.000000000               0.000000000               0.000000000              -0.000087607               0.003127167              -0.000088308              -0.000423747               0.001183628               0.000759880               0.000000000               0.000000000               0.000000000               0.000000000               0.002505893               0.022451381               0.003073619              -0.001866710               0.008105955               0.006239246               0.000000000               0.000000000               0.000000000               0.000000000               0.001974267               0.017710678               0.001496055              -0.001473481               0.006394661               0.004921179               0.000000000               0.000000000               0.000000000               0.000000000               0.002122910               0.013989274              -0.000044537              -0.000952566               0.004980566               0.004028001               0.000000000               0.000000000               0.000000000               0.000000000               0.001779009               0.011832091              -0.000660945              -0.000811881               0.004214618               0.003402737               0.000000000               0.000000000               0.000000000               0.000000000               0.001363438               0.010424608              -0.000899236              -0.000791785               0.003738763               0.002946978               0.000000000               0.000000000               0.000000000               0.000000000               0.000981524               0.009419605              -0.000977429              -0.000809377               0.003409629               0.002600252               0.000000000               0.000000000               0.000000000               0.000000000               0.000650157               0.008645315              -0.000988059              -0.000836854               0.003160694               0.002323840               0.000000000               0.000000000               0.000000000               0.000000000               0.000377357               0.008012085              -0.000957368              -0.000860000               0.002957335               0.002097335               0.000000000               0.000000000               0.000000000               0.000000000               0.000160213               0.007456680              -0.000905808              -0.000872003               0.002776203               0.001904200               0.000000000               0.000000000               0.000000000               0.000000000               0.000001394               0.006942041              -0.000849760              -0.000867231               0.002603067               0.001735837               0.000000000               0.000000000               0.000000000               0.000000000              -0.000103064               0.006444276              -0.000792044              -0.000844182               0.002429464               0.001585283               0.000000000               0.000000000               0.000000000               0.000000000              -0.000163876               0.005951137              -0.000731221              -0.000805344               0.002252140               0.001446797               0.000000000               0.000000000               0.000000000               0.000000000              -0.000193220               0.005452873              -0.000653300              -0.000754065               0.002068961               0.001314896               0.000000000               0.000000000               0.000000000               0.000000000              -0.000188342               0.004948169              -0.000545949              -0.000689148               0.001879089               0.001189941               0.000000000               0.000000000               0.000000000               0.000000000              -0.000150995               0.004436517              -0.000408510              -0.000611186               0.001682553               0.001071367               0.000000000               0.000000000               0.000000000               0.000000000              -0.000086316               0.003918268              -0.000230119              -0.000522151               0.001480126               0.000957976               0.000000000               0.000000000               0.000000000               0.000000000              -0.000087297               0.003553944              -0.000144727              -0.000476978               0.001343629               0.000866651               0.000000000               0.000000000               0.000000000               0.000000000               0.002676742               0.020232599               0.004072323              -0.001525295               0.007252563               0.005727268               0.000000000               0.000000000               0.000000000               0.000000000               0.001657091               0.016310001               0.001994068              -0.001417338               0.005909058               0.004491720               0.000000000               0.000000000               0.000000000               0.000000000               0.001293014               0.013401601              -0.000008766              -0.001190317               0.004863928               0.003673611               0.000000000               0.000000000               0.000000000               0.000000000               0.000803911               0.011630563              -0.000771621              -0.001152351               0.004260932               0.003108581               0.000000000               0.000000000               0.000000000               0.000000000               0.000388780               0.010412200              -0.001051332              -0.001155730               0.003855942               0.002700212               0.000000000               0.000000000               0.000000000               0.000000000               0.000066661               0.009496551              -0.001137723              -0.001162068               0.003552841               0.002390773               0.000000000               0.000000000               0.000000000               0.000000000              -0.000178986               0.008768108              -0.001146153              -0.001163131               0.003310383               0.002147253               0.000000000               0.000000000               0.000000000               0.000000000              -0.000355055               0.008144231              -0.001108737              -0.001151172               0.003098440               0.001947268               0.000000000               0.000000000               0.000000000               0.000000000              -0.000461763               0.007579031              -0.001048224              -0.001120537               0.002899831               0.001779293               0.000000000               0.000000000               0.000000000               0.000000000              -0.000508523               0.007044321              -0.000980321              -0.001071234               0.002705161               0.001633928               0.000000000               0.000000000               0.000000000               0.000000000              -0.000502398               0.006527263              -0.000909833              -0.001004305               0.002510501               0.001506196               0.000000000               0.000000000               0.000000000               0.000000000              -0.000454081               0.006025580              -0.000834820              -0.000923476               0.002316332               0.001392856               0.000000000               0.000000000               0.000000000               0.000000000              -0.000384364               0.005540564              -0.000738953              -0.000836705               0.002125738               0.001289033               0.000000000               0.000000000               0.000000000               0.000000000              -0.000299154               0.005083620              -0.000611613              -0.000747634               0.001943734               0.001196101               0.000000000               0.000000000               0.000000000               0.000000000              -0.000200781               0.004667700              -0.000450529              -0.000658754               0.001775469               0.001116715               0.000000000               0.000000000               0.000000000               0.000000000              -0.000100030               0.004304197              -0.000247879              -0.000575534               0.001626563               0.001051028               0.000000000               0.000000000               0.000000000               0.000000000              -0.000072838               0.004086226              -0.000147358              -0.000538091               0.001541426               0.001003334               0.000000000               0.000000000               0.000000000               0.000000000               0.002689216               0.017522748               0.004567893              -0.001181888               0.006234819               0.005052931               0.000000000               0.000000000               0.000000000               0.000000000               0.001167132               0.014631478               0.002271376              -0.001391258               0.005340863               0.003949605               0.000000000               0.000000000               0.000000000               0.000000000               0.000269488               0.012691096               0.000091322              -0.001485325               0.004725432               0.003240106               0.000000000               0.000000000               0.000000000               0.000000000              -0.000317793               0.011338891              -0.000687516              -0.001536530               0.004291769               0.002755239               0.000000000               0.000000000               0.000000000               0.000000000              -0.000678616               0.010307401              -0.000959925              -0.001542903               0.003950067               0.002407164               0.000000000               0.000000000               0.000000000               0.000000000              -0.000892456               0.009482123              -0.001044301              -0.001519933               0.003667320               0.002147387               0.000000000               0.000000000               0.000000000               0.000000000              -0.001011044               0.008787424              -0.001053574              -0.001477566               0.003421634               0.001944068               0.000000000               0.000000000               0.000000000               0.000000000              -0.001056082               0.008160436              -0.001017862              -0.001416082               0.003192145               0.001776063               0.000000000               0.000000000               0.000000000               0.000000000              -0.001032113               0.007577080              -0.000959440              -0.001334174               0.002970393               0.001636219               0.000000000               0.000000000               0.000000000               0.000000000              -0.000951524               0.007027919              -0.000891136              -0.001235309               0.002754386               0.001519077               0.000000000               0.000000000               0.000000000               0.000000000              -0.000830086               0.006509690              -0.000816201              -0.001124991               0.002544872               0.001419881               0.000000000               0.000000000               0.000000000               0.000000000              -0.000685047               0.006022527              -0.000733696              -0.001009706               0.002344058               0.001334351               0.000000000               0.000000000               0.000000000               0.000000000              -0.000529212               0.005574477              -0.000633675              -0.000895262               0.002156561               0.001261299               0.000000000               0.000000000               0.000000000               0.000000000              -0.000370197               0.005183302              -0.000508431              -0.000786735               0.001989995               0.001203260               0.000000000               0.000000000               0.000000000               0.000000000              -0.000222890               0.004864251              -0.000356414              -0.000691613               0.001851939               0.001160325               0.000000000               0.000000000               0.000000000               0.000000000              -0.000100825               0.004633231              -0.000183584              -0.000616962               0.001750049               0.001133087               0.000000000               0.000000000               0.000000000               0.000000000              -0.000055679               0.004526705              -0.000099703              -0.000586716               0.001704459               0.001117742               0.000000000               0.000000000               0.000000000               0.000000000               0.002425834               0.014605236               0.004565847              -0.000915968               0.005173685               0.004257717               0.000000000               0.000000000               0.000000000               0.000000000               0.000511398               0.012853812               0.002354682              -0.001414950               0.004756211               0.003341260               0.000000000               0.000000000               0.000000000               0.000000000              -0.000823944               0.011901240               0.000281163              -0.001796630               0.004565917               0.002769287               0.000000000               0.000000000               0.000000000               0.000000000              -0.001415021               0.010939699              -0.000415214              -0.001898090               0.004279227               0.002381136               0.000000000               0.000000000               0.000000000               0.000000000              -0.001653425               0.010074005              -0.000656726              -0.001879280               0.003984395               0.002105114               0.000000000               0.000000000               0.000000000               0.000000000              -0.001721516               0.009317583              -0.000739643              -0.001810262               0.003709250               0.001898988               0.000000000               0.000000000               0.000000000               0.000000000              -0.001690409               0.008641831              -0.000758418              -0.001714128               0.003451958               0.001737829               0.000000000               0.000000000               0.000000000               0.000000000              -0.001582029               0.008011695              -0.000737622              -0.001594719               0.003202111               0.001607392               0.000000000               0.000000000               0.000000000               0.000000000              -0.001417359               0.007423069              -0.000697504              -0.001459390               0.002960795               0.001501405               0.000000000               0.000000000               0.000000000               0.000000000              -0.001214879               0.006880426              -0.000645379              -0.001315630               0.002731995               0.001416366               0.000000000               0.000000000               0.000000000               0.000000000              -0.000995034               0.006386058              -0.000582144              -0.001171392               0.002519129               0.001347736               0.000000000               0.000000000               0.000000000               0.000000000              -0.000777075               0.005942041              -0.000507210              -0.001034156               0.002325379               0.001291223               0.000000000               0.000000000               0.000000000               0.000000000              -0.000569033               0.005553075              -0.000418755              -0.000907519               0.002153513               0.001245993               0.000000000               0.000000000               0.000000000               0.000000000              -0.000375715               0.005235393              -0.000317668              -0.000795315               0.002010219               0.001214903               0.000000000               0.000000000               0.000000000               0.000000000              -0.000213273               0.005001516              -0.000205455              -0.000705165               0.001902211               0.001197045               0.000000000               0.000000000               0.000000000               0.000000000              -0.000090060               0.004858076              -0.000094729              -0.000641030               0.001833019               0.001191989               0.000000000               0.000000000               0.000000000               0.000000000              -0.000044124               0.004802825              -0.000046592              -0.000616898               0.001806559               0.001189660               0.000000000               0.000000000               0.000000000               0.000000000               0.001804940               0.011726115               0.004150377              -0.000788914               0.004171636               0.003382722               0.000000000               0.000000000               0.000000000               0.000000000              -0.000288183               0.011110904               0.002303011              -0.001496930               0.004202574               0.002705644               0.000000000               0.000000000               0.000000000               0.000000000              -0.001868010               0.011060976               0.000569087              -0.002083120               0.004381329               0.002298208               0.000000000               0.000000000               0.000000000               0.000000000              -0.002346085               0.010419520               0.000003037              -0.002182217               0.004200544               0.002018328               0.000000000               0.000000000               0.000000000               0.000000000              -0.002412345               0.009688188              -0.000208182              -0.002115648               0.003934580               0.001818932               0.000000000               0.000000000               0.000000000               0.000000000              -0.002311247               0.008995332              -0.000306317              -0.001991129               0.003662124               0.001670995               0.000000000               0.000000000               0.000000000               0.000000000              -0.002120557               0.008349082              -0.000353409              -0.001838840               0.003395946               0.001557106               0.000000000               0.000000000               0.000000000               0.000000000              -0.001861918               0.007734549              -0.000363982              -0.001665034               0.003133168               0.001468135               0.000000000               0.000000000               0.000000000               0.000000000              -0.001567759               0.007165141              -0.000358451              -0.001483548               0.002882873               0.001399324               0.000000000               0.000000000               0.000000000               0.000000000              -0.001265524               0.006652627              -0.000338858              -0.001306147               0.002652902               0.001346756               0.000000000               0.000000000               0.000000000               0.000000000              -0.000976275               0.006198903              -0.000303904              -0.001140963               0.002446601               0.001305638               0.000000000               0.000000000               0.000000000               0.000000000              -0.000716800               0.005806165              -0.000254649              -0.000994568               0.002266892               0.001272323               0.000000000               0.000000000               0.000000000               0.000000000              -0.000491105               0.005482924              -0.000196183              -0.000869528               0.002117465               0.001247938               0.000000000               0.000000000               0.000000000               0.000000000              -0.000301793               0.005236659              -0.000137677              -0.000767753               0.002001453               0.001233700               0.000000000               0.000000000               0.000000000               0.000000000              -0.000157715               0.005069107              -0.000081678              -0.000692780               0.001920612               0.001227832               0.000000000               0.000000000               0.000000000               0.000000000              -0.000061117               0.004974053              -0.000033660              -0.000644674               0.001872892               0.001228218               0.000000000               0.000000000               0.000000000               0.000000000              -0.000030797               0.004935777              -0.000017234              -0.000628520               0.001854749               0.001226230               0.000000000               0.000000000               0.000000000               0.000000000               0.000852927               0.009057787               0.003438408              -0.000812377               0.003290023               0.002477647               0.000000000               0.000000000               0.000000000               0.000000000              -0.001189274               0.009503432               0.002173106              -0.001633904               0.003712413               0.002078509               0.000000000               0.000000000               0.000000000               0.000000000              -0.002768826               0.010187743               0.000947744              -0.002311772               0.004166471               0.001854699               0.000000000               0.000000000               0.000000000               0.000000000              -0.003030108               0.009789063               0.000506043              -0.002359917               0.004049627               0.001689710               0.000000000               0.000000000               0.000000000               0.000000000              -0.002894579               0.009179888               0.000292546              -0.002232948               0.003804248               0.001571300               0.000000000               0.000000000               0.000000000               0.000000000              -0.002622465               0.008565109               0.000158325              -0.002054058               0.003539694               0.001485636               0.000000000               0.000000000               0.000000000               0.000000000              -0.002283617               0.007963085               0.000069272              -0.001851737               0.003271581               0.001419844               0.000000000               0.000000000               0.000000000               0.000000000              -0.001897855               0.007387341               0.000014526              -0.001635109               0.003007459               0.001372350               0.000000000               0.000000000               0.000000000               0.000000000              -0.001501536               0.006860578              -0.000026216              -0.001420645               0.002760385               0.001339740               0.000000000               0.000000000               0.000000000               0.000000000              -0.001135410               0.006389347              -0.000049810              -0.001224444               0.002537909               0.001313465               0.000000000               0.000000000               0.000000000               0.000000000              -0.000814243               0.005978449              -0.000053866              -0.001052645               0.002343678               0.001291033               0.000000000               0.000000000               0.000000000               0.000000000              -0.000542886               0.005637457              -0.000048036              -0.000908262               0.002181888               0.001273625               0.000000000               0.000000000               0.000000000               0.000000000              -0.000326246               0.005375349              -0.000035830              -0.000794259               0.002056518               0.001262259               0.000000000               0.000000000               0.000000000               0.000000000              -0.000169391               0.005189210              -0.000024178              -0.000712171               0.001967110               0.001254938               0.000000000               0.000000000               0.000000000               0.000000000              -0.000070867               0.005070008              -0.000015503              -0.000660324               0.001910094               0.001249770               0.000000000               0.000000000               0.000000000               0.000000000              -0.000021715               0.005003763              -0.000007271              -0.000633612               0.001879108               0.001245497               0.000000000               0.000000000               0.000000000               0.000000000              -0.000011626               0.004977665              -0.000005643              -0.000626566               0.001868061               0.001241494               0.000000000               0.000000000               0.000000000               0.000000000              -0.000284572               0.006790812               0.002556321              -0.000955565               0.002582102               0.001626537               0.000000000               0.000000000               0.000000000               0.000000000              -0.002066777               0.008063773               0.002021915              -0.001783010               0.003282233               0.001499224               0.000000000               0.000000000               0.000000000               0.000000000              -0.003463933               0.009324384               0.001403301              -0.002464517               0.003929603               0.001465085               0.000000000               0.000000000               0.000000000               0.000000000              -0.003484631               0.009185484               0.001043028              -0.002454916               0.003880103               0.001425187               0.000000000               0.000000000               0.000000000               0.000000000              -0.003175897               0.008729084               0.000800890              -0.002282091               0.003670363               0.001388271               0.000000000               0.000000000               0.000000000               0.000000000              -0.002769847               0.008215973               0.000621007              -0.002065684               0.003427192               0.001361508               0.000000000               0.000000000               0.000000000               0.000000000              -0.002316978               0.007684052               0.000481160              -0.001829369               0.003171115               0.001341746               0.000000000               0.000000000               0.000000000               0.000000000              -0.001834212               0.007165684               0.000373148              -0.001583536               0.002916383               0.001332847               0.000000000               0.000000000               0.000000000               0.000000000              -0.001371717               0.006683686               0.000283838              -0.001349851               0.002677824               0.001327972               0.000000000               0.000000000               0.000000000               0.000000000              -0.000966913               0.006244015               0.000213040              -0.001143092               0.002462348               0.001319256               0.000000000               0.000000000               0.000000000               0.000000000              -0.000627413               0.005860613               0.000158513              -0.000967854               0.002276136               0.001308282               0.000000000               0.000000000               0.000000000               0.000000000              -0.000356974               0.005547955               0.000111091              -0.000827358               0.002125086               0.001297728               0.000000000               0.000000000               0.000000000               0.000000000              -0.000162895               0.005311852               0.000069098              -0.000725065               0.002012288               0.001287223               0.000000000               0.000000000               0.000000000               0.000000000              -0.000046894               0.005152941               0.000035231              -0.000661701               0.001938197               0.001276496               0.000000000               0.000000000               0.000000000               0.000000000               0.000002310               0.005056431               0.000011716              -0.000631186               0.001895856               0.001264670               0.000000000               0.000000000               0.000000000               0.000000000               0.000011929               0.005007699               0.000000838              -0.000621487               0.001876379               0.001254891               0.000000000               0.000000000               0.000000000               0.000000000               0.000008975               0.004991860              -0.000002347              -0.000620615               0.001870809               0.001250193               0.000000000               0.000000000               0.000000000               0.000000000              -0.001622729               0.004687933               0.001618390              -0.001194513               0.001960799               0.000766286               0.000000000               0.000000000               0.000000000               0.000000000              -0.002800540               0.006421824               0.001854459              -0.001852927               0.002758228               0.000905302               0.000000000               0.000000000               0.000000000               0.000000000              -0.003867018               0.008105519               0.001885902              -0.002463316               0.003522918               0.001059602               0.000000000               0.000000000               0.000000000               0.000000000              -0.003743956               0.008348697               0.001617725              -0.002447565               0.003598726               0.001151161               0.000000000               0.000000000               0.000000000               0.000000000              -0.003350548               0.008154283               0.001353172              -0.002275736               0.003476646               0.001200910               0.000000000               0.000000000               0.000000000               0.000000000              -0.002899728               0.007835798               0.001125794              -0.002066868               0.003300862               0.001233995               0.000000000               0.000000000               0.000000000               0.000000000              -0.002430103               0.007464005               0.000936311              -0.001844285               0.003102738               0.001258454               0.000000000               0.000000000               0.000000000               0.000000000              -0.001938819               0.007068178               0.000777435              -0.001610575               0.002892894               0.001282319               0.000000000               0.000000000               0.000000000               0.000000000              -0.001458563               0.006672196               0.000637462              -0.001380982               0.002684370               0.001303388               0.000000000               0.000000000               0.000000000               0.000000000              -0.001030546               0.006294232               0.000514821              -0.001173231               0.002489133               0.001315902               0.000000000               0.000000000               0.000000000               0.000000000              -0.000668202               0.005948210               0.000404765              -0.000994100               0.002314083               0.001319984               0.000000000               0.000000000               0.000000000               0.000000000              -0.000377850               0.005642296               0.000301508              -0.000846979               0.002163073               0.001316094               0.000000000               0.000000000               0.000000000               0.000000000              -0.000158835               0.005398402               0.000203415              -0.000734362               0.002044237               0.001309875               0.000000000               0.000000000               0.000000000               0.000000000              -0.000018425               0.005221198               0.000115369              -0.000659557               0.001960234               0.001300677               0.000000000               0.000000000               0.000000000               0.000000000               0.000046580               0.005102706               0.000050918              -0.000620369               0.001907675               0.001287305               0.000000000               0.000000000               0.000000000               0.000000000               0.000059923               0.005033473               0.000015289              -0.000606711               0.001880045               0.001273333               0.000000000               0.000000000               0.000000000               0.000000000               0.000053391               0.005005065               0.000003140              -0.000605610               0.001870208               0.001264599               0.000000000               0.000000000               0.000000000               0.000000000              -0.003348184               0.002791867               0.000693331              -0.001604549               0.001465462              -0.000139088               0.000000000               0.000000000               0.000000000               0.000000000              -0.003630957               0.004783716               0.001615089              -0.001959569               0.002247745               0.000288176               0.000000000               0.000000000               0.000000000               0.000000000              -0.004178806               0.006699033               0.002271099              -0.002404426               0.003034463               0.000630037               0.000000000               0.000000000               0.000000000               0.000000000              -0.003920998               0.007311246               0.002168526              -0.002384275               0.003231815               0.000847540               0.000000000               0.000000000               0.000000000               0.000000000              -0.003469537               0.007421926               0.001917576              -0.002228812               0.003216888               0.000988075               0.000000000               0.000000000               0.000000000               0.000000000              -0.002996767               0.007330963               0.001662858              -0.002040154               0.003123681               0.001083527               0.000000000               0.000000000               0.000000000               0.000000000              -0.002530565               0.007145509               0.001435746              -0.001842146               0.002995861               0.001153715               0.000000000               0.000000000               0.000000000               0.000000000              -0.002060294               0.006898564               0.001234574              -0.001634927               0.002844474               0.001209547               0.000000000               0.000000000               0.000000000               0.000000000              -0.001584544               0.006616456               0.001050791              -0.001421258               0.002679216               0.001257958               0.000000000               0.000000000               0.000000000               0.000000000              -0.001136135               0.006320489               0.000882380              -0.001216109               0.002512178               0.001296069               0.000000000               0.000000000               0.000000000               0.000000000              -0.000740158               0.006030044               0.000725513              -0.001031312               0.002353765               0.001322453               0.000000000               0.000000000               0.000000000               0.000000000              -0.000404368               0.005753815               0.000576527              -0.000870863               0.002208207               0.001337344               0.000000000               0.000000000               0.000000000               0.000000000              -0.000134362               0.005511534               0.000429562              -0.000739326               0.002083601               0.001344276               0.000000000               0.000000000               0.000000000               0.000000000               0.000059765               0.005315081               0.000282226              -0.000641972               0.001985667               0.001343695               0.000000000               0.000000000               0.000000000               0.000000000               0.000167150               0.005167168               0.000155607              -0.000583214               0.001916777               0.001333563               0.000000000               0.000000000               0.000000000               0.000000000               0.000193348               0.005064025               0.000063793              -0.000560496               0.001874823               0.001314327               0.000000000               0.000000000               0.000000000               0.000000000               0.000179583               0.005017982               0.000024488              -0.000559903               0.001859278               0.001299376               0.000000000               0.000000000               0.000000000               0.000000000              -0.005343984               0.001242275              -0.000132898              -0.002159276               0.001133842              -0.001025433               0.000000000               0.000000000               0.000000000               0.000000000              -0.004611527               0.003240279               0.001288128              -0.002134354               0.001791531              -0.000342822               0.000000000               0.000000000               0.000000000               0.000000000              -0.004431119               0.005113071               0.002439363              -0.002300799               0.002471272               0.000170473               0.000000000               0.000000000               0.000000000               0.000000000              -0.003964610               0.005988729               0.002541995              -0.002235315               0.002741327               0.000506012               0.000000000               0.000000000               0.000000000               0.000000000              -0.003443131               0.006377296               0.002355603              -0.002088332               0.002821854               0.000733522               0.000000000               0.000000000               0.000000000               0.000000000              -0.002946605               0.006523413               0.002110384              -0.001920400               0.002814582               0.000894182               0.000000000               0.000000000               0.000000000               0.000000000              -0.002483105               0.006537469               0.001873268              -0.001748344               0.002761915               0.001013571               0.000000000               0.000000000               0.000000000               0.000000000              -0.002034592               0.006464749               0.001656230              -0.001571062               0.002678582               0.001107519               0.000000000               0.000000000               0.000000000               0.000000000              -0.001581916               0.006329000               0.001452279              -0.001384340               0.002571092               0.001186752               0.000000000               0.000000000               0.000000000               0.000000000              -0.001134954               0.006149512               0.001256901              -0.001194294               0.002447915               0.001253621               0.000000000               0.000000000               0.000000000               0.000000000              -0.000717755               0.005950334               0.001072008              -0.001012948               0.002321074               0.001308126               0.000000000               0.000000000               0.000000000               0.000000000              -0.000339333               0.005747406               0.000893535              -0.000845674               0.002197674               0.001352000               0.000000000               0.000000000               0.000000000               0.000000000              -0.000018836               0.005547367               0.000707914              -0.000700483               0.002082598               0.001382115               0.000000000               0.000000000               0.000000000               0.000000000               0.000230362               0.005361146               0.000511499              -0.000583756               0.001981616               0.001397860               0.000000000               0.000000000               0.000000000               0.000000000               0.000396267               0.005207135               0.000318884              -0.000502291               0.001903125               0.001400834               0.000000000               0.000000000               0.000000000               0.000000000               0.000461763               0.005091338               0.000148818              -0.000463255               0.001851514               0.001388259               0.000000000               0.000000000               0.000000000               0.000000000               0.000454562               0.005036093               0.000067735              -0.000459050               0.001831697               0.001372648               0.000000000               0.000000000               0.000000000               0.000000000              -0.007463709               0.000118620              -0.000743619              -0.002813716               0.000977439              -0.001836277               0.000000000               0.000000000               0.000000000               0.000000000              -0.005681826               0.001877175               0.000924343              -0.002365328               0.001414158              -0.000951171               0.000000000               0.000000000               0.000000000               0.000000000              -0.004651845               0.003484364               0.002361166              -0.002179983               0.001888102              -0.000291881               0.000000000               0.000000000               0.000000000               0.000000000              -0.003895319               0.004484710               0.002643147              -0.002021330               0.002168664               0.000147334               0.000000000               0.000000000               0.000000000               0.000000000              -0.003273239               0.005085887               0.002549942              -0.001863197               0.002316343               0.000453146               0.000000000               0.000000000               0.000000000               0.000000000              -0.002747720               0.005447253               0.002349421              -0.001711298               0.002386165               0.000674866               0.000000000               0.000000000               0.000000000               0.000000000              -0.002278577               0.005662219               0.002135587              -0.001562241               0.002408134               0.000845893               0.000000000               0.000000000               0.000000000               0.000000000              -0.001841302               0.005776158               0.001933176              -0.001412505               0.002396201               0.000983696               0.000000000               0.000000000               0.000000000               0.000000000              -0.001415362               0.005807181               0.001736425              -0.001256656               0.002354592               0.001097936               0.000000000               0.000000000               0.000000000               0.000000000              -0.000991014               0.005772394               0.001540348              -0.001093177               0.002288504               0.001195327               0.000000000               0.000000000               0.000000000               0.000000000              -0.000569569               0.005696242               0.001353166              -0.000925617               0.002207267               0.001281650               0.000000000               0.000000000               0.000000000               0.000000000              -0.000166230               0.005594808               0.001167229              -0.000761686               0.002118812               0.001357126               0.000000000               0.000000000               0.000000000               0.000000000               0.000201584               0.005472377               0.000965117              -0.000608452               0.002026925               0.001418473               0.000000000               0.000000000               0.000000000               0.000000000               0.000518750               0.005336588               0.000744533              -0.000472541               0.001936358               0.001463817               0.000000000               0.000000000               0.000000000               0.000000000               0.000766867               0.005203190               0.000506741              -0.000362823               0.001855320               0.001492497               0.000000000               0.000000000               0.000000000               0.000000000               0.000917709               0.005094046               0.000257036              -0.000292614               0.001795536               0.001502922               0.000000000               0.000000000               0.000000000               0.000000000               0.000959304               0.005045064               0.000129685              -0.000270894               0.001771969               0.001501076               0.000000000               0.000000000               0.000000000               0.000000000              -0.009503627              -0.000592993              -0.001034353              -0.003489733               0.000965573              -0.002524160               0.000000000               0.000000000               0.000000000               0.000000000              -0.006743097               0.000774337               0.000583118              -0.002625451               0.001133255              -0.001492196               0.000000000               0.000000000               0.000000000               0.000000000              -0.004854381               0.001967074               0.002035084              -0.002066274               0.001344439              -0.000721835               0.000000000               0.000000000               0.000000000               0.000000000              -0.003764377               0.002966741               0.002416024              -0.001782481               0.001583062              -0.000199419               0.000000000               0.000000000               0.000000000               0.000000000              -0.003012666               0.003708176               0.002408266              -0.001593269               0.001767135               0.000173866               0.000000000               0.000000000               0.000000000               0.000000000              -0.002434626               0.004243150               0.002272444              -0.001443376               0.001895493               0.000452117               0.000000000               0.000000000               0.000000000               0.000000000              -0.001954198               0.004632319               0.002108405              -0.001311862               0.001981377               0.000669515               0.000000000               0.000000000               0.000000000               0.000000000              -0.001524552               0.004914946               0.001943601              -0.001186073               0.002033656               0.000847583               0.000000000               0.000000000               0.000000000               0.000000000              -0.001118701               0.005103768               0.001778580              -0.001057482               0.002053732               0.000996250               0.000000000               0.000000000               0.000000000               0.000000000              -0.000713449               0.005218810               0.001612264              -0.000919893               0.002046217               0.001126323               0.000000000               0.000000000               0.000000000               0.000000000              -0.000300545               0.005281115               0.001448725              -0.000772842               0.002017968               0.001245125               0.000000000               0.000000000               0.000000000               0.000000000               0.000113612               0.005302748               0.001279239              -0.000620238               0.001974311               0.001354073               0.000000000               0.000000000               0.000000000               0.000000000               0.000525287               0.005289706               0.001093476              -0.000464230               0.001917961               0.001453731               0.000000000               0.000000000               0.000000000               0.000000000               0.000922907               0.005243025               0.000883935              -0.000309288               0.001850753               0.001541466               0.000000000               0.000000000               0.000000000               0.000000000               0.001283794               0.005166057               0.000637531              -0.000164334               0.001776780               0.001612446               0.000000000               0.000000000               0.000000000               0.000000000               0.001581736               0.005080786               0.000343386              -0.000041948               0.001707561               0.001665613               0.000000000               0.000000000               0.000000000               0.000000000               0.001741324               0.005050698               0.000189263               0.000021658               0.001676330               0.001697988               0.000000000               0.000000000               0.000000000               0.000000000              -0.011220095              -0.000979775              -0.000960962              -0.004085061               0.001035088              -0.003049973               0.000000000               0.000000000               0.000000000               0.000000000              -0.007663894              -0.000024735               0.000312819              -0.002870866               0.000948704              -0.001922162               0.000000000               0.000000000               0.000000000               0.000000000              -0.005031852               0.000733905               0.001490170              -0.001978681               0.000904188              -0.001074492               0.000000000               0.000000000               0.000000000               0.000000000              -0.003622640               0.001658305               0.001851927              -0.001565776               0.001074685              -0.000491091               0.000000000               0.000000000               0.000000000               0.000000000              -0.002737208               0.002464701               0.001895755              -0.001334538               0.001266403              -0.000068135               0.000000000               0.000000000               0.000000000               0.000000000              -0.002098006               0.003114585               0.001822025              -0.001176073               0.001430208               0.000254135               0.000000000               0.000000000               0.000000000               0.000000000              -0.001596582               0.003631704               0.001713624              -0.001052679               0.001561448               0.000508769               0.000000000               0.000000000               0.000000000               0.000000000              -0.001170224               0.004042777               0.001600571              -0.000944180               0.001662305               0.000718125               0.000000000               0.000000000               0.000000000               0.000000000              -0.000772737               0.004361362               0.001487675              -0.000834945               0.001732087               0.000897142               0.000000000               0.000000000               0.000000000               0.000000000              -0.000377281               0.004605865               0.001370056              -0.000717213               0.001774343               0.001057131               0.000000000               0.000000000               0.000000000               0.000000000               0.000026734               0.004794831               0.001248063              -0.000589328               0.001794703               0.001205375               0.000000000               0.000000000               0.000000000               0.000000000               0.000448517               0.004935058               0.001121479              -0.000448688               0.001794565               0.001345877               0.000000000               0.000000000               0.000000000               0.000000000               0.000899073               0.005038197               0.000981747              -0.000292622               0.001776923               0.001484301               0.000000000               0.000000000               0.000000000               0.000000000               0.001374229               0.005097427               0.000816528              -0.000121843               0.001739740               0.001617897               0.000000000               0.000000000               0.000000000               0.000000000               0.001866451               0.005100801               0.000609515               0.000062318               0.001679477               0.001741795               0.000000000               0.000000000               0.000000000               0.000000000               0.002370244               0.005060804               0.000340140               0.000256239               0.001601505               0.001857743               0.000000000               0.000000000               0.000000000               0.000000000               0.002719690               0.005066887               0.000199695               0.000386519               0.001560106               0.001946625               0.000000000               0.000000000               0.000000000               0.000000000              -0.012368675              -0.001149715              -0.000571797              -0.004494536               0.001114933              -0.003379603               0.000000000               0.000000000               0.000000000               0.000000000              -0.008299393              -0.000501645               0.000128450              -0.003049565               0.000849301              -0.002200264               0.000000000               0.000000000               0.000000000               0.000000000              -0.005160346              -0.000068475               0.000787422              -0.001926569               0.000619360              -0.001307209               0.000000000               0.000000000               0.000000000               0.000000000              -0.003513313               0.000766789               0.001007482              -0.001413339               0.000726704              -0.000686635               0.000000000               0.000000000               0.000000000               0.000000000              -0.002522901               0.001591615               0.001049001              -0.001145038               0.000912211              -0.000232827               0.000000000               0.000000000               0.000000000               0.000000000              -0.001841869               0.002301404               0.001020134              -0.000978374               0.001093251               0.000114877               0.000000000               0.000000000               0.000000000               0.000000000              -0.001317440               0.002889986               0.000966891              -0.000855287               0.001248414               0.000393128               0.000000000               0.000000000               0.000000000               0.000000000              -0.000878666               0.003378512               0.000911104              -0.000751812               0.001376763               0.000624951               0.000000000               0.000000000               0.000000000               0.000000000              -0.000484447               0.003780237               0.000855591              -0.000654196               0.001478132               0.000823936               0.000000000               0.000000000               0.000000000               0.000000000              -0.000101436               0.004110418               0.000793433              -0.000551840               0.001554072               0.001002232               0.000000000               0.000000000               0.000000000               0.000000000               0.000297960               0.004386002               0.000727441              -0.000436515               0.001607491               0.001170976               0.000000000               0.000000000               0.000000000               0.000000000               0.000729884               0.004614950               0.000660402              -0.000303162               0.001639355               0.001336193               0.000000000               0.000000000               0.000000000               0.000000000               0.001209253               0.004807456               0.000585056              -0.000147462               0.001651623               0.001504161               0.000000000               0.000000000               0.000000000               0.000000000               0.001744847               0.004947406               0.000492672               0.000035891               0.001637155               0.001673046               0.000000000               0.000000000               0.000000000               0.000000000               0.002349439               0.005023379               0.000374047               0.000253115               0.001590071               0.001843186               0.000000000               0.000000000               0.000000000               0.000000000               0.003042513               0.005034321               0.000211684               0.000511647               0.001507541               0.002019188               0.000000000               0.000000000               0.000000000               0.000000000               0.003575514               0.005078612               0.000127729               0.000705984               0.001457526               0.002163510               0.000000000               0.000000000               0.000000000               0.000000000               0.000000000               0.000000000               0.000000000               0.000000000               0.000000000               0.000000000               0.000000000               0.000000000               0.000000000               0.000000000               0.000000000               0.000000000               0.000000000               0.000000000               0.000000000               0.000000000               0.000000000               0.000000000               0.000000000               0.000000000               0.000000000               0.000000000               0.000000000               0.000000000               0.000000000               0.000000000               0.000000000               0.000000000               0.000000000               0.000000000               0.000000000               0.000000000               0.000000000               0.000000000               0.000000000               0.000000000               0.000000000               0.000000000               0.000000000               0.000000000               0.000000000               0.000000000               0.000000000               0.000000000               0.000000000               0.000000000               0.000000000               0.000000000               0.000000000               0.000000000               0.000000000               0.000000000               0.000000000               0.000000000               0.000000000               0.000000000               0.000000000               0.000000000               0.000000000               0.000000000               0.000000000               0.000000000               0.000000000               0.000000000               0.000000000               0.000000000               0.000000000               0.000000000               0.000000000               0.000000000               0.000000000               0.000000000               0.000000000               0.000000000               0.000000000               0.000000000               0.000000000               0.000000000               0.000000000               0.000000000               0.000000000               0.000000000               0.000000000               0.000000000               0.000000000               0.000000000               0.000000000               0.000000000               0.000000000               0.000000000               0.000000000               0.000000000               0.000000000               0.000000000               0.000000000               0.000000000               0.000000000               0.000000000               0.000000000               0.000000000               0.000000000               0.000000000               0.000000000               0.000000000               0.000000000               0.000000000               0.000000000               0.000000000               0.000000000               0.000000000               0.000000000               0.000000000               0.000000000               0.000000000               0.000000000               0.000000000               0.000000000               0.000000000               0.000000000               0.000000000               0.000000000               0.000000000               0.000000000               0.000000000               0.000000000               0.000000000               0.000000000               0.000000000               0.000000000               0.000000000               0.000000000               0.000000000               0.000000000               0.000000000               0.000000000               0.000000000               0.000000000               0.000000000               0.000000000               0.000000000               0.000000000               0.000000000               0.000000000               0.000000000               0.000000000               0.000000000               0.000000000               0.000000000               0.000000000               0.000000000               0.000000000               0.000000000               0.000000000               0.000000000               0.000000000               0.000000000               0.000000000               0.000000000               0.000000000               0.000000000               0.000000000               0.000000000               0.000000000               0.000000000               0.000000000               0.000000000               0.000000000               0.000000000               0.000000000               0.000000000 </DataArray>
</PointData>
</Piece>
</UnstructuredGrid> </VTKFile>
