<?xml version="1.0"?>
<VTKFile type="UnstructuredGrid" version="0.1">
<UnstructuredGrid>
<Piece NumberOfPoints="      1156" NumberOfCells="      1024">
<Points>
<DataArray type="Float64"                                    Name="coordinates"                                                      NumberOfComponents=" 3" format="ascii">
              0.133000000               0.000000000               0.000000000               0.155937500               0.000000000               0.000000000               0.178875000               0.000000000               0.000000000               0.201812500               0.000000000               0.000000000               0.224750000               0.000000000               0.000000000               0.247687500               0.000000000               0.000000000               0.270625000               0.000000000               0.000000000               0.293562500               0.000000000               0.000000000               0.316500000               0.000000000               0.000000000               0.339437500               0.000000000               0.000000000               0.362375000               0.000000000               0.000000000               0.385312500               0.000000000               0.000000000               0.408250000               0.000000000               0.000000000               0.431187500               0.000000000               0.000000000               0.454125000               0.000000000               0.000000000               0.477062500               0.000000000               0.000000000               0.500000000               0.000000000               0.000000000               0.132359569               0.013036280               0.000000000               0.155337096               0.016127762               0.000000000               0.178314623               0.019219245               0.000000000               0.201292150               0.022310727               0.000000000               0.224269676               0.025402210               0.000000000               0.247247203               0.028493692               0.000000000               0.270224730               0.031585175               0.000000000               0.293202257               0.034676657               0.000000000               0.316179784               0.037768140               0.000000000               0.339157311               0.040859622               0.000000000               0.362134838               0.043951105               0.000000000               0.385112365               0.047042587               0.000000000               0.408089892               0.050134070               0.000000000               0.431067419               0.053225552               0.000000000               0.454044946               0.056317035               0.000000000               0.477022473               0.059408517               0.000000000               0.500000000               0.062500000               0.000000000               0.130444442               0.025947013               0.000000000               0.153541665               0.032137825               0.000000000               0.176638887               0.038328636               0.000000000               0.199736109               0.044519448               0.000000000               0.222833332               0.050710260               0.000000000               0.245930554               0.056901071               0.000000000               0.269027776               0.063091883               0.000000000               0.292124999               0.069282695               0.000000000               0.315222221               0.075473506               0.000000000               0.338319444               0.081664318               0.000000000               0.361416666               0.087855130               0.000000000               0.384513888               0.094045942               0.000000000               0.407611111               0.100236753               0.000000000               0.430708333               0.106427565               0.000000000               0.453805555               0.112618377               0.000000000               0.476902778               0.118809188               0.000000000               0.500000000               0.125000000               0.000000000               0.127273065               0.038607862               0.000000000               0.150568498               0.047913621               0.000000000               0.173863932               0.057219379               0.000000000               0.197159365               0.066525138               0.000000000               0.220454798               0.075830897               0.000000000               0.243750232               0.085136655               0.000000000               0.267045665               0.094442414               0.000000000               0.290341099               0.103748172               0.000000000               0.313636532               0.113053931               0.000000000               0.336931966               0.122359690               0.000000000               0.360227399               0.131665448               0.000000000               0.383522833               0.140971207               0.000000000               0.406818266               0.150276966               0.000000000               0.430113700               0.159582724               0.000000000               0.453409133               0.168888483               0.000000000               0.476704567               0.178194241               0.000000000               0.500000000               0.187500000               0.000000000               0.122875978               0.050896897               0.000000000               0.146446229               0.063340840               0.000000000               0.170016481               0.075784784               0.000000000               0.193586732               0.088228728               0.000000000               0.217156983               0.100672672               0.000000000               0.240727235               0.113116616               0.000000000               0.264297486               0.125560560               0.000000000               0.287867738               0.138004504               0.000000000               0.311437989               0.150448448               0.000000000               0.335008240               0.162892392               0.000000000               0.358578492               0.175336336               0.000000000               0.382148743               0.187780280               0.000000000               0.405718994               0.200224224               0.000000000               0.429289246               0.212668168               0.000000000               0.452859497               0.225112112               0.000000000               0.476429749               0.237556056               0.000000000               0.500000000               0.250000000               0.000000000               0.117295528               0.062695766               0.000000000               0.141214558               0.078308531               0.000000000               0.165133587               0.093921295               0.000000000               0.189052617               0.109534060               0.000000000               0.212971646               0.125146824               0.000000000               0.236890676               0.140759589               0.000000000               0.260809705               0.156372354               0.000000000               0.284728735               0.171985118               0.000000000               0.308647764               0.187597883               0.000000000               0.332566794               0.203210648               0.000000000               0.356485823               0.218823412               0.000000000               0.380404853               0.234436177               0.000000000               0.404323882               0.250048941               0.000000000               0.428242912               0.265661706               0.000000000               0.452161941               0.281274471               0.000000000               0.476080971               0.296887235               0.000000000               0.500000000               0.312500000               0.000000000               0.110585458               0.073890841               0.000000000               0.134923867               0.092710163               0.000000000               0.159262276               0.111529486               0.000000000               0.183600685               0.130348808               0.000000000               0.207939094               0.149168131               0.000000000               0.232277503               0.167987453               0.000000000               0.256615912               0.186806776               0.000000000               0.280954320               0.205626098               0.000000000               0.305292729               0.224445420               0.000000000               0.329631138               0.243264743               0.000000000               0.353969547               0.262084065               0.000000000               0.378307956               0.280903388               0.000000000               0.402646365               0.299722710               0.000000000               0.426984773               0.318542033               0.000000000               0.451323182               0.337361355               0.000000000               0.475661591               0.356180678               0.000000000               0.500000000               0.375000000               0.000000000               0.102810390               0.084374307               0.000000000               0.127634741               0.106444663               0.000000000               0.152459092               0.128515018               0.000000000               0.177283442               0.150585374               0.000000000               0.202107793               0.172655730               0.000000000               0.226932143               0.194726086               0.000000000               0.251756494               0.216796442               0.000000000               0.276580845               0.238866798               0.000000000               0.301405195               0.260937153               0.000000000               0.326229546               0.283007509               0.000000000               0.351053896               0.305077865               0.000000000               0.375878247               0.327148221               0.000000000               0.400702598               0.349218577               0.000000000               0.425526948               0.371288933               0.000000000               0.450351299               0.393359288               0.000000000               0.475175649               0.415429644               0.000000000               0.500000000               0.437500000               0.000000000               0.094045202               0.094045202               0.000000000               0.119417377               0.119417377               0.000000000               0.144789552               0.144789552               0.000000000               0.170161727               0.170161727               0.000000000               0.195533901               0.195533901               0.000000000               0.220906076               0.220906076               0.000000000               0.246278251               0.246278251               0.000000000               0.271650426               0.271650426               0.000000000               0.297022601               0.297022601               0.000000000               0.322394776               0.322394776               0.000000000               0.347766951               0.347766951               0.000000000               0.373139126               0.373139126               0.000000000               0.398511300               0.398511300               0.000000000               0.423883475               0.423883475               0.000000000               0.449255650               0.449255650               0.000000000               0.474627825               0.474627825               0.000000000               0.500000000               0.500000000               0.000000000               0.084374307               0.102810390               0.000000000               0.106444663               0.127634741               0.000000000               0.128515018               0.152459092               0.000000000               0.150585374               0.177283442               0.000000000               0.172655730               0.202107793               0.000000000               0.194726086               0.226932143               0.000000000               0.216796442               0.251756494               0.000000000               0.238866798               0.276580845               0.000000000               0.260937153               0.301405195               0.000000000               0.283007509               0.326229546               0.000000000               0.305077865               0.351053896               0.000000000               0.327148221               0.375878247               0.000000000               0.349218577               0.400702598               0.000000000               0.371288933               0.425526948               0.000000000               0.393359288               0.450351299               0.000000000               0.415429644               0.475175649               0.000000000               0.437500000               0.500000000               0.000000000               0.073890841               0.110585458               0.000000000               0.092710163               0.134923867               0.000000000               0.111529486               0.159262276               0.000000000               0.130348808               0.183600685               0.000000000               0.149168131               0.207939094               0.000000000               0.167987453               0.232277503               0.000000000               0.186806776               0.256615912               0.000000000               0.205626098               0.280954320               0.000000000               0.224445420               0.305292729               0.000000000               0.243264743               0.329631138               0.000000000               0.262084065               0.353969547               0.000000000               0.280903388               0.378307956               0.000000000               0.299722710               0.402646365               0.000000000               0.318542033               0.426984773               0.000000000               0.337361355               0.451323182               0.000000000               0.356180678               0.475661591               0.000000000               0.375000000               0.500000000               0.000000000               0.062695766               0.117295528               0.000000000               0.078308531               0.141214558               0.000000000               0.093921295               0.165133587               0.000000000               0.109534060               0.189052617               0.000000000               0.125146824               0.212971646               0.000000000               0.140759589               0.236890676               0.000000000               0.156372354               0.260809705               0.000000000               0.171985118               0.284728735               0.000000000               0.187597883               0.308647764               0.000000000               0.203210648               0.332566794               0.000000000               0.218823412               0.356485823               0.000000000               0.234436177               0.380404853               0.000000000               0.250048941               0.404323882               0.000000000               0.265661706               0.428242912               0.000000000               0.281274471               0.452161941               0.000000000               0.296887235               0.476080971               0.000000000               0.312500000               0.500000000               0.000000000               0.050896897               0.122875978               0.000000000               0.063340840               0.146446229               0.000000000               0.075784784               0.170016481               0.000000000               0.088228728               0.193586732               0.000000000               0.100672672               0.217156983               0.000000000               0.113116616               0.240727235               0.000000000               0.125560560               0.264297486               0.000000000               0.138004504               0.287867738               0.000000000               0.150448448               0.311437989               0.000000000               0.162892392               0.335008240               0.000000000               0.175336336               0.358578492               0.000000000               0.187780280               0.382148743               0.000000000               0.200224224               0.405718994               0.000000000               0.212668168               0.429289246               0.000000000               0.225112112               0.452859497               0.000000000               0.237556056               0.476429749               0.000000000               0.250000000               0.500000000               0.000000000               0.038607862               0.127273065               0.000000000               0.047913621               0.150568498               0.000000000               0.057219379               0.173863932               0.000000000               0.066525138               0.197159365               0.000000000               0.075830897               0.220454798               0.000000000               0.085136655               0.243750232               0.000000000               0.094442414               0.267045665               0.000000000               0.103748172               0.290341099               0.000000000               0.113053931               0.313636532               0.000000000               0.122359690               0.336931966               0.000000000               0.131665448               0.360227399               0.000000000               0.140971207               0.383522833               0.000000000               0.150276966               0.406818266               0.000000000               0.159582724               0.430113700               0.000000000               0.168888483               0.453409133               0.000000000               0.178194241               0.476704567               0.000000000               0.187500000               0.500000000               0.000000000               0.025947013               0.130444442               0.000000000               0.032137825               0.153541665               0.000000000               0.038328636               0.176638887               0.000000000               0.044519448               0.199736109               0.000000000               0.050710260               0.222833332               0.000000000               0.056901071               0.245930554               0.000000000               0.063091883               0.269027776               0.000000000               0.069282695               0.292124999               0.000000000               0.075473506               0.315222221               0.000000000               0.081664318               0.338319444               0.000000000               0.087855130               0.361416666               0.000000000               0.094045942               0.384513888               0.000000000               0.100236753               0.407611111               0.000000000               0.106427565               0.430708333               0.000000000               0.112618377               0.453805555               0.000000000               0.118809188               0.476902778               0.000000000               0.125000000               0.500000000               0.000000000               0.013036280               0.132359569               0.000000000               0.016127762               0.155337096               0.000000000               0.019219245               0.178314623               0.000000000               0.022310727               0.201292150               0.000000000               0.025402210               0.224269676               0.000000000               0.028493692               0.247247203               0.000000000               0.031585175               0.270224730               0.000000000               0.034676657               0.293202257               0.000000000               0.037768140               0.316179784               0.000000000               0.040859622               0.339157311               0.000000000               0.043951105               0.362134838               0.000000000               0.047042587               0.385112365               0.000000000               0.050134070               0.408089892               0.000000000               0.053225552               0.431067419               0.000000000               0.056317035               0.454044946               0.000000000               0.059408517               0.477022473               0.000000000               0.062500000               0.500000000               0.000000000               0.000000000               0.133000000               0.000000000               0.000000000               0.155937500               0.000000000               0.000000000               0.178875000               0.000000000               0.000000000               0.201812500               0.000000000               0.000000000               0.224750000               0.000000000               0.000000000               0.247687500               0.000000000               0.000000000               0.270625000               0.000000000               0.000000000               0.293562500               0.000000000               0.000000000               0.316500000               0.000000000               0.000000000               0.339437500               0.000000000               0.000000000               0.362375000               0.000000000               0.000000000               0.385312500               0.000000000               0.000000000               0.408250000               0.000000000               0.000000000               0.431187500               0.000000000               0.000000000               0.454125000               0.000000000               0.000000000               0.477062500               0.000000000               0.000000000               0.500000000               0.000000000               0.133000000               0.000000000               0.000000000               0.155937500               0.000000000               0.000000000               0.178875000               0.000000000               0.000000000               0.201812500               0.000000000               0.000000000               0.224750000               0.000000000               0.000000000               0.247687500               0.000000000               0.000000000               0.270625000               0.000000000               0.000000000               0.293562500               0.000000000               0.000000000               0.316500000               0.000000000               0.000000000               0.339437500               0.000000000               0.000000000               0.362375000               0.000000000               0.000000000               0.385312500               0.000000000               0.000000000               0.408250000               0.000000000               0.000000000               0.431187500               0.000000000               0.000000000               0.454125000               0.000000000               0.000000000               0.477062500               0.000000000               0.000000000               0.500000000               0.000000000               0.000000000               0.132359569              -0.013036280               0.000000000               0.155337096              -0.016127762               0.000000000               0.178314623              -0.019219245               0.000000000               0.201292150              -0.022310727               0.000000000               0.224269676              -0.025402210               0.000000000               0.247247203              -0.028493692               0.000000000               0.270224730              -0.031585175               0.000000000               0.293202257              -0.034676657               0.000000000               0.316179784              -0.037768140               0.000000000               0.339157311              -0.040859622               0.000000000               0.362134838              -0.043951105               0.000000000               0.385112365              -0.047042587               0.000000000               0.408089892              -0.050134070               0.000000000               0.431067419              -0.053225552               0.000000000               0.454044946              -0.056317035               0.000000000               0.477022473              -0.059408517               0.000000000               0.500000000              -0.062500000               0.000000000               0.130444442              -0.025947013               0.000000000               0.153541665              -0.032137825               0.000000000               0.176638887              -0.038328636               0.000000000               0.199736109              -0.044519448               0.000000000               0.222833332              -0.050710260               0.000000000               0.245930554              -0.056901071               0.000000000               0.269027776              -0.063091883               0.000000000               0.292124999              -0.069282695               0.000000000               0.315222221              -0.075473506               0.000000000               0.338319444              -0.081664318               0.000000000               0.361416666              -0.087855130               0.000000000               0.384513888              -0.094045942               0.000000000               0.407611111              -0.100236753               0.000000000               0.430708333              -0.106427565               0.000000000               0.453805555              -0.112618377               0.000000000               0.476902778              -0.118809188               0.000000000               0.500000000              -0.125000000               0.000000000               0.127273065              -0.038607862               0.000000000               0.150568498              -0.047913621               0.000000000               0.173863932              -0.057219379               0.000000000               0.197159365              -0.066525138               0.000000000               0.220454798              -0.075830897               0.000000000               0.243750232              -0.085136655               0.000000000               0.267045665              -0.094442414               0.000000000               0.290341099              -0.103748172               0.000000000               0.313636532              -0.113053931               0.000000000               0.336931966              -0.122359690               0.000000000               0.360227399              -0.131665448               0.000000000               0.383522833              -0.140971207               0.000000000               0.406818266              -0.150276966               0.000000000               0.430113700              -0.159582724               0.000000000               0.453409133              -0.168888483               0.000000000               0.476704567              -0.178194241               0.000000000               0.500000000              -0.187500000               0.000000000               0.122875978              -0.050896897               0.000000000               0.146446229              -0.063340840               0.000000000               0.170016481              -0.075784784               0.000000000               0.193586732              -0.088228728               0.000000000               0.217156983              -0.100672672               0.000000000               0.240727235              -0.113116616               0.000000000               0.264297486              -0.125560560               0.000000000               0.287867738              -0.138004504               0.000000000               0.311437989              -0.150448448               0.000000000               0.335008240              -0.162892392               0.000000000               0.358578492              -0.175336336               0.000000000               0.382148743              -0.187780280               0.000000000               0.405718994              -0.200224224               0.000000000               0.429289246              -0.212668168               0.000000000               0.452859497              -0.225112112               0.000000000               0.476429749              -0.237556056               0.000000000               0.500000000              -0.250000000               0.000000000               0.117295528              -0.062695766               0.000000000               0.141214558              -0.078308531               0.000000000               0.165133587              -0.093921295               0.000000000               0.189052617              -0.109534060               0.000000000               0.212971646              -0.125146824               0.000000000               0.236890676              -0.140759589               0.000000000               0.260809705              -0.156372354               0.000000000               0.284728735              -0.171985118               0.000000000               0.308647764              -0.187597883               0.000000000               0.332566794              -0.203210648               0.000000000               0.356485823              -0.218823412               0.000000000               0.380404853              -0.234436177               0.000000000               0.404323882              -0.250048941               0.000000000               0.428242912              -0.265661706               0.000000000               0.452161941              -0.281274471               0.000000000               0.476080971              -0.296887235               0.000000000               0.500000000              -0.312500000               0.000000000               0.110585458              -0.073890841               0.000000000               0.134923867              -0.092710163               0.000000000               0.159262276              -0.111529486               0.000000000               0.183600685              -0.130348808               0.000000000               0.207939094              -0.149168131               0.000000000               0.232277503              -0.167987453               0.000000000               0.256615912              -0.186806776               0.000000000               0.280954320              -0.205626098               0.000000000               0.305292729              -0.224445420               0.000000000               0.329631138              -0.243264743               0.000000000               0.353969547              -0.262084065               0.000000000               0.378307956              -0.280903388               0.000000000               0.402646365              -0.299722710               0.000000000               0.426984773              -0.318542033               0.000000000               0.451323182              -0.337361355               0.000000000               0.475661591              -0.356180678               0.000000000               0.500000000              -0.375000000               0.000000000               0.102810390              -0.084374307               0.000000000               0.127634741              -0.106444663               0.000000000               0.152459092              -0.128515018               0.000000000               0.177283442              -0.150585374               0.000000000               0.202107793              -0.172655730               0.000000000               0.226932143              -0.194726086               0.000000000               0.251756494              -0.216796442               0.000000000               0.276580845              -0.238866798               0.000000000               0.301405195              -0.260937153               0.000000000               0.326229546              -0.283007509               0.000000000               0.351053896              -0.305077865               0.000000000               0.375878247              -0.327148221               0.000000000               0.400702598              -0.349218577               0.000000000               0.425526948              -0.371288933               0.000000000               0.450351299              -0.393359288               0.000000000               0.475175649              -0.415429644               0.000000000               0.500000000              -0.437500000               0.000000000               0.094045202              -0.094045202               0.000000000               0.119417377              -0.119417377               0.000000000               0.144789552              -0.144789552               0.000000000               0.170161727              -0.170161727               0.000000000               0.195533901              -0.195533901               0.000000000               0.220906076              -0.220906076               0.000000000               0.246278251              -0.246278251               0.000000000               0.271650426              -0.271650426               0.000000000               0.297022601              -0.297022601               0.000000000               0.322394776              -0.322394776               0.000000000               0.347766951              -0.347766951               0.000000000               0.373139126              -0.373139126               0.000000000               0.398511300              -0.398511300               0.000000000               0.423883475              -0.423883475               0.000000000               0.449255650              -0.449255650               0.000000000               0.474627825              -0.474627825               0.000000000               0.500000000              -0.500000000               0.000000000               0.084374307              -0.102810390               0.000000000               0.106444663              -0.127634741               0.000000000               0.128515018              -0.152459092               0.000000000               0.150585374              -0.177283442               0.000000000               0.172655730              -0.202107793               0.000000000               0.194726086              -0.226932143               0.000000000               0.216796442              -0.251756494               0.000000000               0.238866798              -0.276580845               0.000000000               0.260937153              -0.301405195               0.000000000               0.283007509              -0.326229546               0.000000000               0.305077865              -0.351053896               0.000000000               0.327148221              -0.375878247               0.000000000               0.349218577              -0.400702598               0.000000000               0.371288933              -0.425526948               0.000000000               0.393359288              -0.450351299               0.000000000               0.415429644              -0.475175649               0.000000000               0.437500000              -0.500000000               0.000000000               0.073890841              -0.110585458               0.000000000               0.092710163              -0.134923867               0.000000000               0.111529486              -0.159262276               0.000000000               0.130348808              -0.183600685               0.000000000               0.149168131              -0.207939094               0.000000000               0.167987453              -0.232277503               0.000000000               0.186806776              -0.256615912               0.000000000               0.205626098              -0.280954320               0.000000000               0.224445420              -0.305292729               0.000000000               0.243264743              -0.329631138               0.000000000               0.262084065              -0.353969547               0.000000000               0.280903388              -0.378307956               0.000000000               0.299722710              -0.402646365               0.000000000               0.318542033              -0.426984773               0.000000000               0.337361355              -0.451323182               0.000000000               0.356180678              -0.475661591               0.000000000               0.375000000              -0.500000000               0.000000000               0.062695766              -0.117295528               0.000000000               0.078308531              -0.141214558               0.000000000               0.093921295              -0.165133587               0.000000000               0.109534060              -0.189052617               0.000000000               0.125146824              -0.212971646               0.000000000               0.140759589              -0.236890676               0.000000000               0.156372354              -0.260809705               0.000000000               0.171985118              -0.284728735               0.000000000               0.187597883              -0.308647764               0.000000000               0.203210648              -0.332566794               0.000000000               0.218823412              -0.356485823               0.000000000               0.234436177              -0.380404853               0.000000000               0.250048941              -0.404323882               0.000000000               0.265661706              -0.428242912               0.000000000               0.281274471              -0.452161941               0.000000000               0.296887235              -0.476080971               0.000000000               0.312500000              -0.500000000               0.000000000               0.050896897              -0.122875978               0.000000000               0.063340840              -0.146446229               0.000000000               0.075784784              -0.170016481               0.000000000               0.088228728              -0.193586732               0.000000000               0.100672672              -0.217156983               0.000000000               0.113116616              -0.240727235               0.000000000               0.125560560              -0.264297486               0.000000000               0.138004504              -0.287867738               0.000000000               0.150448448              -0.311437989               0.000000000               0.162892392              -0.335008240               0.000000000               0.175336336              -0.358578492               0.000000000               0.187780280              -0.382148743               0.000000000               0.200224224              -0.405718994               0.000000000               0.212668168              -0.429289246               0.000000000               0.225112112              -0.452859497               0.000000000               0.237556056              -0.476429749               0.000000000               0.250000000              -0.500000000               0.000000000               0.038607862              -0.127273065               0.000000000               0.047913621              -0.150568498               0.000000000               0.057219379              -0.173863932               0.000000000               0.066525138              -0.197159365               0.000000000               0.075830897              -0.220454798               0.000000000               0.085136655              -0.243750232               0.000000000               0.094442414              -0.267045665               0.000000000               0.103748172              -0.290341099               0.000000000               0.113053931              -0.313636532               0.000000000               0.122359690              -0.336931966               0.000000000               0.131665448              -0.360227399               0.000000000               0.140971207              -0.383522833               0.000000000               0.150276966              -0.406818266               0.000000000               0.159582724              -0.430113700               0.000000000               0.168888483              -0.453409133               0.000000000               0.178194241              -0.476704567               0.000000000               0.187500000              -0.500000000               0.000000000               0.025947013              -0.130444442               0.000000000               0.032137825              -0.153541665               0.000000000               0.038328636              -0.176638887               0.000000000               0.044519448              -0.199736109               0.000000000               0.050710260              -0.222833332               0.000000000               0.056901071              -0.245930554               0.000000000               0.063091883              -0.269027776               0.000000000               0.069282695              -0.292124999               0.000000000               0.075473506              -0.315222221               0.000000000               0.081664318              -0.338319444               0.000000000               0.087855130              -0.361416666               0.000000000               0.094045942              -0.384513888               0.000000000               0.100236753              -0.407611111               0.000000000               0.106427565              -0.430708333               0.000000000               0.112618377              -0.453805555               0.000000000               0.118809188              -0.476902778               0.000000000               0.125000000              -0.500000000               0.000000000               0.013036280              -0.132359569               0.000000000               0.016127762              -0.155337096               0.000000000               0.019219245              -0.178314623               0.000000000               0.022310727              -0.201292150               0.000000000               0.025402210              -0.224269676               0.000000000               0.028493692              -0.247247203               0.000000000               0.031585175              -0.270224730               0.000000000               0.034676657              -0.293202257               0.000000000               0.037768140              -0.316179784               0.000000000               0.040859622              -0.339157311               0.000000000               0.043951105              -0.362134838               0.000000000               0.047042587              -0.385112365               0.000000000               0.050134070              -0.408089892               0.000000000               0.053225552              -0.431067419               0.000000000               0.056317035              -0.454044946               0.000000000               0.059408517              -0.477022473               0.000000000               0.062500000              -0.500000000               0.000000000               0.000000000              -0.133000000               0.000000000               0.000000000              -0.155937500               0.000000000               0.000000000              -0.178875000               0.000000000               0.000000000              -0.201812500               0.000000000               0.000000000              -0.224750000               0.000000000               0.000000000              -0.247687500               0.000000000               0.000000000              -0.270625000               0.000000000               0.000000000              -0.293562500               0.000000000               0.000000000              -0.316500000               0.000000000               0.000000000              -0.339437500               0.000000000               0.000000000              -0.362375000               0.000000000               0.000000000              -0.385312500               0.000000000               0.000000000              -0.408250000               0.000000000               0.000000000              -0.431187500               0.000000000               0.000000000              -0.454125000               0.000000000               0.000000000              -0.477062500               0.000000000               0.000000000              -0.500000000               0.000000000              -0.133000000               0.000000000               0.000000000              -0.155937500               0.000000000               0.000000000              -0.178875000               0.000000000               0.000000000              -0.201812500               0.000000000               0.000000000              -0.224750000               0.000000000               0.000000000              -0.247687500               0.000000000               0.000000000              -0.270625000               0.000000000               0.000000000              -0.293562500               0.000000000               0.000000000              -0.316500000               0.000000000               0.000000000              -0.339437500               0.000000000               0.000000000              -0.362375000               0.000000000               0.000000000              -0.385312500               0.000000000               0.000000000              -0.408250000               0.000000000               0.000000000              -0.431187500               0.000000000               0.000000000              -0.454125000               0.000000000               0.000000000              -0.477062500               0.000000000               0.000000000              -0.500000000               0.000000000               0.000000000              -0.132359569              -0.013036280               0.000000000              -0.155337096              -0.016127762               0.000000000              -0.178314623              -0.019219245               0.000000000              -0.201292150              -0.022310727               0.000000000              -0.224269676              -0.025402210               0.000000000              -0.247247203              -0.028493692               0.000000000              -0.270224730              -0.031585175               0.000000000              -0.293202257              -0.034676657               0.000000000              -0.316179784              -0.037768140               0.000000000              -0.339157311              -0.040859622               0.000000000              -0.362134838              -0.043951105               0.000000000              -0.385112365              -0.047042587               0.000000000              -0.408089892              -0.050134070               0.000000000              -0.431067419              -0.053225552               0.000000000              -0.454044946              -0.056317035               0.000000000              -0.477022473              -0.059408517               0.000000000              -0.500000000              -0.062500000               0.000000000              -0.130444442              -0.025947013               0.000000000              -0.153541665              -0.032137825               0.000000000              -0.176638887              -0.038328636               0.000000000              -0.199736109              -0.044519448               0.000000000              -0.222833332              -0.050710260               0.000000000              -0.245930554              -0.056901071               0.000000000              -0.269027776              -0.063091883               0.000000000              -0.292124999              -0.069282695               0.000000000              -0.315222221              -0.075473506               0.000000000              -0.338319444              -0.081664318               0.000000000              -0.361416666              -0.087855130               0.000000000              -0.384513888              -0.094045942               0.000000000              -0.407611111              -0.100236753               0.000000000              -0.430708333              -0.106427565               0.000000000              -0.453805555              -0.112618377               0.000000000              -0.476902778              -0.118809188               0.000000000              -0.500000000              -0.125000000               0.000000000              -0.127273065              -0.038607862               0.000000000              -0.150568498              -0.047913621               0.000000000              -0.173863932              -0.057219379               0.000000000              -0.197159365              -0.066525138               0.000000000              -0.220454798              -0.075830897               0.000000000              -0.243750232              -0.085136655               0.000000000              -0.267045665              -0.094442414               0.000000000              -0.290341099              -0.103748172               0.000000000              -0.313636532              -0.113053931               0.000000000              -0.336931966              -0.122359690               0.000000000              -0.360227399              -0.131665448               0.000000000              -0.383522833              -0.140971207               0.000000000              -0.406818266              -0.150276966               0.000000000              -0.430113700              -0.159582724               0.000000000              -0.453409133              -0.168888483               0.000000000              -0.476704567              -0.178194241               0.000000000              -0.500000000              -0.187500000               0.000000000              -0.122875978              -0.050896897               0.000000000              -0.146446229              -0.063340840               0.000000000              -0.170016481              -0.075784784               0.000000000              -0.193586732              -0.088228728               0.000000000              -0.217156983              -0.100672672               0.000000000              -0.240727235              -0.113116616               0.000000000              -0.264297486              -0.125560560               0.000000000              -0.287867738              -0.138004504               0.000000000              -0.311437989              -0.150448448               0.000000000              -0.335008240              -0.162892392               0.000000000              -0.358578492              -0.175336336               0.000000000              -0.382148743              -0.187780280               0.000000000              -0.405718994              -0.200224224               0.000000000              -0.429289246              -0.212668168               0.000000000              -0.452859497              -0.225112112               0.000000000              -0.476429749              -0.237556056               0.000000000              -0.500000000              -0.250000000               0.000000000              -0.117295528              -0.062695766               0.000000000              -0.141214558              -0.078308531               0.000000000              -0.165133587              -0.093921295               0.000000000              -0.189052617              -0.109534060               0.000000000              -0.212971646              -0.125146824               0.000000000              -0.236890676              -0.140759589               0.000000000              -0.260809705              -0.156372354               0.000000000              -0.284728735              -0.171985118               0.000000000              -0.308647764              -0.187597883               0.000000000              -0.332566794              -0.203210648               0.000000000              -0.356485823              -0.218823412               0.000000000              -0.380404853              -0.234436177               0.000000000              -0.404323882              -0.250048941               0.000000000              -0.428242912              -0.265661706               0.000000000              -0.452161941              -0.281274471               0.000000000              -0.476080971              -0.296887235               0.000000000              -0.500000000              -0.312500000               0.000000000              -0.110585458              -0.073890841               0.000000000              -0.134923867              -0.092710163               0.000000000              -0.159262276              -0.111529486               0.000000000              -0.183600685              -0.130348808               0.000000000              -0.207939094              -0.149168131               0.000000000              -0.232277503              -0.167987453               0.000000000              -0.256615912              -0.186806776               0.000000000              -0.280954320              -0.205626098               0.000000000              -0.305292729              -0.224445420               0.000000000              -0.329631138              -0.243264743               0.000000000              -0.353969547              -0.262084065               0.000000000              -0.378307956              -0.280903388               0.000000000              -0.402646365              -0.299722710               0.000000000              -0.426984773              -0.318542033               0.000000000              -0.451323182              -0.337361355               0.000000000              -0.475661591              -0.356180678               0.000000000              -0.500000000              -0.375000000               0.000000000              -0.102810390              -0.084374307               0.000000000              -0.127634741              -0.106444663               0.000000000              -0.152459092              -0.128515018               0.000000000              -0.177283442              -0.150585374               0.000000000              -0.202107793              -0.172655730               0.000000000              -0.226932143              -0.194726086               0.000000000              -0.251756494              -0.216796442               0.000000000              -0.276580845              -0.238866798               0.000000000              -0.301405195              -0.260937153               0.000000000              -0.326229546              -0.283007509               0.000000000              -0.351053896              -0.305077865               0.000000000              -0.375878247              -0.327148221               0.000000000              -0.400702598              -0.349218577               0.000000000              -0.425526948              -0.371288933               0.000000000              -0.450351299              -0.393359288               0.000000000              -0.475175649              -0.415429644               0.000000000              -0.500000000              -0.437500000               0.000000000              -0.094045202              -0.094045202               0.000000000              -0.119417377              -0.119417377               0.000000000              -0.144789552              -0.144789552               0.000000000              -0.170161727              -0.170161727               0.000000000              -0.195533901              -0.195533901               0.000000000              -0.220906076              -0.220906076               0.000000000              -0.246278251              -0.246278251               0.000000000              -0.271650426              -0.271650426               0.000000000              -0.297022601              -0.297022601               0.000000000              -0.322394776              -0.322394776               0.000000000              -0.347766951              -0.347766951               0.000000000              -0.373139126              -0.373139126               0.000000000              -0.398511300              -0.398511300               0.000000000              -0.423883475              -0.423883475               0.000000000              -0.449255650              -0.449255650               0.000000000              -0.474627825              -0.474627825               0.000000000              -0.500000000              -0.500000000               0.000000000              -0.084374307              -0.102810390               0.000000000              -0.106444663              -0.127634741               0.000000000              -0.128515018              -0.152459092               0.000000000              -0.150585374              -0.177283442               0.000000000              -0.172655730              -0.202107793               0.000000000              -0.194726086              -0.226932143               0.000000000              -0.216796442              -0.251756494               0.000000000              -0.238866798              -0.276580845               0.000000000              -0.260937153              -0.301405195               0.000000000              -0.283007509              -0.326229546               0.000000000              -0.305077865              -0.351053896               0.000000000              -0.327148221              -0.375878247               0.000000000              -0.349218577              -0.400702598               0.000000000              -0.371288933              -0.425526948               0.000000000              -0.393359288              -0.450351299               0.000000000              -0.415429644              -0.475175649               0.000000000              -0.437500000              -0.500000000               0.000000000              -0.073890841              -0.110585458               0.000000000              -0.092710163              -0.134923867               0.000000000              -0.111529486              -0.159262276               0.000000000              -0.130348808              -0.183600685               0.000000000              -0.149168131              -0.207939094               0.000000000              -0.167987453              -0.232277503               0.000000000              -0.186806776              -0.256615912               0.000000000              -0.205626098              -0.280954320               0.000000000              -0.224445420              -0.305292729               0.000000000              -0.243264743              -0.329631138               0.000000000              -0.262084065              -0.353969547               0.000000000              -0.280903388              -0.378307956               0.000000000              -0.299722710              -0.402646365               0.000000000              -0.318542033              -0.426984773               0.000000000              -0.337361355              -0.451323182               0.000000000              -0.356180678              -0.475661591               0.000000000              -0.375000000              -0.500000000               0.000000000              -0.062695766              -0.117295528               0.000000000              -0.078308531              -0.141214558               0.000000000              -0.093921295              -0.165133587               0.000000000              -0.109534060              -0.189052617               0.000000000              -0.125146824              -0.212971646               0.000000000              -0.140759589              -0.236890676               0.000000000              -0.156372354              -0.260809705               0.000000000              -0.171985118              -0.284728735               0.000000000              -0.187597883              -0.308647764               0.000000000              -0.203210648              -0.332566794               0.000000000              -0.218823412              -0.356485823               0.000000000              -0.234436177              -0.380404853               0.000000000              -0.250048941              -0.404323882               0.000000000              -0.265661706              -0.428242912               0.000000000              -0.281274471              -0.452161941               0.000000000              -0.296887235              -0.476080971               0.000000000              -0.312500000              -0.500000000               0.000000000              -0.050896897              -0.122875978               0.000000000              -0.063340840              -0.146446229               0.000000000              -0.075784784              -0.170016481               0.000000000              -0.088228728              -0.193586732               0.000000000              -0.100672672              -0.217156983               0.000000000              -0.113116616              -0.240727235               0.000000000              -0.125560560              -0.264297486               0.000000000              -0.138004504              -0.287867738               0.000000000              -0.150448448              -0.311437989               0.000000000              -0.162892392              -0.335008240               0.000000000              -0.175336336              -0.358578492               0.000000000              -0.187780280              -0.382148743               0.000000000              -0.200224224              -0.405718994               0.000000000              -0.212668168              -0.429289246               0.000000000              -0.225112112              -0.452859497               0.000000000              -0.237556056              -0.476429749               0.000000000              -0.250000000              -0.500000000               0.000000000              -0.038607862              -0.127273065               0.000000000              -0.047913621              -0.150568498               0.000000000              -0.057219379              -0.173863932               0.000000000              -0.066525138              -0.197159365               0.000000000              -0.075830897              -0.220454798               0.000000000              -0.085136655              -0.243750232               0.000000000              -0.094442414              -0.267045665               0.000000000              -0.103748172              -0.290341099               0.000000000              -0.113053931              -0.313636532               0.000000000              -0.122359690              -0.336931966               0.000000000              -0.131665448              -0.360227399               0.000000000              -0.140971207              -0.383522833               0.000000000              -0.150276966              -0.406818266               0.000000000              -0.159582724              -0.430113700               0.000000000              -0.168888483              -0.453409133               0.000000000              -0.178194241              -0.476704567               0.000000000              -0.187500000              -0.500000000               0.000000000              -0.025947013              -0.130444442               0.000000000              -0.032137825              -0.153541665               0.000000000              -0.038328636              -0.176638887               0.000000000              -0.044519448              -0.199736109               0.000000000              -0.050710260              -0.222833332               0.000000000              -0.056901071              -0.245930554               0.000000000              -0.063091883              -0.269027776               0.000000000              -0.069282695              -0.292124999               0.000000000              -0.075473506              -0.315222221               0.000000000              -0.081664318              -0.338319444               0.000000000              -0.087855130              -0.361416666               0.000000000              -0.094045942              -0.384513888               0.000000000              -0.100236753              -0.407611111               0.000000000              -0.106427565              -0.430708333               0.000000000              -0.112618377              -0.453805555               0.000000000              -0.118809188              -0.476902778               0.000000000              -0.125000000              -0.500000000               0.000000000              -0.013036280              -0.132359569               0.000000000              -0.016127762              -0.155337096               0.000000000              -0.019219245              -0.178314623               0.000000000              -0.022310727              -0.201292150               0.000000000              -0.025402210              -0.224269676               0.000000000              -0.028493692              -0.247247203               0.000000000              -0.031585175              -0.270224730               0.000000000              -0.034676657              -0.293202257               0.000000000              -0.037768140              -0.316179784               0.000000000              -0.040859622              -0.339157311               0.000000000              -0.043951105              -0.362134838               0.000000000              -0.047042587              -0.385112365               0.000000000              -0.050134070              -0.408089892               0.000000000              -0.053225552              -0.431067419               0.000000000              -0.056317035              -0.454044946               0.000000000              -0.059408517              -0.477022473               0.000000000              -0.062500000              -0.500000000               0.000000000               0.000000000              -0.133000000               0.000000000               0.000000000              -0.155937500               0.000000000               0.000000000              -0.178875000               0.000000000               0.000000000              -0.201812500               0.000000000               0.000000000              -0.224750000               0.000000000               0.000000000              -0.247687500               0.000000000               0.000000000              -0.270625000               0.000000000               0.000000000              -0.293562500               0.000000000               0.000000000              -0.316500000               0.000000000               0.000000000              -0.339437500               0.000000000               0.000000000              -0.362375000               0.000000000               0.000000000              -0.385312500               0.000000000               0.000000000              -0.408250000               0.000000000               0.000000000              -0.431187500               0.000000000               0.000000000              -0.454125000               0.000000000               0.000000000              -0.477062500               0.000000000               0.000000000              -0.500000000               0.000000000              -0.133000000               0.000000000               0.000000000              -0.155937500               0.000000000               0.000000000              -0.178875000               0.000000000               0.000000000              -0.201812500               0.000000000               0.000000000              -0.224750000               0.000000000               0.000000000              -0.247687500               0.000000000               0.000000000              -0.270625000               0.000000000               0.000000000              -0.293562500               0.000000000               0.000000000              -0.316500000               0.000000000               0.000000000              -0.339437500               0.000000000               0.000000000              -0.362375000               0.000000000               0.000000000              -0.385312500               0.000000000               0.000000000              -0.408250000               0.000000000               0.000000000              -0.431187500               0.000000000               0.000000000              -0.454125000               0.000000000               0.000000000              -0.477062500               0.000000000               0.000000000              -0.500000000               0.000000000               0.000000000              -0.132359569               0.013036280               0.000000000              -0.155337096               0.016127762               0.000000000              -0.178314623               0.019219245               0.000000000              -0.201292150               0.022310727               0.000000000              -0.224269676               0.025402210               0.000000000              -0.247247203               0.028493692               0.000000000              -0.270224730               0.031585175               0.000000000              -0.293202257               0.034676657               0.000000000              -0.316179784               0.037768140               0.000000000              -0.339157311               0.040859622               0.000000000              -0.362134838               0.043951105               0.000000000              -0.385112365               0.047042587               0.000000000              -0.408089892               0.050134070               0.000000000              -0.431067419               0.053225552               0.000000000              -0.454044946               0.056317035               0.000000000              -0.477022473               0.059408517               0.000000000              -0.500000000               0.062500000               0.000000000              -0.130444442               0.025947013               0.000000000              -0.153541665               0.032137825               0.000000000              -0.176638887               0.038328636               0.000000000              -0.199736109               0.044519448               0.000000000              -0.222833332               0.050710260               0.000000000              -0.245930554               0.056901071               0.000000000              -0.269027776               0.063091883               0.000000000              -0.292124999               0.069282695               0.000000000              -0.315222221               0.075473506               0.000000000              -0.338319444               0.081664318               0.000000000              -0.361416666               0.087855130               0.000000000              -0.384513888               0.094045942               0.000000000              -0.407611111               0.100236753               0.000000000              -0.430708333               0.106427565               0.000000000              -0.453805555               0.112618377               0.000000000              -0.476902778               0.118809188               0.000000000              -0.500000000               0.125000000               0.000000000              -0.127273065               0.038607862               0.000000000              -0.150568498               0.047913621               0.000000000              -0.173863932               0.057219379               0.000000000              -0.197159365               0.066525138               0.000000000              -0.220454798               0.075830897               0.000000000              -0.243750232               0.085136655               0.000000000              -0.267045665               0.094442414               0.000000000              -0.290341099               0.103748172               0.000000000              -0.313636532               0.113053931               0.000000000              -0.336931966               0.122359690               0.000000000              -0.360227399               0.131665448               0.000000000              -0.383522833               0.140971207               0.000000000              -0.406818266               0.150276966               0.000000000              -0.430113700               0.159582724               0.000000000              -0.453409133               0.168888483               0.000000000              -0.476704567               0.178194241               0.000000000              -0.500000000               0.187500000               0.000000000              -0.122875978               0.050896897               0.000000000              -0.146446229               0.063340840               0.000000000              -0.170016481               0.075784784               0.000000000              -0.193586732               0.088228728               0.000000000              -0.217156983               0.100672672               0.000000000              -0.240727235               0.113116616               0.000000000              -0.264297486               0.125560560               0.000000000              -0.287867738               0.138004504               0.000000000              -0.311437989               0.150448448               0.000000000              -0.335008240               0.162892392               0.000000000              -0.358578492               0.175336336               0.000000000              -0.382148743               0.187780280               0.000000000              -0.405718994               0.200224224               0.000000000              -0.429289246               0.212668168               0.000000000              -0.452859497               0.225112112               0.000000000              -0.476429749               0.237556056               0.000000000              -0.500000000               0.250000000               0.000000000              -0.117295528               0.062695766               0.000000000              -0.141214558               0.078308531               0.000000000              -0.165133587               0.093921295               0.000000000              -0.189052617               0.109534060               0.000000000              -0.212971646               0.125146824               0.000000000              -0.236890676               0.140759589               0.000000000              -0.260809705               0.156372354               0.000000000              -0.284728735               0.171985118               0.000000000              -0.308647764               0.187597883               0.000000000              -0.332566794               0.203210648               0.000000000              -0.356485823               0.218823412               0.000000000              -0.380404853               0.234436177               0.000000000              -0.404323882               0.250048941               0.000000000              -0.428242912               0.265661706               0.000000000              -0.452161941               0.281274471               0.000000000              -0.476080971               0.296887235               0.000000000              -0.500000000               0.312500000               0.000000000              -0.110585458               0.073890841               0.000000000              -0.134923867               0.092710163               0.000000000              -0.159262276               0.111529486               0.000000000              -0.183600685               0.130348808               0.000000000              -0.207939094               0.149168131               0.000000000              -0.232277503               0.167987453               0.000000000              -0.256615912               0.186806776               0.000000000              -0.280954320               0.205626098               0.000000000              -0.305292729               0.224445420               0.000000000              -0.329631138               0.243264743               0.000000000              -0.353969547               0.262084065               0.000000000              -0.378307956               0.280903388               0.000000000              -0.402646365               0.299722710               0.000000000              -0.426984773               0.318542033               0.000000000              -0.451323182               0.337361355               0.000000000              -0.475661591               0.356180678               0.000000000              -0.500000000               0.375000000               0.000000000              -0.102810390               0.084374307               0.000000000              -0.127634741               0.106444663               0.000000000              -0.152459092               0.128515018               0.000000000              -0.177283442               0.150585374               0.000000000              -0.202107793               0.172655730               0.000000000              -0.226932143               0.194726086               0.000000000              -0.251756494               0.216796442               0.000000000              -0.276580845               0.238866798               0.000000000              -0.301405195               0.260937153               0.000000000              -0.326229546               0.283007509               0.000000000              -0.351053896               0.305077865               0.000000000              -0.375878247               0.327148221               0.000000000              -0.400702598               0.349218577               0.000000000              -0.425526948               0.371288933               0.000000000              -0.450351299               0.393359288               0.000000000              -0.475175649               0.415429644               0.000000000              -0.500000000               0.437500000               0.000000000              -0.094045202               0.094045202               0.000000000              -0.119417377               0.119417377               0.000000000              -0.144789552               0.144789552               0.000000000              -0.170161727               0.170161727               0.000000000              -0.195533901               0.195533901               0.000000000              -0.220906076               0.220906076               0.000000000              -0.246278251               0.246278251               0.000000000              -0.271650426               0.271650426               0.000000000              -0.297022601               0.297022601               0.000000000              -0.322394776               0.322394776               0.000000000              -0.347766951               0.347766951               0.000000000              -0.373139126               0.373139126               0.000000000              -0.398511300               0.398511300               0.000000000              -0.423883475               0.423883475               0.000000000              -0.449255650               0.449255650               0.000000000              -0.474627825               0.474627825               0.000000000              -0.500000000               0.500000000               0.000000000              -0.084374307               0.102810390               0.000000000              -0.106444663               0.127634741               0.000000000              -0.128515018               0.152459092               0.000000000              -0.150585374               0.177283442               0.000000000              -0.172655730               0.202107793               0.000000000              -0.194726086               0.226932143               0.000000000              -0.216796442               0.251756494               0.000000000              -0.238866798               0.276580845               0.000000000              -0.260937153               0.301405195               0.000000000              -0.283007509               0.326229546               0.000000000              -0.305077865               0.351053896               0.000000000              -0.327148221               0.375878247               0.000000000              -0.349218577               0.400702598               0.000000000              -0.371288933               0.425526948               0.000000000              -0.393359288               0.450351299               0.000000000              -0.415429644               0.475175649               0.000000000              -0.437500000               0.500000000               0.000000000              -0.073890841               0.110585458               0.000000000              -0.092710163               0.134923867               0.000000000              -0.111529486               0.159262276               0.000000000              -0.130348808               0.183600685               0.000000000              -0.149168131               0.207939094               0.000000000              -0.167987453               0.232277503               0.000000000              -0.186806776               0.256615912               0.000000000              -0.205626098               0.280954320               0.000000000              -0.224445420               0.305292729               0.000000000              -0.243264743               0.329631138               0.000000000              -0.262084065               0.353969547               0.000000000              -0.280903388               0.378307956               0.000000000              -0.299722710               0.402646365               0.000000000              -0.318542033               0.426984773               0.000000000              -0.337361355               0.451323182               0.000000000              -0.356180678               0.475661591               0.000000000              -0.375000000               0.500000000               0.000000000              -0.062695766               0.117295528               0.000000000              -0.078308531               0.141214558               0.000000000              -0.093921295               0.165133587               0.000000000              -0.109534060               0.189052617               0.000000000              -0.125146824               0.212971646               0.000000000              -0.140759589               0.236890676               0.000000000              -0.156372354               0.260809705               0.000000000              -0.171985118               0.284728735               0.000000000              -0.187597883               0.308647764               0.000000000              -0.203210648               0.332566794               0.000000000              -0.218823412               0.356485823               0.000000000              -0.234436177               0.380404853               0.000000000              -0.250048941               0.404323882               0.000000000              -0.265661706               0.428242912               0.000000000              -0.281274471               0.452161941               0.000000000              -0.296887235               0.476080971               0.000000000              -0.312500000               0.500000000               0.000000000              -0.050896897               0.122875978               0.000000000              -0.063340840               0.146446229               0.000000000              -0.075784784               0.170016481               0.000000000              -0.088228728               0.193586732               0.000000000              -0.100672672               0.217156983               0.000000000              -0.113116616               0.240727235               0.000000000              -0.125560560               0.264297486               0.000000000              -0.138004504               0.287867738               0.000000000              -0.150448448               0.311437989               0.000000000              -0.162892392               0.335008240               0.000000000              -0.175336336               0.358578492               0.000000000              -0.187780280               0.382148743               0.000000000              -0.200224224               0.405718994               0.000000000              -0.212668168               0.429289246               0.000000000              -0.225112112               0.452859497               0.000000000              -0.237556056               0.476429749               0.000000000              -0.250000000               0.500000000               0.000000000              -0.038607862               0.127273065               0.000000000              -0.047913621               0.150568498               0.000000000              -0.057219379               0.173863932               0.000000000              -0.066525138               0.197159365               0.000000000              -0.075830897               0.220454798               0.000000000              -0.085136655               0.243750232               0.000000000              -0.094442414               0.267045665               0.000000000              -0.103748172               0.290341099               0.000000000              -0.113053931               0.313636532               0.000000000              -0.122359690               0.336931966               0.000000000              -0.131665448               0.360227399               0.000000000              -0.140971207               0.383522833               0.000000000              -0.150276966               0.406818266               0.000000000              -0.159582724               0.430113700               0.000000000              -0.168888483               0.453409133               0.000000000              -0.178194241               0.476704567               0.000000000              -0.187500000               0.500000000               0.000000000              -0.025947013               0.130444442               0.000000000              -0.032137825               0.153541665               0.000000000              -0.038328636               0.176638887               0.000000000              -0.044519448               0.199736109               0.000000000              -0.050710260               0.222833332               0.000000000              -0.056901071               0.245930554               0.000000000              -0.063091883               0.269027776               0.000000000              -0.069282695               0.292124999               0.000000000              -0.075473506               0.315222221               0.000000000              -0.081664318               0.338319444               0.000000000              -0.087855130               0.361416666               0.000000000              -0.094045942               0.384513888               0.000000000              -0.100236753               0.407611111               0.000000000              -0.106427565               0.430708333               0.000000000              -0.112618377               0.453805555               0.000000000              -0.118809188               0.476902778               0.000000000              -0.125000000               0.500000000               0.000000000              -0.013036280               0.132359569               0.000000000              -0.016127762               0.155337096               0.000000000              -0.019219245               0.178314623               0.000000000              -0.022310727               0.201292150               0.000000000              -0.025402210               0.224269676               0.000000000              -0.028493692               0.247247203               0.000000000              -0.031585175               0.270224730               0.000000000              -0.034676657               0.293202257               0.000000000              -0.037768140               0.316179784               0.000000000              -0.040859622               0.339157311               0.000000000              -0.043951105               0.362134838               0.000000000              -0.047042587               0.385112365               0.000000000              -0.050134070               0.408089892               0.000000000              -0.053225552               0.431067419               0.000000000              -0.056317035               0.454044946               0.000000000              -0.059408517               0.477022473               0.000000000              -0.062500000               0.500000000               0.000000000               0.000000000               0.133000000               0.000000000               0.000000000               0.155937500               0.000000000               0.000000000               0.178875000               0.000000000               0.000000000               0.201812500               0.000000000               0.000000000               0.224750000               0.000000000               0.000000000               0.247687500               0.000000000               0.000000000               0.270625000               0.000000000               0.000000000               0.293562500               0.000000000               0.000000000               0.316500000               0.000000000               0.000000000               0.339437500               0.000000000               0.000000000               0.362375000               0.000000000               0.000000000               0.385312500               0.000000000               0.000000000               0.408250000               0.000000000               0.000000000               0.431187500               0.000000000               0.000000000               0.454125000               0.000000000               0.000000000               0.477062500               0.000000000               0.000000000               0.500000000               0.000000000 </DataArray>
</Points>
<Cells>
<DataArray type="Int32"                                    Name="connectivity"                                                      NumberOfComponents=" 1" format="ascii">
         0          1         18         17          1          2         19         18          2          3         20         19          3          4         21         20          4          5         22         21          5          6         23         22          6          7         24         23          7          8         25         24          8          9         26         25          9         10         27         26         10         11         28         27         11         12         29         28         12         13         30         29         13         14         31         30         14         15         32         31         15         16         33         32         17         18         35         34         18         19         36         35         19         20         37         36         20         21         38         37         21         22         39         38         22         23         40         39         23         24         41         40         24         25         42         41         25         26         43         42         26         27         44         43         27         28         45         44         28         29         46         45         29         30         47         46         30         31         48         47         31         32         49         48         32         33         50         49         34         35         52         51         35         36         53         52         36         37         54         53         37         38         55         54         38         39         56         55         39         40         57         56         40         41         58         57         41         42         59         58         42         43         60         59         43         44         61         60         44         45         62         61         45         46         63         62         46         47         64         63         47         48         65         64         48         49         66         65         49         50         67         66         51         52         69         68         52         53         70         69         53         54         71         70         54         55         72         71         55         56         73         72         56         57         74         73         57         58         75         74         58         59         76         75         59         60         77         76         60         61         78         77         61         62         79         78         62         63         80         79         63         64         81         80         64         65         82         81         65         66         83         82         66         67         84         83         68         69         86         85         69         70         87         86         70         71         88         87         71         72         89         88         72         73         90         89         73         74         91         90         74         75         92         91         75         76         93         92         76         77         94         93         77         78         95         94         78         79         96         95         79         80         97         96         80         81         98         97         81         82         99         98         82         83        100         99         83         84        101        100         85         86        103        102         86         87        104        103         87         88        105        104         88         89        106        105         89         90        107        106         90         91        108        107         91         92        109        108         92         93        110        109         93         94        111        110         94         95        112        111         95         96        113        112         96         97        114        113         97         98        115        114         98         99        116        115         99        100        117        116        100        101        118        117        102        103        120        119        103        104        121        120        104        105        122        121        105        106        123        122        106        107        124        123        107        108        125        124        108        109        126        125        109        110        127        126        110        111        128        127        111        112        129        128        112        113        130        129        113        114        131        130        114        115        132        131        115        116        133        132        116        117        134        133        117        118        135        134        119        120        137        136        120        121        138        137        121        122        139        138        122        123        140        139        123        124        141        140        124        125        142        141        125        126        143        142        126        127        144        143        127        128        145        144        128        129        146        145        129        130        147        146        130        131        148        147        131        132        149        148        132        133        150        149        133        134        151        150        134        135        152        151        136        137        154        153        137        138        155        154        138        139        156        155        139        140        157        156        140        141        158        157        141        142        159        158        142        143        160        159        143        144        161        160        144        145        162        161        145        146        163        162        146        147        164        163        147        148        165        164        148        149        166        165        149        150        167        166        150        151        168        167        151        152        169        168        153        154        171        170        154        155        172        171        155        156        173        172        156        157        174        173        157        158        175        174        158        159        176        175        159        160        177        176        160        161        178        177        161        162        179        178        162        163        180        179        163        164        181        180        164        165        182        181        165        166        183        182        166        167        184        183        167        168        185        184        168        169        186        185        170        171        188        187        171        172        189        188        172        173        190        189        173        174        191        190        174        175        192        191        175        176        193        192        176        177        194        193        177        178        195        194        178        179        196        195        179        180        197        196        180        181        198        197        181        182        199        198        182        183        200        199        183        184        201        200        184        185        202        201        185        186        203        202        187        188        205        204        188        189        206        205        189        190        207        206        190        191        208        207        191        192        209        208        192        193        210        209        193        194        211        210        194        195        212        211        195        196        213        212        196        197        214        213        197        198        215        214        198        199        216        215        199        200        217        216        200        201        218        217        201        202        219        218        202        203        220        219        204        205        222        221        205        206        223        222        206        207        224        223        207        208        225        224        208        209        226        225        209        210        227        226        210        211        228        227        211        212        229        228        212        213        230        229        213        214        231        230        214        215        232        231        215        216        233        232        216        217        234        233        217        218        235        234        218        219        236        235        219        220        237        236        221        222        239        238        222        223        240        239        223        224        241        240        224        225        242        241        225        226        243        242        226        227        244        243        227        228        245        244        228        229        246        245        229        230        247        246        230        231        248        247        231        232        249        248        232        233        250        249        233        234        251        250        234        235        252        251        235        236        253        252        236        237        254        253        238        239        256        255        239        240        257        256        240        241        258        257        241        242        259        258        242        243        260        259        243        244        261        260        244        245        262        261        245        246        263        262        246        247        264        263        247        248        265        264        248        249        266        265        249        250        267        266        250        251        268        267        251        252        269        268        252        253        270        269        253        254        271        270        255        256        273        272        256        257        274        273        257        258        275        274        258        259        276        275        259        260        277        276        260        261        278        277        261        262        279        278        262        263        280        279        263        264        281        280        264        265        282        281        265        266        283        282        266        267        284        283        267        268        285        284        268        269        286        285        269        270        287        286        270        271        288        287        306        307          1          0        307        308          2          1        308        309          3          2        309        310          4          3        310        311          5          4        311        312          6          5        312        313          7          6        313        314          8          7        314        315          9          8        315        316         10          9        316        317         11         10        317        318         12         11        318        319         13         12        319        320         14         13        320        321         15         14        321        322         16         15        323        324        307        306        324        325        308        307        325        326        309        308        326        327        310        309        327        328        311        310        328        329        312        311        329        330        313        312        330        331        314        313        331        332        315        314        332        333        316        315        333        334        317        316        334        335        318        317        335        336        319        318        336        337        320        319        337        338        321        320        338        339        322        321        340        341        324        323        341        342        325        324        342        343        326        325        343        344        327        326        344        345        328        327        345        346        329        328        346        347        330        329        347        348        331        330        348        349        332        331        349        350        333        332        350        351        334        333        351        352        335        334        352        353        336        335        353        354        337        336        354        355        338        337        355        356        339        338        357        358        341        340        358        359        342        341        359        360        343        342        360        361        344        343        361        362        345        344        362        363        346        345        363        364        347        346        364        365        348        347        365        366        349        348        366        367        350        349        367        368        351        350        368        369        352        351        369        370        353        352        370        371        354        353        371        372        355        354        372        373        356        355        374        375        358        357        375        376        359        358        376        377        360        359        377        378        361        360        378        379        362        361        379        380        363        362        380        381        364        363        381        382        365        364        382        383        366        365        383        384        367        366        384        385        368        367        385        386        369        368        386        387        370        369        387        388        371        370        388        389        372        371        389        390        373        372        391        392        375        374        392        393        376        375        393        394        377        376        394        395        378        377        395        396        379        378        396        397        380        379        397        398        381        380        398        399        382        381        399        400        383        382        400        401        384        383        401        402        385        384        402        403        386        385        403        404        387        386        404        405        388        387        405        406        389        388        406        407        390        389        408        409        392        391        409        410        393        392        410        411        394        393        411        412        395        394        412        413        396        395        413        414        397        396        414        415        398        397        415        416        399        398        416        417        400        399        417        418        401        400        418        419        402        401        419        420        403        402        420        421        404        403        421        422        405        404        422        423        406        405        423        424        407        406        425        426        409        408        426        427        410        409        427        428        411        410        428        429        412        411        429        430        413        412        430        431        414        413        431        432        415        414        432        433        416        415        433        434        417        416        434        435        418        417        435        436        419        418        436        437        420        419        437        438        421        420        438        439        422        421        439        440        423        422        440        441        424        423        442        443        426        425        443        444        427        426        444        445        428        427        445        446        429        428        446        447        430        429        447        448        431        430        448        449        432        431        449        450        433        432        450        451        434        433        451        452        435        434        452        453        436        435        453        454        437        436        454        455        438        437        455        456        439        438        456        457        440        439        457        458        441        440        459        460        443        442        460        461        444        443        461        462        445        444        462        463        446        445        463        464        447        446        464        465        448        447        465        466        449        448        466        467        450        449        467        468        451        450        468        469        452        451        469        470        453        452        470        471        454        453        471        472        455        454        472        473        456        455        473        474        457        456        474        475        458        457        476        477        460        459        477        478        461        460        478        479        462        461        479        480        463        462        480        481        464        463        481        482        465        464        482        483        466        465        483        484        467        466        484        485        468        467        485        486        469        468        486        487        470        469        487        488        471        470        488        489        472        471        489        490        473        472        490        491        474        473        491        492        475        474        493        494        477        476        494        495        478        477        495        496        479        478        496        497        480        479        497        498        481        480        498        499        482        481        499        500        483        482        500        501        484        483        501        502        485        484        502        503        486        485        503        504        487        486        504        505        488        487        505        506        489        488        506        507        490        489        507        508        491        490        508        509        492        491        510        511        494        493        511        512        495        494        512        513        496        495        513        514        497        496        514        515        498        497        515        516        499        498        516        517        500        499        517        518        501        500        518        519        502        501        519        520        503        502        520        521        504        503        521        522        505        504        522        523        506        505        523        524        507        506        524        525        508        507        525        526        509        508        527        528        511        510        528        529        512        511        529        530        513        512        530        531        514        513        531        532        515        514        532        533        516        515        533        534        517        516        534        535        518        517        535        536        519        518        536        537        520        519        537        538        521        520        538        539        522        521        539        540        523        522        540        541        524        523        541        542        525        524        542        543        526        525        544        545        528        527        545        546        529        528        546        547        530        529        547        548        531        530        548        549        532        531        549        550        533        532        550        551        534        533        551        552        535        534        552        553        536        535        553        554        537        536        554        555        538        537        555        556        539        538        556        557        540        539        557        558        541        540        558        559        542        541        559        560        543        542        561        562        545        544        562        563        546        545        563        564        547        546        564        565        548        547        565        566        549        548        566        567        550        549        567        568        551        550        568        569        552        551        569        570        553        552        570        571        554        553        571        572        555        554        572        573        556        555        573        574        557        556        574        575        558        557        575        576        559        558        576        577        560        559        578        579        596        595        579        580        597        596        580        581        598        597        581        582        599        598        582        583        600        599        583        584        601        600        584        585        602        601        585        586        603        602        586        587        604        603        587        588        605        604        588        589        606        605        589        590        607        606        590        591        608        607        591        592        609        608        592        593        610        609        593        594        611        610        595        596        613        612        596        597        614        613        597        598        615        614        598        599        616        615        599        600        617        616        600        601        618        617        601        602        619        618        602        603        620        619        603        604        621        620        604        605        622        621        605        606        623        622        606        607        624        623        607        608        625        624        608        609        626        625        609        610        627        626        610        611        628        627        612        613        630        629        613        614        631        630        614        615        632        631        615        616        633        632        616        617        634        633        617        618        635        634        618        619        636        635        619        620        637        636        620        621        638        637        621        622        639        638        622        623        640        639        623        624        641        640        624        625        642        641        625        626        643        642        626        627        644        643        627        628        645        644        629        630        647        646        630        631        648        647        631        632        649        648        632        633        650        649        633        634        651        650        634        635        652        651        635        636        653        652        636        637        654        653        637        638        655        654        638        639        656        655        639        640        657        656        640        641        658        657        641        642        659        658        642        643        660        659        643        644        661        660        644        645        662        661        646        647        664        663        647        648        665        664        648        649        666        665        649        650        667        666        650        651        668        667        651        652        669        668        652        653        670        669        653        654        671        670        654        655        672        671        655        656        673        672        656        657        674        673        657        658        675        674        658        659        676        675        659        660        677        676        660        661        678        677        661        662        679        678        663        664        681        680        664        665        682        681        665        666        683        682        666        667        684        683        667        668        685        684        668        669        686        685        669        670        687        686        670        671        688        687        671        672        689        688        672        673        690        689        673        674        691        690        674        675        692        691        675        676        693        692        676        677        694        693        677        678        695        694        678        679        696        695        680        681        698        697        681        682        699        698        682        683        700        699        683        684        701        700        684        685        702        701        685        686        703        702        686        687        704        703        687        688        705        704        688        689        706        705        689        690        707        706        690        691        708        707        691        692        709        708        692        693        710        709        693        694        711        710        694        695        712        711        695        696        713        712        697        698        715        714        698        699        716        715        699        700        717        716        700        701        718        717        701        702        719        718        702        703        720        719        703        704        721        720        704        705        722        721        705        706        723        722        706        707        724        723        707        708        725        724        708        709        726        725        709        710        727        726        710        711        728        727        711        712        729        728        712        713        730        729        714        715        732        731        715        716        733        732        716        717        734        733        717        718        735        734        718        719        736        735        719        720        737        736        720        721        738        737        721        722        739        738        722        723        740        739        723        724        741        740        724        725        742        741        725        726        743        742        726        727        744        743        727        728        745        744        728        729        746        745        729        730        747        746        731        732        749        748        732        733        750        749        733        734        751        750        734        735        752        751        735        736        753        752        736        737        754        753        737        738        755        754        738        739        756        755        739        740        757        756        740        741        758        757        741        742        759        758        742        743        760        759        743        744        761        760        744        745        762        761        745        746        763        762        746        747        764        763        748        749        766        765        749        750        767        766        750        751        768        767        751        752        769        768        752        753        770        769        753        754        771        770        754        755        772        771        755        756        773        772        756        757        774        773        757        758        775        774        758        759        776        775        759        760        777        776        760        761        778        777        761        762        779        778        762        763        780        779        763        764        781        780        765        766        783        782        766        767        784        783        767        768        785        784        768        769        786        785        769        770        787        786        770        771        788        787        771        772        789        788        772        773        790        789        773        774        791        790        774        775        792        791        775        776        793        792        776        777        794        793        777        778        795        794        778        779        796        795        779        780        797        796        780        781        798        797        782        783        800        799        783        784        801        800        784        785        802        801        785        786        803        802        786        787        804        803        787        788        805        804        788        789        806        805        789        790        807        806        790        791        808        807        791        792        809        808        792        793        810        809        793        794        811        810        794        795        812        811        795        796        813        812        796        797        814        813        797        798        815        814        799        800        817        816        800        801        818        817        801        802        819        818        802        803        820        819        803        804        821        820        804        805        822        821        805        806        823        822        806        807        824        823        807        808        825        824        808        809        826        825        809        810        827        826        810        811        828        827        811        812        829        828        812        813        830        829        813        814        831        830        814        815        832        831        816        817        834        833        817        818        835        834        818        819        836        835        819        820        837        836        820        821        838        837        821        822        839        838        822        823        840        839        823        824        841        840        824        825        842        841        825        826        843        842        826        827        844        843        827        828        845        844        828        829        846        845        829        830        847        846        830        831        848        847        831        832        849        848        833        834        562        561        834        835        563        562        835        836        564        563        836        837        565        564        837        838        566        565        838        839        567        566        839        840        568        567        840        841        569        568        841        842        570        569        842        843        571        570        843        844        572        571        844        845        573        572        845        846        574        573        846        847        575        574        847        848        576        575        848        849        577        576        884        885        579        578        885        886        580        579        886        887        581        580        887        888        582        581        888        889        583        582        889        890        584        583        890        891        585        584        891        892        586        585        892        893        587        586        893        894        588        587        894        895        589        588        895        896        590        589        896        897        591        590        897        898        592        591        898        899        593        592        899        900        594        593        901        902        885        884        902        903        886        885        903        904        887        886        904        905        888        887        905        906        889        888        906        907        890        889        907        908        891        890        908        909        892        891        909        910        893        892        910        911        894        893        911        912        895        894        912        913        896        895        913        914        897        896        914        915        898        897        915        916        899        898        916        917        900        899        918        919        902        901        919        920        903        902        920        921        904        903        921        922        905        904        922        923        906        905        923        924        907        906        924        925        908        907        925        926        909        908        926        927        910        909        927        928        911        910        928        929        912        911        929        930        913        912        930        931        914        913        931        932        915        914        932        933        916        915        933        934        917        916        935        936        919        918        936        937        920        919        937        938        921        920        938        939        922        921        939        940        923        922        940        941        924        923        941        942        925        924        942        943        926        925        943        944        927        926        944        945        928        927        945        946        929        928        946        947        930        929        947        948        931        930        948        949        932        931        949        950        933        932        950        951        934        933        952        953        936        935        953        954        937        936        954        955        938        937        955        956        939        938        956        957        940        939        957        958        941        940        958        959        942        941        959        960        943        942        960        961        944        943        961        962        945        944        962        963        946        945        963        964        947        946        964        965        948        947        965        966        949        948        966        967        950        949        967        968        951        950        969        970        953        952        970        971        954        953        971        972        955        954        972        973        956        955        973        974        957        956        974        975        958        957        975        976        959        958        976        977        960        959        977        978        961        960        978        979        962        961        979        980        963        962        980        981        964        963        981        982        965        964        982        983        966        965        983        984        967        966        984        985        968        967        986        987        970        969        987        988        971        970        988        989        972        971        989        990        973        972        990        991        974        973        991        992        975        974        992        993        976        975        993        994        977        976        994        995        978        977        995        996        979        978        996        997        980        979        997        998        981        980        998        999        982        981        999       1000        983        982       1000       1001        984        983       1001       1002        985        984       1003       1004        987        986       1004       1005        988        987       1005       1006        989        988       1006       1007        990        989       1007       1008        991        990       1008       1009        992        991       1009       1010        993        992       1010       1011        994        993       1011       1012        995        994       1012       1013        996        995       1013       1014        997        996       1014       1015        998        997       1015       1016        999        998       1016       1017       1000        999       1017       1018       1001       1000       1018       1019       1002       1001       1020       1021       1004       1003       1021       1022       1005       1004       1022       1023       1006       1005       1023       1024       1007       1006       1024       1025       1008       1007       1025       1026       1009       1008       1026       1027       1010       1009       1027       1028       1011       1010       1028       1029       1012       1011       1029       1030       1013       1012       1030       1031       1014       1013       1031       1032       1015       1014       1032       1033       1016       1015       1033       1034       1017       1016       1034       1035       1018       1017       1035       1036       1019       1018       1037       1038       1021       1020       1038       1039       1022       1021       1039       1040       1023       1022       1040       1041       1024       1023       1041       1042       1025       1024       1042       1043       1026       1025       1043       1044       1027       1026       1044       1045       1028       1027       1045       1046       1029       1028       1046       1047       1030       1029       1047       1048       1031       1030       1048       1049       1032       1031       1049       1050       1033       1032       1050       1051       1034       1033       1051       1052       1035       1034       1052       1053       1036       1035       1054       1055       1038       1037       1055       1056       1039       1038       1056       1057       1040       1039       1057       1058       1041       1040       1058       1059       1042       1041       1059       1060       1043       1042       1060       1061       1044       1043       1061       1062       1045       1044       1062       1063       1046       1045       1063       1064       1047       1046       1064       1065       1048       1047       1065       1066       1049       1048       1066       1067       1050       1049       1067       1068       1051       1050       1068       1069       1052       1051       1069       1070       1053       1052       1071       1072       1055       1054       1072       1073       1056       1055       1073       1074       1057       1056       1074       1075       1058       1057       1075       1076       1059       1058       1076       1077       1060       1059       1077       1078       1061       1060       1078       1079       1062       1061       1079       1080       1063       1062       1080       1081       1064       1063       1081       1082       1065       1064       1082       1083       1066       1065       1083       1084       1067       1066       1084       1085       1068       1067       1085       1086       1069       1068       1086       1087       1070       1069       1088       1089       1072       1071       1089       1090       1073       1072       1090       1091       1074       1073       1091       1092       1075       1074       1092       1093       1076       1075       1093       1094       1077       1076       1094       1095       1078       1077       1095       1096       1079       1078       1096       1097       1080       1079       1097       1098       1081       1080       1098       1099       1082       1081       1099       1100       1083       1082       1100       1101       1084       1083       1101       1102       1085       1084       1102       1103       1086       1085       1103       1104       1087       1086       1105       1106       1089       1088       1106       1107       1090       1089       1107       1108       1091       1090       1108       1109       1092       1091       1109       1110       1093       1092       1110       1111       1094       1093       1111       1112       1095       1094       1112       1113       1096       1095       1113       1114       1097       1096       1114       1115       1098       1097       1115       1116       1099       1098       1116       1117       1100       1099       1117       1118       1101       1100       1118       1119       1102       1101       1119       1120       1103       1102       1120       1121       1104       1103       1122       1123       1106       1105       1123       1124       1107       1106       1124       1125       1108       1107       1125       1126       1109       1108       1126       1127       1110       1109       1127       1128       1111       1110       1128       1129       1112       1111       1129       1130       1113       1112       1130       1131       1114       1113       1131       1132       1115       1114       1132       1133       1116       1115       1133       1134       1117       1116       1134       1135       1118       1117       1135       1136       1119       1118       1136       1137       1120       1119       1137       1138       1121       1120        272        273       1123       1122        273        274       1124       1123        274        275       1125       1124        275        276       1126       1125        276        277       1127       1126        277        278       1128       1127        278        279       1129       1128        279        280       1130       1129        280        281       1131       1130        281        282       1132       1131        282        283       1133       1132        283        284       1134       1133        284        285       1135       1134        285        286       1136       1135        286        287       1137       1136        287        288       1138       1137 </DataArray>
<DataArray type="Int32"                                    Name="offsets"                                                      NumberOfComponents=" 1" format="ascii">
         4          8         12         16         20         24         28         32         36         40         44         48         52         56         60         64         68         72         76         80         84         88         92         96        100        104        108        112        116        120        124        128        132        136        140        144        148        152        156        160        164        168        172        176        180        184        188        192        196        200        204        208        212        216        220        224        228        232        236        240        244        248        252        256        260        264        268        272        276        280        284        288        292        296        300        304        308        312        316        320        324        328        332        336        340        344        348        352        356        360        364        368        372        376        380        384        388        392        396        400        404        408        412        416        420        424        428        432        436        440        444        448        452        456        460        464        468        472        476        480        484        488        492        496        500        504        508        512        516        520        524        528        532        536        540        544        548        552        556        560        564        568        572        576        580        584        588        592        596        600        604        608        612        616        620        624        628        632        636        640        644        648        652        656        660        664        668        672        676        680        684        688        692        696        700        704        708        712        716        720        724        728        732        736        740        744        748        752        756        760        764        768        772        776        780        784        788        792        796        800        804        808        812        816        820        824        828        832        836        840        844        848        852        856        860        864        868        872        876        880        884        888        892        896        900        904        908        912        916        920        924        928        932        936        940        944        948        952        956        960        964        968        972        976        980        984        988        992        996       1000       1004       1008       1012       1016       1020       1024       1028       1032       1036       1040       1044       1048       1052       1056       1060       1064       1068       1072       1076       1080       1084       1088       1092       1096       1100       1104       1108       1112       1116       1120       1124       1128       1132       1136       1140       1144       1148       1152       1156       1160       1164       1168       1172       1176       1180       1184       1188       1192       1196       1200       1204       1208       1212       1216       1220       1224       1228       1232       1236       1240       1244       1248       1252       1256       1260       1264       1268       1272       1276       1280       1284       1288       1292       1296       1300       1304       1308       1312       1316       1320       1324       1328       1332       1336       1340       1344       1348       1352       1356       1360       1364       1368       1372       1376       1380       1384       1388       1392       1396       1400       1404       1408       1412       1416       1420       1424       1428       1432       1436       1440       1444       1448       1452       1456       1460       1464       1468       1472       1476       1480       1484       1488       1492       1496       1500       1504       1508       1512       1516       1520       1524       1528       1532       1536       1540       1544       1548       1552       1556       1560       1564       1568       1572       1576       1580       1584       1588       1592       1596       1600       1604       1608       1612       1616       1620       1624       1628       1632       1636       1640       1644       1648       1652       1656       1660       1664       1668       1672       1676       1680       1684       1688       1692       1696       1700       1704       1708       1712       1716       1720       1724       1728       1732       1736       1740       1744       1748       1752       1756       1760       1764       1768       1772       1776       1780       1784       1788       1792       1796       1800       1804       1808       1812       1816       1820       1824       1828       1832       1836       1840       1844       1848       1852       1856       1860       1864       1868       1872       1876       1880       1884       1888       1892       1896       1900       1904       1908       1912       1916       1920       1924       1928       1932       1936       1940       1944       1948       1952       1956       1960       1964       1968       1972       1976       1980       1984       1988       1992       1996       2000       2004       2008       2012       2016       2020       2024       2028       2032       2036       2040       2044       2048       2052       2056       2060       2064       2068       2072       2076       2080       2084       2088       2092       2096       2100       2104       2108       2112       2116       2120       2124       2128       2132       2136       2140       2144       2148       2152       2156       2160       2164       2168       2172       2176       2180       2184       2188       2192       2196       2200       2204       2208       2212       2216       2220       2224       2228       2232       2236       2240       2244       2248       2252       2256       2260       2264       2268       2272       2276       2280       2284       2288       2292       2296       2300       2304       2308       2312       2316       2320       2324       2328       2332       2336       2340       2344       2348       2352       2356       2360       2364       2368       2372       2376       2380       2384       2388       2392       2396       2400       2404       2408       2412       2416       2420       2424       2428       2432       2436       2440       2444       2448       2452       2456       2460       2464       2468       2472       2476       2480       2484       2488       2492       2496       2500       2504       2508       2512       2516       2520       2524       2528       2532       2536       2540       2544       2548       2552       2556       2560       2564       2568       2572       2576       2580       2584       2588       2592       2596       2600       2604       2608       2612       2616       2620       2624       2628       2632       2636       2640       2644       2648       2652       2656       2660       2664       2668       2672       2676       2680       2684       2688       2692       2696       2700       2704       2708       2712       2716       2720       2724       2728       2732       2736       2740       2744       2748       2752       2756       2760       2764       2768       2772       2776       2780       2784       2788       2792       2796       2800       2804       2808       2812       2816       2820       2824       2828       2832       2836       2840       2844       2848       2852       2856       2860       2864       2868       2872       2876       2880       2884       2888       2892       2896       2900       2904       2908       2912       2916       2920       2924       2928       2932       2936       2940       2944       2948       2952       2956       2960       2964       2968       2972       2976       2980       2984       2988       2992       2996       3000       3004       3008       3012       3016       3020       3024       3028       3032       3036       3040       3044       3048       3052       3056       3060       3064       3068       3072       3076       3080       3084       3088       3092       3096       3100       3104       3108       3112       3116       3120       3124       3128       3132       3136       3140       3144       3148       3152       3156       3160       3164       3168       3172       3176       3180       3184       3188       3192       3196       3200       3204       3208       3212       3216       3220       3224       3228       3232       3236       3240       3244       3248       3252       3256       3260       3264       3268       3272       3276       3280       3284       3288       3292       3296       3300       3304       3308       3312       3316       3320       3324       3328       3332       3336       3340       3344       3348       3352       3356       3360       3364       3368       3372       3376       3380       3384       3388       3392       3396       3400       3404       3408       3412       3416       3420       3424       3428       3432       3436       3440       3444       3448       3452       3456       3460       3464       3468       3472       3476       3480       3484       3488       3492       3496       3500       3504       3508       3512       3516       3520       3524       3528       3532       3536       3540       3544       3548       3552       3556       3560       3564       3568       3572       3576       3580       3584       3588       3592       3596       3600       3604       3608       3612       3616       3620       3624       3628       3632       3636       3640       3644       3648       3652       3656       3660       3664       3668       3672       3676       3680       3684       3688       3692       3696       3700       3704       3708       3712       3716       3720       3724       3728       3732       3736       3740       3744       3748       3752       3756       3760       3764       3768       3772       3776       3780       3784       3788       3792       3796       3800       3804       3808       3812       3816       3820       3824       3828       3832       3836       3840       3844       3848       3852       3856       3860       3864       3868       3872       3876       3880       3884       3888       3892       3896       3900       3904       3908       3912       3916       3920       3924       3928       3932       3936       3940       3944       3948       3952       3956       3960       3964       3968       3972       3976       3980       3984       3988       3992       3996       4000       4004       4008       4012       4016       4020       4024       4028       4032       4036       4040       4044       4048       4052       4056       4060       4064       4068       4072       4076       4080       4084       4088       4092       4096 </DataArray>
<DataArray type="UInt8"                                    Name="types"                                                      NumberOfComponents=" 1" format="ascii">
         9          9          9          9          9          9          9          9          9          9          9          9          9          9          9          9          9          9          9          9          9          9          9          9          9          9          9          9          9          9          9          9          9          9          9          9          9          9          9          9          9          9          9          9          9          9          9          9          9          9          9          9          9          9          9          9          9          9          9          9          9          9          9          9          9          9          9          9          9          9          9          9          9          9          9          9          9          9          9          9          9          9          9          9          9          9          9          9          9          9          9          9          9          9          9          9          9          9          9          9          9          9          9          9          9          9          9          9          9          9          9          9          9          9          9          9          9          9          9          9          9          9          9          9          9          9          9          9          9          9          9          9          9          9          9          9          9          9          9          9          9          9          9          9          9          9          9          9          9          9          9          9          9          9          9          9          9          9          9          9          9          9          9          9          9          9          9          9          9          9          9          9          9          9          9          9          9          9          9          9          9          9          9          9          9          9          9          9          9          9          9          9          9          9          9          9          9          9          9          9          9          9          9          9          9          9          9          9          9          9          9          9          9          9          9          9          9          9          9          9          9          9          9          9          9          9          9          9          9          9          9          9          9          9          9          9          9          9          9          9          9          9          9          9          9          9          9          9          9          9          9          9          9          9          9          9          9          9          9          9          9          9          9          9          9          9          9          9          9          9          9          9          9          9          9          9          9          9          9          9          9          9          9          9          9          9          9          9          9          9          9          9          9          9          9          9          9          9          9          9          9          9          9          9          9          9          9          9          9          9          9          9          9          9          9          9          9          9          9          9          9          9          9          9          9          9          9          9          9          9          9          9          9          9          9          9          9          9          9          9          9          9          9          9          9          9          9          9          9          9          9          9          9          9          9          9          9          9          9          9          9          9          9          9          9          9          9          9          9          9          9          9          9          9          9          9          9          9          9          9          9          9          9          9          9          9          9          9          9          9          9          9          9          9          9          9          9          9          9          9          9          9          9          9          9          9          9          9          9          9          9          9          9          9          9          9          9          9          9          9          9          9          9          9          9          9          9          9          9          9          9          9          9          9          9          9          9          9          9          9          9          9          9          9          9          9          9          9          9          9          9          9          9          9          9          9          9          9          9          9          9          9          9          9          9          9          9          9          9          9          9          9          9          9          9          9          9          9          9          9          9          9          9          9          9          9          9          9          9          9          9          9          9          9          9          9          9          9          9          9          9          9          9          9          9          9          9          9          9          9          9          9          9          9          9          9          9          9          9          9          9          9          9          9          9          9          9          9          9          9          9          9          9          9          9          9          9          9          9          9          9          9          9          9          9          9          9          9          9          9          9          9          9          9          9          9          9          9          9          9          9          9          9          9          9          9          9          9          9          9          9          9          9          9          9          9          9          9          9          9          9          9          9          9          9          9          9          9          9          9          9          9          9          9          9          9          9          9          9          9          9          9          9          9          9          9          9          9          9          9          9          9          9          9          9          9          9          9          9          9          9          9          9          9          9          9          9          9          9          9          9          9          9          9          9          9          9          9          9          9          9          9          9          9          9          9          9          9          9          9          9          9          9          9          9          9          9          9          9          9          9          9          9          9          9          9          9          9          9          9          9          9          9          9          9          9          9          9          9          9          9          9          9          9          9          9          9          9          9          9          9          9          9          9          9          9          9          9          9          9          9          9          9          9          9          9          9          9          9          9          9          9          9          9          9          9          9          9          9          9          9          9          9          9          9          9          9          9          9          9          9          9          9          9          9          9          9          9          9          9          9          9          9          9          9          9          9          9          9          9          9          9          9          9          9          9          9          9          9          9          9          9          9          9          9          9          9          9          9          9          9          9          9          9          9          9          9          9          9          9          9          9          9          9          9          9          9          9          9          9          9          9          9          9          9          9          9          9          9          9          9          9          9          9          9          9          9          9          9          9          9          9          9          9          9          9          9          9          9          9          9          9          9          9          9          9          9          9          9          9          9          9          9          9          9          9          9          9          9          9          9          9          9          9          9          9          9          9          9          9          9          9          9          9          9          9          9          9          9          9          9          9          9          9          9          9          9          9          9          9          9          9          9          9          9          9          9          9          9          9          9          9          9          9          9          9          9          9          9          9          9          9          9          9          9          9          9          9          9          9          9          9          9          9          9          9          9          9          9          9          9          9          9          9          9          9          9          9          9          9          9          9          9          9          9          9          9          9          9          9          9          9          9          9          9          9          9          9          9          9          9          9          9          9          9          9          9          9          9          9          9          9          9          9          9          9          9          9          9          9          9          9          9          9          9          9          9          9          9          9          9          9          9          9          9          9          9          9          9          9          9          9          9          9          9          9          9          9          9          9          9          9          9          9          9          9          9          9          9          9          9          9          9          9          9          9          9          9          9          9          9          9          9          9          9          9          9          9          9          9          9          9          9          9 </DataArray>
</Cells>
<CellData>
<DataArray type="Int32"                                    Name="material"                                                      NumberOfComponents=" 1" format="ascii">
         1          1          1          1          1          1          1          1          1          1          1          1          1          1          1          1          1          1          1          1          1          1          1          1          1          1          1          1          1          1          1          1          1          1          1          1          1          1          1          1          1          1          1          1          1          1          1          1          1          1          1          1          1          1          1          1          1          1          1          1          1          1          1          1          1          1          1          1          1          1          1          1          1          1          1          1          1          1          1          1          1          1          1          1          1          1          1          1          1          1          1          1          1          1          1          1          1          1          1          1          1          1          1          1          1          1          1          1          1          1          1          1          1          1          1          1          1          1          1          1          1          1          1          1          1          1          1          1          1          1          1          1          1          1          1          1          1          1          1          1          1          1          1          1          1          1          1          1          1          1          1          1          1          1          1          1          1          1          1          1          1          1          1          1          1          1          1          1          1          1          1          1          1          1          1          1          1          1          1          1          1          1          1          1          1          1          1          1          1          1          1          1          1          1          1          1          1          1          1          1          1          1          1          1          1          1          1          1          1          1          1          1          1          1          1          1          1          1          1          1          1          1          1          1          1          1          1          1          1          1          1          1          1          1          1          1          1          1          1          1          1          1          1          1          1          1          1          1          1          1          1          1          1          1          1          1          1          1          1          1          1          1          1          1          1          1          1          1          1          1          1          1          1          1          1          1          1          1          1          1          1          1          1          1          1          1          1          1          1          1          1          1          1          1          1          1          1          1          1          1          1          1          1          1          1          1          1          1          1          1          1          1          1          1          1          1          1          1          1          1          1          1          1          1          1          1          1          1          1          1          1          1          1          1          1          1          1          1          1          1          1          1          1          1          1          1          1          1          1          1          1          1          1          1          1          1          1          1          1          1          1          1          1          1          1          1          1          1          1          1          1          1          1          1          1          1          1          1          1          1          1          1          1          1          1          1          1          1          1          1          1          1          1          1          1          1          1          1          1          1          1          1          1          1          1          1          1          1          1          1          1          1          1          1          1          1          1          1          1          1          1          1          1          1          1          1          1          1          1          1          1          1          1          1          1          1          1          1          1          1          1          1          1          1          1          1          1          1          1          1          1          1          1          1          1          1          1          1          1          1          1          1          1          1          1          1          1          1          1          1          1          1          1          1          1          1          1          1          1          1          1          1          1          1          1          1          1          1          1          1          1          1          1          1          1          1          1          1          1          1          1          1          1          1          1          1          1          1          1          1          1          1          1          1          1          1          1          1          1          1          1          1          1          1          1          1          1          1          1          1          1          1          1          1          1          1          1          1          1          1          1          1          1          1          1          1          1          1          1          1          1          1          1          1          1          1          1          1          1          1          1          1          1          1          1          1          1          1          1          1          1          1          1          1          1          1          1          1          1          1          1          1          1          1          1          1          1          1          1          1          1          1          1          1          1          1          1          1          1          1          1          1          1          1          1          1          1          1          1          1          1          1          1          1          1          1          1          1          1          1          1          1          1          1          1          1          1          1          1          1          1          1          1          1          1          1          1          1          1          1          1          1          1          1          1          1          1          1          1          1          1          1          1          1          1          1          1          1          1          1          1          1          1          1          1          1          1          1          1          1          1          1          1          1          1          1          1          1          1          1          1          1          1          1          1          1          1          1          1          1          1          1          1          1          1          1          1          1          1          1          1          1          1          1          1          1          1          1          1          1          1          1          1          1          1          1          1          1          1          1          1          1          1          1          1          1          1          1          1          1          1          1          1          1          1          1          1          1          1          1          1          1          1          1          1          1          1          1          1          1          1          1          1          1          1          1          1          1          1          1          1          1          1          1          1          1          1          1          1          1          1          1          1          1          1          1          1          1          1          1          1          1          1          1          1          1          1          1          1          1          1          1          1          1          1          1          1          1          1          1          1          1          1          1          1          1          1          1          1          1          1          1          1          1          1          1          1          1          1          1          1          1          1          1          1          1          1          1          1          1          1          1          1          1          1          1          1          1          1          1          1          1          1          1          1          1          1          1          1          1          1          1          1          1          1          1          1          1          1          1          1          1          1          1          1          1          1          1          1          1          1          1          1          1          1          1          1          1          1          1          1          1          1          1          1          1          1          1          1          1          1          1          1          1          1          1          1          1          1          1          1          1          1          1          1          1          1          1          1          1          1          1          1          1          1          1          1          1          1          1          1          1          1          1          1          1          1          1          1          1          1          1          1          1          1          1          1          1          1          1          1          1          1          1          1          1          1          1          1          1          1          1          1          1          1          1          1          1          1          1          1          1          1          1          1          1          1          1          1          1          1          1          1          1          1          1          1          1          1          1          1          1          1          1          1          1          1          1          1          1          1          1          1          1          1          1          1          1          1          1          1          1          1          1          1          1          1          1          1          1          1          1          1          1          1          1          1          1          1          1          1          1          1          1 </DataArray>
</CellData>
<PointData>
<DataArray type="Float64"                                    Name="u"                                                      NumberOfComponents=" 3" format="ascii">
             -0.000486848               0.000000000               0.999999984              -0.000530271               0.000000000               0.999999984              -0.000550115               0.000000000               0.999999984              -0.000561730               0.000000000               0.999999984              -0.000570996               0.000000000               0.999999984              -0.000580264              -0.000000000               0.999999984              -0.000590265               0.000000000               0.999999984              -0.000601345              -0.000000000               0.999999984              -0.000613522               0.000000000               0.999999984              -0.000626573               0.000000000               0.999999984              -0.000640447               0.000000000               0.999999984              -0.000654896               0.000000000               0.999999984              -0.000669766               0.000000000               0.999999984              -0.000684832              -0.000000000               0.999999984              -0.000699656              -0.000000000               0.999999984              -0.000713902               0.000000000               0.999999984              -0.000727153               0.000000000               0.999999985              -0.000484123               0.000110724               0.999999984              -0.000524635               0.000091986               0.999999984              -0.000542628               0.000084574               0.999999984              -0.000553149               0.000082769               0.999999984              -0.000561724               0.000084123               0.999999984              -0.000570473               0.000087047               0.999999984              -0.000580145               0.000090899               0.999999984              -0.000590873               0.000095170               0.999999984              -0.000602622               0.000099442               0.999999984              -0.000615202               0.000103534               0.999999984              -0.000628384               0.000107082               0.999999984              -0.000641965               0.000110010               0.999999984              -0.000655861               0.000112143               0.999999984              -0.000669798               0.000112960               0.999999984              -0.000683428               0.000111997               0.999999984              -0.000696433               0.000108892               0.999999985              -0.000708473               0.000102774               0.999999985              -0.000475825               0.000220315               0.999999984              -0.000507833               0.000183325               0.999999984              -0.000520761               0.000169351               0.999999984              -0.000528329               0.000166580               0.999999984              -0.000535195               0.000169798               0.999999984              -0.000542785               0.000176113               0.999999984              -0.000551547               0.000184011               0.999999984              -0.000561424               0.000192597               0.999999984              -0.000572153               0.000201232               0.999999984              -0.000583341               0.000209286               0.999999984              -0.000594809               0.000216290               0.999999984              -0.000606356               0.000222100               0.999999984              -0.000617777               0.000226513               0.999999984              -0.000628882               0.000228773               0.999999984              -0.000639445               0.000228007               0.999999985              -0.000649302               0.000223679               0.999999985              -0.000658293               0.000214821               0.999999985              -0.000462228               0.000327557               0.999999984              -0.000480818               0.000273478               0.999999984              -0.000486438               0.000254577               0.999999984              -0.000490127               0.000252169               0.999999984              -0.000494883               0.000258103               0.999999984              -0.000501214               0.000268298               0.999999984              -0.000508994               0.000280578               0.999999984              -0.000517730               0.000293601               0.999999984              -0.000526953               0.000306377               0.999999984              -0.000536290               0.000318342               0.999999984              -0.000545534               0.000328941               0.999999984              -0.000554447               0.000337907               0.999999984              -0.000562722               0.000344751               0.999999984              -0.000570094               0.000348871               0.999999985              -0.000576508               0.000349719               0.999999985              -0.000582130               0.000347006               0.999999985              -0.000587277               0.000340162               0.999999985              -0.000443668               0.000431338               0.999999984              -0.000445086               0.000362020               0.999999984              -0.000442608               0.000340243               0.999999984              -0.000442688               0.000339624               0.999999984              -0.000445829               0.000349152               0.999999984              -0.000451350               0.000363636               0.999999984              -0.000458339               0.000380334               0.999999984              -0.000465958               0.000397740               0.999999984              -0.000473632               0.000414610               0.999999984              -0.000481055               0.000430359               0.999999984              -0.000487739               0.000444409               0.999999984              -0.000493418               0.000456440               0.999999985              -0.000497961               0.000466057               0.999999985              -0.000501407               0.000472968               0.999999985              -0.000503920               0.000477255               0.999999985              -0.000505920               0.000478944               0.999999985              -0.000507805               0.000478153               0.999999985              -0.000420441               0.000530663               0.999999984              -0.000402603               0.000448771               0.999999984              -0.000392880               0.000426099               0.999999984              -0.000390495               0.000428406               0.999999984              -0.000392976               0.000442070               0.999999984              -0.000398253               0.000461035               0.999999984              -0.000404790               0.000482164               0.999999984              -0.000411568               0.000503635               0.999999984              -0.000417866               0.000524400               0.999999984              -0.000423202               0.000543710               0.999999984              -0.000427245               0.000560988               0.999999985              -0.000429945               0.000576064               0.999999985              -0.000431288               0.000588958               0.999999985              -0.000431496               0.000599547               0.999999985              -0.000430850               0.000608246               0.999999985              -0.000429623               0.000615444               0.999999985              -0.000427913               0.000620988               0.999999985              -0.000393239               0.000624490               0.999999984              -0.000355865               0.000533520               0.999999984              -0.000340714               0.000511685               0.999999984              -0.000337548               0.000517494               0.999999984              -0.000340504               0.000535432               0.999999984              -0.000346104               0.000558675               0.999999984              -0.000352478               0.000584093               0.999999984              -0.000358522               0.000609604               0.999999984              -0.000363458               0.000634093               0.999999984              -0.000366850               0.000656670               0.999999985              -0.000368455               0.000677094               0.999999985              -0.000368128               0.000695377               0.999999985              -0.000366182               0.000711566               0.999999985              -0.000362844               0.000725963               0.999999985              -0.000358417               0.000739102               0.999999985              -0.000352935               0.000750872               0.999999985              -0.000346233               0.000760648               0.999999985              -0.000362638               0.000711907               0.999999984              -0.000307117               0.000616089               0.999999984              -0.000289118               0.000596172               0.999999984              -0.000287070               0.000605487               0.999999984              -0.000291337               0.000627400               0.999999984              -0.000297726               0.000654801               0.999999984              -0.000304248               0.000684337               0.999999984              -0.000309539               0.000713678               0.999999985              -0.000312947               0.000741700               0.999999985              -0.000313891               0.000767720               0.999999985              -0.000312171               0.000791209               0.999999985              -0.000308137               0.000812283               0.999999985              -0.000302062               0.000831461               0.999999985              -0.000294282               0.000849101               0.999999985              -0.000284935               0.000865562               0.999999985              -0.000273878               0.000880498               0.999999985              -0.000261275               0.000893175               0.999999985              -0.000329730               0.000791392               0.999999984              -0.000258039               0.000696391               0.999999984              -0.000240775               0.000678488               0.999999984              -0.000241110               0.000690868               0.999999984              -0.000247268               0.000716466               0.999999984              -0.000254761               0.000747881               0.999999984              -0.000261289               0.000781271               0.999999985              -0.000265510               0.000814393               0.999999985              -0.000266549               0.000845953               0.999999985              -0.000264057               0.000874682               0.999999985              -0.000258125               0.000900525               0.999999985              -0.000249189               0.000923987               0.999999985              -0.000237818               0.000945700               0.999999985              -0.000224477               0.000966057               0.999999985              -0.000209431               0.000984888               0.999999985              -0.000193166               0.001002000               0.999999985              -0.000175970               0.001017441               0.999999985              -0.000296139               0.000866010               0.999999984              -0.000217769               0.000783662               0.999999984              -0.000197417               0.000760958               0.999999984              -0.000196392               0.000767393               0.999999984              -0.000201807               0.000788166               0.999999984              -0.000209030               0.000816236               0.999999984              -0.000215647               0.000847673               0.999999985              -0.000220408               0.000880363               0.999999985              -0.000222513               0.000912480               0.999999985              -0.000221154               0.000942872               0.999999985              -0.000216184               0.000970830               0.999999985              -0.000207694               0.000996216               0.999999985              -0.000196141               0.001019625               0.999999985              -0.000182246               0.001041585               0.999999985              -0.000166532               0.001062462               0.999999985              -0.000149947               0.001082076               0.999999985              -0.000133019               0.001100376               0.999999985              -0.000259278               0.000933508               0.999999984              -0.000180213               0.000867454               0.999999984              -0.000156939               0.000844910               0.999999984              -0.000153834               0.000847306               0.999999984              -0.000157970               0.000864065               0.999999984              -0.000164416               0.000889045               0.999999985              -0.000170701               0.000918536               0.999999985              -0.000175540               0.000950474               0.999999985              -0.000178203               0.000983023               0.999999985              -0.000177933               0.001014596               0.999999985              -0.000174115               0.001044495               0.999999985              -0.000166473               0.001072173               0.999999985              -0.000155002               0.001097641               0.999999985              -0.000140539               0.001121261               0.999999985              -0.000123673               0.001143621               0.999999985              -0.000105097               0.001165038               0.999999985              -0.000085735               0.001185818               0.999999985              -0.000220021               0.000992384               0.999999984              -0.000145314               0.000945342               0.999999984              -0.000120494               0.000926647               0.999999984              -0.000115160               0.000927770               0.999999984              -0.000117545               0.000941907               0.999999985              -0.000122587               0.000964530               0.999999985              -0.000128041               0.000992453               0.999999985              -0.000132591               0.001023676               0.999999985              -0.000135382               0.001056411               0.999999985              -0.000135823               0.001089240               0.999999985              -0.000132923               0.001121061               0.999999985              -0.000126322               0.001151265               0.999999985              -0.000115758               0.001179488               0.999999985              -0.000101316               0.001205515               0.999999985              -0.000083353               0.001229818               0.999999985              -0.000062343               0.001252955               0.999999985              -0.000038947               0.001275550               0.999999985              -0.000178668               0.001041777               0.999999984              -0.000113003               0.001014313               0.999999984              -0.000088638               0.001002148               0.999999985              -0.000081708               0.001004497               0.999999985              -0.000082193               0.001017870               0.999999985              -0.000085558               0.001039214               0.999999985              -0.000089727               0.001066189               0.999999985              -0.000093485               0.001097120               0.999999985              -0.000096128               0.001130174               0.999999985              -0.000096870               0.001164115               0.999999985              -0.000094642               0.001198026               0.999999985              -0.000089116               0.001230974               0.999999985              -0.000079949               0.001262433               0.999999985              -0.000066604               0.001291973               0.999999985              -0.000048683               0.001319527               0.999999985              -0.000026134               0.001345429               0.999999985               0.000000999               0.001370311               0.999999985              -0.000135572               0.001080913               0.999999985              -0.000082908               0.001071426               0.999999985              -0.000061453               0.001067031               0.999999985              -0.000054122               0.001072303               0.999999985              -0.000053162               0.001086513               0.999999985              -0.000054923               0.001107787               0.999999985              -0.000057667               0.001134615               0.999999985              -0.000060463               0.001165574               0.999999985              -0.000062559               0.001199211               0.999999985              -0.000063167               0.001234456               0.999999985              -0.000061554               0.001270254               0.999999985              -0.000057295               0.001305878               0.999999985              -0.000049904               0.001340681               0.999999985              -0.000038681               0.001374128               0.999999985              -0.000022814               0.001405923               0.999999985              -0.000001315               0.001435856               0.999999985               0.000026470               0.001464206               0.999999985              -0.000091123               0.001109257               0.999999985              -0.000054438               0.001114144               0.999999985              -0.000038397               0.001117089               0.999999985              -0.000032192               0.001125872               0.999999985              -0.000030671               0.001141655               0.999999985              -0.000031286               0.001163588               0.999999985              -0.000032827               0.001190764               0.999999985              -0.000034631               0.001222157               0.999999985              -0.000035977               0.001256485               0.999999985              -0.000036388               0.001292875               0.999999985              -0.000035324               0.001330420               0.999999985              -0.000032416               0.001368400               0.999999985              -0.000027181               0.001406258               0.999999985              -0.000019025               0.001443369               0.999999985              -0.000007019               0.001479318               0.999999985               0.000010032               0.001513596               0.999999985               0.000033274               0.001545903               0.999999985              -0.000045771               0.001126412               0.999999985              -0.000026992               0.001140546               0.999999985              -0.000018412               0.001148710               0.999999985              -0.000014838               0.001160315               0.999999985              -0.000013722               0.001177544               0.999999985              -0.000013839               0.001200238               0.999999985              -0.000014517               0.001227873               0.999999985              -0.000015363               0.001259710               0.999999985              -0.000015966               0.001294654               0.999999985              -0.000016137               0.001331857               0.999999985              -0.000015630               0.001370567               0.999999985              -0.000014114               0.001410247               0.999999985              -0.000011395               0.001450301               0.999999985              -0.000007108               0.001490140               0.999999985              -0.000000520               0.001529234               0.999999985               0.000008868               0.001566894               0.999999985               0.000022143               0.001602451               0.999999985               0.000000000               0.001132110               0.999999985               0.000000000               0.001149470               0.999999985               0.000000000               0.001159628               0.999999985               0.000000000               0.001172320               0.999999985              -0.000000000               0.001190034               0.999999985              -0.000000000               0.001212979               0.999999985               0.000000000               0.001240841               0.999999985              -0.000000000               0.001272955               0.999999985               0.000000000               0.001308164               0.999999985              -0.000000000               0.001345642               0.999999985              -0.000000000               0.001384745               0.999999985               0.000000000               0.001425008               0.999999985               0.000000000               0.001465842               0.999999985              -0.000000000               0.001506677               0.999999985              -0.000000000               0.001546875               0.999999985              -0.000000000               0.001585757               0.999999985               0.000000000               0.001622602               0.999999985              -0.000486848               0.000000000               0.999999984              -0.000530271               0.000000000               0.999999984              -0.000550115               0.000000000               0.999999984              -0.000561730               0.000000000               0.999999984              -0.000570996               0.000000000               0.999999984              -0.000580264              -0.000000000               0.999999984              -0.000590265               0.000000000               0.999999984              -0.000601345              -0.000000000               0.999999984              -0.000613522               0.000000000               0.999999984              -0.000626573               0.000000000               0.999999984              -0.000640447               0.000000000               0.999999984              -0.000654896               0.000000000               0.999999984              -0.000669766               0.000000000               0.999999984              -0.000684832              -0.000000000               0.999999984              -0.000699656              -0.000000000               0.999999984              -0.000713902               0.000000000               0.999999984              -0.000727153               0.000000000               0.999999985              -0.000484123              -0.000110724               0.999999984              -0.000524635              -0.000091986               0.999999984              -0.000542628              -0.000084574               0.999999984              -0.000553149              -0.000082769               0.999999984              -0.000561724              -0.000084123               0.999999984              -0.000570473              -0.000087047               0.999999984              -0.000580145              -0.000090899               0.999999984              -0.000590873              -0.000095170               0.999999984              -0.000602622              -0.000099442               0.999999984              -0.000615202              -0.000103534               0.999999984              -0.000628384              -0.000107082               0.999999984              -0.000641965              -0.000110010               0.999999984              -0.000655861              -0.000112143               0.999999984              -0.000669798              -0.000112960               0.999999984              -0.000683428              -0.000111997               0.999999984              -0.000696433              -0.000108892               0.999999985              -0.000708473              -0.000102774               0.999999985              -0.000475825              -0.000220315               0.999999984              -0.000507833              -0.000183325               0.999999984              -0.000520761              -0.000169351               0.999999984              -0.000528329              -0.000166580               0.999999984              -0.000535195              -0.000169798               0.999999984              -0.000542785              -0.000176113               0.999999984              -0.000551547              -0.000184011               0.999999984              -0.000561424              -0.000192597               0.999999984              -0.000572153              -0.000201232               0.999999984              -0.000583341              -0.000209286               0.999999984              -0.000594809              -0.000216290               0.999999984              -0.000606356              -0.000222100               0.999999984              -0.000617777              -0.000226513               0.999999984              -0.000628882              -0.000228773               0.999999984              -0.000639445              -0.000228007               0.999999985              -0.000649302              -0.000223679               0.999999985              -0.000658293              -0.000214821               0.999999985              -0.000462228              -0.000327557               0.999999984              -0.000480818              -0.000273478               0.999999984              -0.000486438              -0.000254577               0.999999984              -0.000490127              -0.000252169               0.999999984              -0.000494883              -0.000258103               0.999999984              -0.000501214              -0.000268298               0.999999984              -0.000508994              -0.000280578               0.999999984              -0.000517730              -0.000293601               0.999999984              -0.000526953              -0.000306377               0.999999984              -0.000536290              -0.000318342               0.999999984              -0.000545534              -0.000328941               0.999999984              -0.000554447              -0.000337907               0.999999984              -0.000562722              -0.000344751               0.999999984              -0.000570094              -0.000348871               0.999999985              -0.000576508              -0.000349719               0.999999985              -0.000582130              -0.000347006               0.999999985              -0.000587277              -0.000340162               0.999999985              -0.000443668              -0.000431338               0.999999984              -0.000445086              -0.000362020               0.999999984              -0.000442608              -0.000340243               0.999999984              -0.000442688              -0.000339624               0.999999984              -0.000445829              -0.000349152               0.999999984              -0.000451350              -0.000363636               0.999999984              -0.000458339              -0.000380334               0.999999984              -0.000465958              -0.000397740               0.999999984              -0.000473632              -0.000414610               0.999999984              -0.000481055              -0.000430359               0.999999984              -0.000487739              -0.000444409               0.999999984              -0.000493418              -0.000456440               0.999999985              -0.000497961              -0.000466057               0.999999985              -0.000501407              -0.000472968               0.999999985              -0.000503920              -0.000477255               0.999999985              -0.000505920              -0.000478944               0.999999985              -0.000507805              -0.000478153               0.999999985              -0.000420441              -0.000530663               0.999999984              -0.000402603              -0.000448771               0.999999984              -0.000392880              -0.000426099               0.999999984              -0.000390495              -0.000428406               0.999999984              -0.000392976              -0.000442070               0.999999984              -0.000398253              -0.000461035               0.999999984              -0.000404790              -0.000482164               0.999999984              -0.000411568              -0.000503635               0.999999984              -0.000417866              -0.000524400               0.999999984              -0.000423202              -0.000543710               0.999999984              -0.000427245              -0.000560988               0.999999985              -0.000429945              -0.000576064               0.999999985              -0.000431288              -0.000588958               0.999999985              -0.000431496              -0.000599547               0.999999985              -0.000430850              -0.000608246               0.999999985              -0.000429623              -0.000615444               0.999999985              -0.000427913              -0.000620988               0.999999985              -0.000393239              -0.000624490               0.999999984              -0.000355865              -0.000533520               0.999999984              -0.000340714              -0.000511685               0.999999984              -0.000337548              -0.000517494               0.999999984              -0.000340504              -0.000535432               0.999999984              -0.000346104              -0.000558675               0.999999984              -0.000352478              -0.000584093               0.999999984              -0.000358522              -0.000609604               0.999999984              -0.000363458              -0.000634093               0.999999984              -0.000366850              -0.000656670               0.999999985              -0.000368455              -0.000677094               0.999999985              -0.000368128              -0.000695377               0.999999985              -0.000366182              -0.000711566               0.999999985              -0.000362844              -0.000725963               0.999999985              -0.000358417              -0.000739102               0.999999985              -0.000352935              -0.000750872               0.999999985              -0.000346233              -0.000760648               0.999999985              -0.000362638              -0.000711907               0.999999984              -0.000307117              -0.000616089               0.999999984              -0.000289118              -0.000596172               0.999999984              -0.000287070              -0.000605487               0.999999984              -0.000291337              -0.000627400               0.999999984              -0.000297726              -0.000654801               0.999999984              -0.000304248              -0.000684337               0.999999984              -0.000309539              -0.000713678               0.999999985              -0.000312947              -0.000741700               0.999999985              -0.000313891              -0.000767720               0.999999985              -0.000312171              -0.000791209               0.999999985              -0.000308137              -0.000812283               0.999999985              -0.000302062              -0.000831461               0.999999985              -0.000294282              -0.000849101               0.999999985              -0.000284935              -0.000865562               0.999999985              -0.000273878              -0.000880498               0.999999985              -0.000261275              -0.000893175               0.999999985              -0.000329730              -0.000791392               0.999999984              -0.000258039              -0.000696391               0.999999984              -0.000240775              -0.000678488               0.999999984              -0.000241110              -0.000690868               0.999999984              -0.000247268              -0.000716466               0.999999984              -0.000254761              -0.000747881               0.999999984              -0.000261289              -0.000781271               0.999999985              -0.000265510              -0.000814393               0.999999985              -0.000266549              -0.000845953               0.999999985              -0.000264057              -0.000874682               0.999999985              -0.000258125              -0.000900525               0.999999985              -0.000249189              -0.000923987               0.999999985              -0.000237818              -0.000945700               0.999999985              -0.000224477              -0.000966057               0.999999985              -0.000209431              -0.000984888               0.999999985              -0.000193166              -0.001002000               0.999999985              -0.000175970              -0.001017441               0.999999985              -0.000296139              -0.000866010               0.999999984              -0.000217769              -0.000783662               0.999999984              -0.000197417              -0.000760958               0.999999984              -0.000196392              -0.000767393               0.999999984              -0.000201807              -0.000788166               0.999999984              -0.000209030              -0.000816236               0.999999984              -0.000215647              -0.000847673               0.999999985              -0.000220408              -0.000880363               0.999999985              -0.000222513              -0.000912480               0.999999985              -0.000221154              -0.000942872               0.999999985              -0.000216184              -0.000970830               0.999999985              -0.000207694              -0.000996216               0.999999985              -0.000196141              -0.001019625               0.999999985              -0.000182246              -0.001041585               0.999999985              -0.000166532              -0.001062462               0.999999985              -0.000149947              -0.001082076               0.999999985              -0.000133019              -0.001100376               0.999999985              -0.000259278              -0.000933508               0.999999984              -0.000180213              -0.000867454               0.999999984              -0.000156939              -0.000844910               0.999999984              -0.000153834              -0.000847306               0.999999984              -0.000157970              -0.000864065               0.999999984              -0.000164416              -0.000889045               0.999999985              -0.000170701              -0.000918536               0.999999985              -0.000175540              -0.000950474               0.999999985              -0.000178203              -0.000983023               0.999999985              -0.000177933              -0.001014596               0.999999985              -0.000174115              -0.001044495               0.999999985              -0.000166473              -0.001072173               0.999999985              -0.000155002              -0.001097641               0.999999985              -0.000140539              -0.001121261               0.999999985              -0.000123673              -0.001143621               0.999999985              -0.000105097              -0.001165038               0.999999985              -0.000085735              -0.001185818               0.999999985              -0.000220021              -0.000992384               0.999999984              -0.000145314              -0.000945342               0.999999984              -0.000120494              -0.000926647               0.999999984              -0.000115160              -0.000927770               0.999999984              -0.000117545              -0.000941907               0.999999985              -0.000122587              -0.000964530               0.999999985              -0.000128041              -0.000992453               0.999999985              -0.000132591              -0.001023676               0.999999985              -0.000135382              -0.001056411               0.999999985              -0.000135823              -0.001089240               0.999999985              -0.000132923              -0.001121061               0.999999985              -0.000126322              -0.001151265               0.999999985              -0.000115758              -0.001179488               0.999999985              -0.000101316              -0.001205515               0.999999985              -0.000083353              -0.001229818               0.999999985              -0.000062343              -0.001252955               0.999999985              -0.000038947              -0.001275550               0.999999985              -0.000178668              -0.001041777               0.999999984              -0.000113003              -0.001014313               0.999999984              -0.000088638              -0.001002148               0.999999985              -0.000081708              -0.001004497               0.999999985              -0.000082193              -0.001017870               0.999999985              -0.000085558              -0.001039214               0.999999985              -0.000089727              -0.001066189               0.999999985              -0.000093485              -0.001097120               0.999999985              -0.000096128              -0.001130174               0.999999985              -0.000096870              -0.001164115               0.999999985              -0.000094642              -0.001198026               0.999999985              -0.000089116              -0.001230974               0.999999985              -0.000079949              -0.001262433               0.999999985              -0.000066604              -0.001291973               0.999999985              -0.000048683              -0.001319527               0.999999985              -0.000026134              -0.001345429               0.999999985               0.000000999              -0.001370311               0.999999985              -0.000135572              -0.001080913               0.999999985              -0.000082908              -0.001071426               0.999999985              -0.000061453              -0.001067031               0.999999985              -0.000054122              -0.001072303               0.999999985              -0.000053162              -0.001086513               0.999999985              -0.000054923              -0.001107787               0.999999985              -0.000057667              -0.001134615               0.999999985              -0.000060463              -0.001165574               0.999999985              -0.000062559              -0.001199211               0.999999985              -0.000063167              -0.001234456               0.999999985              -0.000061554              -0.001270254               0.999999985              -0.000057295              -0.001305878               0.999999985              -0.000049904              -0.001340681               0.999999985              -0.000038681              -0.001374128               0.999999985              -0.000022814              -0.001405923               0.999999985              -0.000001315              -0.001435856               0.999999985               0.000026470              -0.001464206               0.999999985              -0.000091123              -0.001109257               0.999999985              -0.000054438              -0.001114144               0.999999985              -0.000038397              -0.001117089               0.999999985              -0.000032192              -0.001125872               0.999999985              -0.000030671              -0.001141655               0.999999985              -0.000031286              -0.001163588               0.999999985              -0.000032827              -0.001190764               0.999999985              -0.000034631              -0.001222157               0.999999985              -0.000035977              -0.001256485               0.999999985              -0.000036388              -0.001292875               0.999999985              -0.000035324              -0.001330420               0.999999985              -0.000032416              -0.001368400               0.999999985              -0.000027181              -0.001406258               0.999999985              -0.000019025              -0.001443369               0.999999985              -0.000007019              -0.001479318               0.999999985               0.000010032              -0.001513596               0.999999985               0.000033274              -0.001545903               0.999999985              -0.000045771              -0.001126412               0.999999985              -0.000026992              -0.001140546               0.999999985              -0.000018412              -0.001148710               0.999999985              -0.000014838              -0.001160315               0.999999985              -0.000013722              -0.001177544               0.999999985              -0.000013839              -0.001200238               0.999999985              -0.000014517              -0.001227873               0.999999985              -0.000015363              -0.001259710               0.999999985              -0.000015966              -0.001294654               0.999999985              -0.000016137              -0.001331857               0.999999985              -0.000015630              -0.001370567               0.999999985              -0.000014114              -0.001410247               0.999999985              -0.000011395              -0.001450301               0.999999985              -0.000007108              -0.001490140               0.999999985              -0.000000520              -0.001529234               0.999999985               0.000008868              -0.001566894               0.999999985               0.000022143              -0.001602451               0.999999985               0.000000000              -0.001132110               0.999999985              -0.000000000              -0.001149470               0.999999985              -0.000000000              -0.001159628               0.999999985               0.000000000              -0.001172320               0.999999985              -0.000000000              -0.001190034               0.999999985               0.000000000              -0.001212979               0.999999985               0.000000000              -0.001240841               0.999999985              -0.000000000              -0.001272955               0.999999985              -0.000000000              -0.001308164               0.999999985              -0.000000000              -0.001345642               0.999999985               0.000000000              -0.001384745               0.999999985               0.000000000              -0.001425008               0.999999985               0.000000000              -0.001465842               0.999999985              -0.000000000              -0.001506677               0.999999985              -0.000000000              -0.001546875               0.999999985               0.000000000              -0.001585757               0.999999985               0.000000000              -0.001622602               0.999999985               0.000486848              -0.000000000               0.999999984               0.000530271               0.000000000               0.999999984               0.000550115               0.000000000               0.999999984               0.000561730               0.000000000               0.999999984               0.000570996              -0.000000000               0.999999984               0.000580264               0.000000000               0.999999984               0.000590265               0.000000000               0.999999984               0.000601345               0.000000000               0.999999984               0.000613522               0.000000000               0.999999984               0.000626573               0.000000000               0.999999984               0.000640447               0.000000000               0.999999984               0.000654896               0.000000000               0.999999984               0.000669766               0.000000000               0.999999984               0.000684832               0.000000000               0.999999984               0.000699656              -0.000000000               0.999999984               0.000713902              -0.000000000               0.999999984               0.000727153              -0.000000000               0.999999985               0.000484123              -0.000110724               0.999999984               0.000524635              -0.000091986               0.999999984               0.000542628              -0.000084574               0.999999984               0.000553149              -0.000082769               0.999999984               0.000561724              -0.000084123               0.999999984               0.000570473              -0.000087047               0.999999984               0.000580145              -0.000090899               0.999999984               0.000590873              -0.000095170               0.999999984               0.000602622              -0.000099442               0.999999984               0.000615202              -0.000103534               0.999999984               0.000628384              -0.000107082               0.999999984               0.000641965              -0.000110010               0.999999984               0.000655861              -0.000112143               0.999999984               0.000669798              -0.000112960               0.999999984               0.000683428              -0.000111997               0.999999984               0.000696433              -0.000108892               0.999999985               0.000708473              -0.000102774               0.999999985               0.000475825              -0.000220315               0.999999984               0.000507833              -0.000183325               0.999999984               0.000520761              -0.000169351               0.999999984               0.000528329              -0.000166580               0.999999984               0.000535195              -0.000169798               0.999999984               0.000542785              -0.000176113               0.999999984               0.000551547              -0.000184011               0.999999984               0.000561424              -0.000192597               0.999999984               0.000572153              -0.000201232               0.999999984               0.000583341              -0.000209286               0.999999984               0.000594809              -0.000216290               0.999999984               0.000606356              -0.000222100               0.999999984               0.000617777              -0.000226513               0.999999984               0.000628882              -0.000228773               0.999999984               0.000639445              -0.000228007               0.999999985               0.000649302              -0.000223679               0.999999985               0.000658293              -0.000214821               0.999999985               0.000462228              -0.000327557               0.999999984               0.000480818              -0.000273478               0.999999984               0.000486438              -0.000254577               0.999999984               0.000490127              -0.000252169               0.999999984               0.000494883              -0.000258103               0.999999984               0.000501214              -0.000268298               0.999999984               0.000508994              -0.000280578               0.999999984               0.000517730              -0.000293601               0.999999984               0.000526953              -0.000306377               0.999999984               0.000536290              -0.000318342               0.999999984               0.000545534              -0.000328941               0.999999984               0.000554447              -0.000337907               0.999999984               0.000562722              -0.000344751               0.999999984               0.000570094              -0.000348871               0.999999985               0.000576508              -0.000349719               0.999999985               0.000582130              -0.000347006               0.999999985               0.000587277              -0.000340162               0.999999985               0.000443668              -0.000431338               0.999999984               0.000445086              -0.000362020               0.999999984               0.000442608              -0.000340243               0.999999984               0.000442688              -0.000339624               0.999999984               0.000445829              -0.000349152               0.999999984               0.000451350              -0.000363636               0.999999984               0.000458339              -0.000380334               0.999999984               0.000465958              -0.000397740               0.999999984               0.000473632              -0.000414610               0.999999984               0.000481055              -0.000430359               0.999999984               0.000487739              -0.000444409               0.999999984               0.000493418              -0.000456440               0.999999985               0.000497961              -0.000466057               0.999999985               0.000501407              -0.000472968               0.999999985               0.000503920              -0.000477255               0.999999985               0.000505920              -0.000478944               0.999999985               0.000507805              -0.000478153               0.999999985               0.000420441              -0.000530663               0.999999984               0.000402603              -0.000448771               0.999999984               0.000392880              -0.000426099               0.999999984               0.000390495              -0.000428406               0.999999984               0.000392976              -0.000442070               0.999999984               0.000398253              -0.000461035               0.999999984               0.000404790              -0.000482164               0.999999984               0.000411568              -0.000503635               0.999999984               0.000417866              -0.000524400               0.999999984               0.000423202              -0.000543710               0.999999984               0.000427245              -0.000560988               0.999999985               0.000429945              -0.000576064               0.999999985               0.000431288              -0.000588958               0.999999985               0.000431496              -0.000599547               0.999999985               0.000430850              -0.000608246               0.999999985               0.000429623              -0.000615444               0.999999985               0.000427913              -0.000620988               0.999999985               0.000393239              -0.000624490               0.999999984               0.000355865              -0.000533520               0.999999984               0.000340714              -0.000511685               0.999999984               0.000337548              -0.000517494               0.999999984               0.000340504              -0.000535432               0.999999984               0.000346104              -0.000558675               0.999999984               0.000352478              -0.000584093               0.999999984               0.000358522              -0.000609604               0.999999984               0.000363458              -0.000634093               0.999999984               0.000366850              -0.000656670               0.999999985               0.000368455              -0.000677094               0.999999985               0.000368128              -0.000695377               0.999999985               0.000366182              -0.000711566               0.999999985               0.000362844              -0.000725963               0.999999985               0.000358417              -0.000739102               0.999999985               0.000352935              -0.000750872               0.999999985               0.000346233              -0.000760648               0.999999985               0.000362638              -0.000711907               0.999999984               0.000307117              -0.000616089               0.999999984               0.000289118              -0.000596172               0.999999984               0.000287070              -0.000605487               0.999999984               0.000291337              -0.000627400               0.999999984               0.000297726              -0.000654801               0.999999984               0.000304248              -0.000684337               0.999999984               0.000309539              -0.000713678               0.999999985               0.000312947              -0.000741700               0.999999985               0.000313891              -0.000767720               0.999999985               0.000312171              -0.000791209               0.999999985               0.000308137              -0.000812283               0.999999985               0.000302062              -0.000831461               0.999999985               0.000294282              -0.000849101               0.999999985               0.000284935              -0.000865562               0.999999985               0.000273878              -0.000880498               0.999999985               0.000261275              -0.000893175               0.999999985               0.000329730              -0.000791392               0.999999984               0.000258039              -0.000696391               0.999999984               0.000240775              -0.000678488               0.999999984               0.000241110              -0.000690868               0.999999984               0.000247268              -0.000716466               0.999999984               0.000254761              -0.000747881               0.999999984               0.000261289              -0.000781271               0.999999985               0.000265510              -0.000814393               0.999999985               0.000266549              -0.000845953               0.999999985               0.000264057              -0.000874682               0.999999985               0.000258125              -0.000900525               0.999999985               0.000249189              -0.000923987               0.999999985               0.000237818              -0.000945700               0.999999985               0.000224477              -0.000966057               0.999999985               0.000209431              -0.000984888               0.999999985               0.000193166              -0.001002000               0.999999985               0.000175970              -0.001017441               0.999999985               0.000296139              -0.000866010               0.999999984               0.000217769              -0.000783662               0.999999984               0.000197417              -0.000760958               0.999999984               0.000196392              -0.000767393               0.999999984               0.000201807              -0.000788166               0.999999984               0.000209030              -0.000816236               0.999999984               0.000215647              -0.000847673               0.999999985               0.000220408              -0.000880363               0.999999985               0.000222513              -0.000912480               0.999999985               0.000221154              -0.000942872               0.999999985               0.000216184              -0.000970830               0.999999985               0.000207694              -0.000996216               0.999999985               0.000196141              -0.001019625               0.999999985               0.000182246              -0.001041585               0.999999985               0.000166532              -0.001062462               0.999999985               0.000149947              -0.001082076               0.999999985               0.000133019              -0.001100376               0.999999985               0.000259278              -0.000933508               0.999999984               0.000180213              -0.000867454               0.999999984               0.000156939              -0.000844910               0.999999984               0.000153834              -0.000847306               0.999999984               0.000157970              -0.000864065               0.999999984               0.000164416              -0.000889045               0.999999985               0.000170701              -0.000918536               0.999999985               0.000175540              -0.000950474               0.999999985               0.000178203              -0.000983023               0.999999985               0.000177933              -0.001014596               0.999999985               0.000174115              -0.001044495               0.999999985               0.000166473              -0.001072173               0.999999985               0.000155002              -0.001097641               0.999999985               0.000140539              -0.001121261               0.999999985               0.000123673              -0.001143621               0.999999985               0.000105097              -0.001165038               0.999999985               0.000085735              -0.001185818               0.999999985               0.000220021              -0.000992384               0.999999984               0.000145314              -0.000945342               0.999999984               0.000120494              -0.000926647               0.999999984               0.000115160              -0.000927770               0.999999984               0.000117545              -0.000941907               0.999999985               0.000122587              -0.000964530               0.999999985               0.000128041              -0.000992453               0.999999985               0.000132591              -0.001023676               0.999999985               0.000135382              -0.001056411               0.999999985               0.000135823              -0.001089240               0.999999985               0.000132923              -0.001121061               0.999999985               0.000126322              -0.001151265               0.999999985               0.000115758              -0.001179488               0.999999985               0.000101316              -0.001205515               0.999999985               0.000083353              -0.001229818               0.999999985               0.000062343              -0.001252955               0.999999985               0.000038947              -0.001275550               0.999999985               0.000178668              -0.001041777               0.999999984               0.000113003              -0.001014313               0.999999984               0.000088638              -0.001002148               0.999999985               0.000081708              -0.001004497               0.999999985               0.000082193              -0.001017870               0.999999985               0.000085558              -0.001039214               0.999999985               0.000089727              -0.001066189               0.999999985               0.000093485              -0.001097120               0.999999985               0.000096128              -0.001130174               0.999999985               0.000096870              -0.001164115               0.999999985               0.000094642              -0.001198026               0.999999985               0.000089116              -0.001230974               0.999999985               0.000079949              -0.001262433               0.999999985               0.000066604              -0.001291973               0.999999985               0.000048683              -0.001319527               0.999999985               0.000026134              -0.001345429               0.999999985              -0.000000999              -0.001370311               0.999999985               0.000135572              -0.001080913               0.999999985               0.000082908              -0.001071426               0.999999985               0.000061453              -0.001067031               0.999999985               0.000054122              -0.001072303               0.999999985               0.000053162              -0.001086513               0.999999985               0.000054923              -0.001107787               0.999999985               0.000057667              -0.001134615               0.999999985               0.000060463              -0.001165574               0.999999985               0.000062559              -0.001199211               0.999999985               0.000063167              -0.001234456               0.999999985               0.000061554              -0.001270254               0.999999985               0.000057295              -0.001305878               0.999999985               0.000049904              -0.001340681               0.999999985               0.000038681              -0.001374128               0.999999985               0.000022814              -0.001405923               0.999999985               0.000001315              -0.001435856               0.999999985              -0.000026470              -0.001464206               0.999999985               0.000091123              -0.001109257               0.999999985               0.000054438              -0.001114144               0.999999985               0.000038397              -0.001117089               0.999999985               0.000032192              -0.001125872               0.999999985               0.000030671              -0.001141655               0.999999985               0.000031286              -0.001163588               0.999999985               0.000032827              -0.001190764               0.999999985               0.000034631              -0.001222157               0.999999985               0.000035977              -0.001256485               0.999999985               0.000036388              -0.001292875               0.999999985               0.000035324              -0.001330420               0.999999985               0.000032416              -0.001368400               0.999999985               0.000027181              -0.001406258               0.999999985               0.000019025              -0.001443369               0.999999985               0.000007019              -0.001479318               0.999999985              -0.000010032              -0.001513596               0.999999985              -0.000033274              -0.001545903               0.999999985               0.000045771              -0.001126412               0.999999985               0.000026992              -0.001140546               0.999999985               0.000018412              -0.001148710               0.999999985               0.000014838              -0.001160315               0.999999985               0.000013722              -0.001177544               0.999999985               0.000013839              -0.001200238               0.999999985               0.000014517              -0.001227873               0.999999985               0.000015363              -0.001259710               0.999999985               0.000015966              -0.001294654               0.999999985               0.000016137              -0.001331857               0.999999985               0.000015630              -0.001370567               0.999999985               0.000014114              -0.001410247               0.999999985               0.000011395              -0.001450301               0.999999985               0.000007108              -0.001490140               0.999999985               0.000000520              -0.001529234               0.999999985              -0.000008868              -0.001566894               0.999999985              -0.000022143              -0.001602451               0.999999985               0.000000000              -0.001132110               0.999999985              -0.000000000              -0.001149470               0.999999985              -0.000000000              -0.001159628               0.999999985               0.000000000              -0.001172320               0.999999985              -0.000000000              -0.001190034               0.999999985               0.000000000              -0.001212979               0.999999985               0.000000000              -0.001240841               0.999999985              -0.000000000              -0.001272955               0.999999985              -0.000000000              -0.001308164               0.999999985              -0.000000000              -0.001345642               0.999999985               0.000000000              -0.001384745               0.999999985               0.000000000              -0.001425008               0.999999985               0.000000000              -0.001465842               0.999999985              -0.000000000              -0.001506677               0.999999985              -0.000000000              -0.001546875               0.999999985               0.000000000              -0.001585757               0.999999985               0.000000000              -0.001622602               0.999999985               0.000486848              -0.000000000               0.999999984               0.000530271               0.000000000               0.999999984               0.000550115               0.000000000               0.999999984               0.000561730               0.000000000               0.999999984               0.000570996              -0.000000000               0.999999984               0.000580264               0.000000000               0.999999984               0.000590265               0.000000000               0.999999984               0.000601345               0.000000000               0.999999984               0.000613522               0.000000000               0.999999984               0.000626573               0.000000000               0.999999984               0.000640447               0.000000000               0.999999984               0.000654896               0.000000000               0.999999984               0.000669766               0.000000000               0.999999984               0.000684832               0.000000000               0.999999984               0.000699656              -0.000000000               0.999999984               0.000713902              -0.000000000               0.999999984               0.000727153              -0.000000000               0.999999985               0.000484123               0.000110724               0.999999984               0.000524635               0.000091986               0.999999984               0.000542628               0.000084574               0.999999984               0.000553149               0.000082769               0.999999984               0.000561724               0.000084123               0.999999984               0.000570473               0.000087047               0.999999984               0.000580145               0.000090899               0.999999984               0.000590873               0.000095170               0.999999984               0.000602622               0.000099442               0.999999984               0.000615202               0.000103534               0.999999984               0.000628384               0.000107082               0.999999984               0.000641965               0.000110010               0.999999984               0.000655861               0.000112143               0.999999984               0.000669798               0.000112960               0.999999984               0.000683428               0.000111997               0.999999984               0.000696433               0.000108892               0.999999985               0.000708473               0.000102774               0.999999985               0.000475825               0.000220315               0.999999984               0.000507833               0.000183325               0.999999984               0.000520761               0.000169351               0.999999984               0.000528329               0.000166580               0.999999984               0.000535195               0.000169798               0.999999984               0.000542785               0.000176113               0.999999984               0.000551547               0.000184011               0.999999984               0.000561424               0.000192597               0.999999984               0.000572153               0.000201232               0.999999984               0.000583341               0.000209286               0.999999984               0.000594809               0.000216290               0.999999984               0.000606356               0.000222100               0.999999984               0.000617777               0.000226513               0.999999984               0.000628882               0.000228773               0.999999984               0.000639445               0.000228007               0.999999985               0.000649302               0.000223679               0.999999985               0.000658293               0.000214821               0.999999985               0.000462228               0.000327557               0.999999984               0.000480818               0.000273478               0.999999984               0.000486438               0.000254577               0.999999984               0.000490127               0.000252169               0.999999984               0.000494883               0.000258103               0.999999984               0.000501214               0.000268298               0.999999984               0.000508994               0.000280578               0.999999984               0.000517730               0.000293601               0.999999984               0.000526953               0.000306377               0.999999984               0.000536290               0.000318342               0.999999984               0.000545534               0.000328941               0.999999984               0.000554447               0.000337907               0.999999984               0.000562722               0.000344751               0.999999984               0.000570094               0.000348871               0.999999985               0.000576508               0.000349719               0.999999985               0.000582130               0.000347006               0.999999985               0.000587277               0.000340162               0.999999985               0.000443668               0.000431338               0.999999984               0.000445086               0.000362020               0.999999984               0.000442608               0.000340243               0.999999984               0.000442688               0.000339624               0.999999984               0.000445829               0.000349152               0.999999984               0.000451350               0.000363636               0.999999984               0.000458339               0.000380334               0.999999984               0.000465958               0.000397740               0.999999984               0.000473632               0.000414610               0.999999984               0.000481055               0.000430359               0.999999984               0.000487739               0.000444409               0.999999984               0.000493418               0.000456440               0.999999985               0.000497961               0.000466057               0.999999985               0.000501407               0.000472968               0.999999985               0.000503920               0.000477255               0.999999985               0.000505920               0.000478944               0.999999985               0.000507805               0.000478153               0.999999985               0.000420441               0.000530663               0.999999984               0.000402603               0.000448771               0.999999984               0.000392880               0.000426099               0.999999984               0.000390495               0.000428406               0.999999984               0.000392976               0.000442070               0.999999984               0.000398253               0.000461035               0.999999984               0.000404790               0.000482164               0.999999984               0.000411568               0.000503635               0.999999984               0.000417866               0.000524400               0.999999984               0.000423202               0.000543710               0.999999984               0.000427245               0.000560988               0.999999985               0.000429945               0.000576064               0.999999985               0.000431288               0.000588958               0.999999985               0.000431496               0.000599547               0.999999985               0.000430850               0.000608246               0.999999985               0.000429623               0.000615444               0.999999985               0.000427913               0.000620988               0.999999985               0.000393239               0.000624490               0.999999984               0.000355865               0.000533520               0.999999984               0.000340714               0.000511685               0.999999984               0.000337548               0.000517494               0.999999984               0.000340504               0.000535432               0.999999984               0.000346104               0.000558675               0.999999984               0.000352478               0.000584093               0.999999984               0.000358522               0.000609604               0.999999984               0.000363458               0.000634093               0.999999984               0.000366850               0.000656670               0.999999985               0.000368455               0.000677094               0.999999985               0.000368128               0.000695377               0.999999985               0.000366182               0.000711566               0.999999985               0.000362844               0.000725963               0.999999985               0.000358417               0.000739102               0.999999985               0.000352935               0.000750872               0.999999985               0.000346233               0.000760648               0.999999985               0.000362638               0.000711907               0.999999984               0.000307117               0.000616089               0.999999984               0.000289118               0.000596172               0.999999984               0.000287070               0.000605487               0.999999984               0.000291337               0.000627400               0.999999984               0.000297726               0.000654801               0.999999984               0.000304248               0.000684337               0.999999984               0.000309539               0.000713678               0.999999985               0.000312947               0.000741700               0.999999985               0.000313891               0.000767720               0.999999985               0.000312171               0.000791209               0.999999985               0.000308137               0.000812283               0.999999985               0.000302062               0.000831461               0.999999985               0.000294282               0.000849101               0.999999985               0.000284935               0.000865562               0.999999985               0.000273878               0.000880498               0.999999985               0.000261275               0.000893175               0.999999985               0.000329730               0.000791392               0.999999984               0.000258039               0.000696391               0.999999984               0.000240775               0.000678488               0.999999984               0.000241110               0.000690868               0.999999984               0.000247268               0.000716466               0.999999984               0.000254761               0.000747881               0.999999984               0.000261289               0.000781271               0.999999985               0.000265510               0.000814393               0.999999985               0.000266549               0.000845953               0.999999985               0.000264057               0.000874682               0.999999985               0.000258125               0.000900525               0.999999985               0.000249189               0.000923987               0.999999985               0.000237818               0.000945700               0.999999985               0.000224477               0.000966057               0.999999985               0.000209431               0.000984888               0.999999985               0.000193166               0.001002000               0.999999985               0.000175970               0.001017441               0.999999985               0.000296139               0.000866010               0.999999984               0.000217769               0.000783662               0.999999984               0.000197417               0.000760958               0.999999984               0.000196392               0.000767393               0.999999984               0.000201807               0.000788166               0.999999984               0.000209030               0.000816236               0.999999984               0.000215647               0.000847673               0.999999985               0.000220408               0.000880363               0.999999985               0.000222513               0.000912480               0.999999985               0.000221154               0.000942872               0.999999985               0.000216184               0.000970830               0.999999985               0.000207694               0.000996216               0.999999985               0.000196141               0.001019625               0.999999985               0.000182246               0.001041585               0.999999985               0.000166532               0.001062462               0.999999985               0.000149947               0.001082076               0.999999985               0.000133019               0.001100376               0.999999985               0.000259278               0.000933508               0.999999984               0.000180213               0.000867454               0.999999984               0.000156939               0.000844910               0.999999984               0.000153834               0.000847306               0.999999984               0.000157970               0.000864065               0.999999984               0.000164416               0.000889045               0.999999985               0.000170701               0.000918536               0.999999985               0.000175540               0.000950474               0.999999985               0.000178203               0.000983023               0.999999985               0.000177933               0.001014596               0.999999985               0.000174115               0.001044495               0.999999985               0.000166473               0.001072173               0.999999985               0.000155002               0.001097641               0.999999985               0.000140539               0.001121261               0.999999985               0.000123673               0.001143621               0.999999985               0.000105097               0.001165038               0.999999985               0.000085735               0.001185818               0.999999985               0.000220021               0.000992384               0.999999984               0.000145314               0.000945342               0.999999984               0.000120494               0.000926647               0.999999984               0.000115160               0.000927770               0.999999984               0.000117545               0.000941907               0.999999985               0.000122587               0.000964530               0.999999985               0.000128041               0.000992453               0.999999985               0.000132591               0.001023676               0.999999985               0.000135382               0.001056411               0.999999985               0.000135823               0.001089240               0.999999985               0.000132923               0.001121061               0.999999985               0.000126322               0.001151265               0.999999985               0.000115758               0.001179488               0.999999985               0.000101316               0.001205515               0.999999985               0.000083353               0.001229818               0.999999985               0.000062343               0.001252955               0.999999985               0.000038947               0.001275550               0.999999985               0.000178668               0.001041777               0.999999984               0.000113003               0.001014313               0.999999984               0.000088638               0.001002148               0.999999985               0.000081708               0.001004497               0.999999985               0.000082193               0.001017870               0.999999985               0.000085558               0.001039214               0.999999985               0.000089727               0.001066189               0.999999985               0.000093485               0.001097120               0.999999985               0.000096128               0.001130174               0.999999985               0.000096870               0.001164115               0.999999985               0.000094642               0.001198026               0.999999985               0.000089116               0.001230974               0.999999985               0.000079949               0.001262433               0.999999985               0.000066604               0.001291973               0.999999985               0.000048683               0.001319527               0.999999985               0.000026134               0.001345429               0.999999985              -0.000000999               0.001370311               0.999999985               0.000135572               0.001080913               0.999999985               0.000082908               0.001071426               0.999999985               0.000061453               0.001067031               0.999999985               0.000054122               0.001072303               0.999999985               0.000053162               0.001086513               0.999999985               0.000054923               0.001107787               0.999999985               0.000057667               0.001134615               0.999999985               0.000060463               0.001165574               0.999999985               0.000062559               0.001199211               0.999999985               0.000063167               0.001234456               0.999999985               0.000061554               0.001270254               0.999999985               0.000057295               0.001305878               0.999999985               0.000049904               0.001340681               0.999999985               0.000038681               0.001374128               0.999999985               0.000022814               0.001405923               0.999999985               0.000001315               0.001435856               0.999999985              -0.000026470               0.001464206               0.999999985               0.000091123               0.001109257               0.999999985               0.000054438               0.001114144               0.999999985               0.000038397               0.001117089               0.999999985               0.000032192               0.001125872               0.999999985               0.000030671               0.001141655               0.999999985               0.000031286               0.001163588               0.999999985               0.000032827               0.001190764               0.999999985               0.000034631               0.001222157               0.999999985               0.000035977               0.001256485               0.999999985               0.000036388               0.001292875               0.999999985               0.000035324               0.001330420               0.999999985               0.000032416               0.001368400               0.999999985               0.000027181               0.001406258               0.999999985               0.000019025               0.001443369               0.999999985               0.000007019               0.001479318               0.999999985              -0.000010032               0.001513596               0.999999985              -0.000033274               0.001545903               0.999999985               0.000045771               0.001126412               0.999999985               0.000026992               0.001140546               0.999999985               0.000018412               0.001148710               0.999999985               0.000014838               0.001160315               0.999999985               0.000013722               0.001177544               0.999999985               0.000013839               0.001200238               0.999999985               0.000014517               0.001227873               0.999999985               0.000015363               0.001259710               0.999999985               0.000015966               0.001294654               0.999999985               0.000016137               0.001331857               0.999999985               0.000015630               0.001370567               0.999999985               0.000014114               0.001410247               0.999999985               0.000011395               0.001450301               0.999999985               0.000007108               0.001490140               0.999999985               0.000000520               0.001529234               0.999999985              -0.000008868               0.001566894               0.999999985              -0.000022143               0.001602451               0.999999985               0.000000000               0.001132110               0.999999985               0.000000000               0.001149470               0.999999985               0.000000000               0.001159628               0.999999985               0.000000000               0.001172320               0.999999985              -0.000000000               0.001190034               0.999999985              -0.000000000               0.001212979               0.999999985               0.000000000               0.001240841               0.999999985              -0.000000000               0.001272955               0.999999985               0.000000000               0.001308164               0.999999985              -0.000000000               0.001345642               0.999999985              -0.000000000               0.001384745               0.999999985               0.000000000               0.001425008               0.999999985               0.000000000               0.001465842               0.999999985              -0.000000000               0.001506677               0.999999985              -0.000000000               0.001546875               0.999999985              -0.000000000               0.001585757               0.999999985               0.000000000               0.001622602               0.999999985 </DataArray>
<DataArray type="Float64"                                    Name="defo"                                                      NumberOfComponents=" 3" format="ascii">
             -0.000486848               0.000000000               0.999999984              -0.000530271               0.000000000               0.999999984              -0.000550115               0.000000000               0.999999984              -0.000561730               0.000000000               0.999999984              -0.000570996               0.000000000               0.999999984              -0.000580264              -0.000000000               0.999999984              -0.000590265               0.000000000               0.999999984              -0.000601345              -0.000000000               0.999999984              -0.000613522               0.000000000               0.999999984              -0.000626573               0.000000000               0.999999984              -0.000640447               0.000000000               0.999999984              -0.000654896               0.000000000               0.999999984              -0.000669766               0.000000000               0.999999984              -0.000684832              -0.000000000               0.999999984              -0.000699656              -0.000000000               0.999999984              -0.000713902               0.000000000               0.999999984              -0.000727153               0.000000000               0.999999985              -0.000484123               0.000110724               0.999999984              -0.000524635               0.000091986               0.999999984              -0.000542628               0.000084574               0.999999984              -0.000553149               0.000082769               0.999999984              -0.000561724               0.000084123               0.999999984              -0.000570473               0.000087047               0.999999984              -0.000580145               0.000090899               0.999999984              -0.000590873               0.000095170               0.999999984              -0.000602622               0.000099442               0.999999984              -0.000615202               0.000103534               0.999999984              -0.000628384               0.000107082               0.999999984              -0.000641965               0.000110010               0.999999984              -0.000655861               0.000112143               0.999999984              -0.000669798               0.000112960               0.999999984              -0.000683428               0.000111997               0.999999984              -0.000696433               0.000108892               0.999999985              -0.000708473               0.000102774               0.999999985              -0.000475825               0.000220315               0.999999984              -0.000507833               0.000183325               0.999999984              -0.000520761               0.000169351               0.999999984              -0.000528329               0.000166580               0.999999984              -0.000535195               0.000169798               0.999999984              -0.000542785               0.000176113               0.999999984              -0.000551547               0.000184011               0.999999984              -0.000561424               0.000192597               0.999999984              -0.000572153               0.000201232               0.999999984              -0.000583341               0.000209286               0.999999984              -0.000594809               0.000216290               0.999999984              -0.000606356               0.000222100               0.999999984              -0.000617777               0.000226513               0.999999984              -0.000628882               0.000228773               0.999999984              -0.000639445               0.000228007               0.999999985              -0.000649302               0.000223679               0.999999985              -0.000658293               0.000214821               0.999999985              -0.000462228               0.000327557               0.999999984              -0.000480818               0.000273478               0.999999984              -0.000486438               0.000254577               0.999999984              -0.000490127               0.000252169               0.999999984              -0.000494883               0.000258103               0.999999984              -0.000501214               0.000268298               0.999999984              -0.000508994               0.000280578               0.999999984              -0.000517730               0.000293601               0.999999984              -0.000526953               0.000306377               0.999999984              -0.000536290               0.000318342               0.999999984              -0.000545534               0.000328941               0.999999984              -0.000554447               0.000337907               0.999999984              -0.000562722               0.000344751               0.999999984              -0.000570094               0.000348871               0.999999985              -0.000576508               0.000349719               0.999999985              -0.000582130               0.000347006               0.999999985              -0.000587277               0.000340162               0.999999985              -0.000443668               0.000431338               0.999999984              -0.000445086               0.000362020               0.999999984              -0.000442608               0.000340243               0.999999984              -0.000442688               0.000339624               0.999999984              -0.000445829               0.000349152               0.999999984              -0.000451350               0.000363636               0.999999984              -0.000458339               0.000380334               0.999999984              -0.000465958               0.000397740               0.999999984              -0.000473632               0.000414610               0.999999984              -0.000481055               0.000430359               0.999999984              -0.000487739               0.000444409               0.999999984              -0.000493418               0.000456440               0.999999985              -0.000497961               0.000466057               0.999999985              -0.000501407               0.000472968               0.999999985              -0.000503920               0.000477255               0.999999985              -0.000505920               0.000478944               0.999999985              -0.000507805               0.000478153               0.999999985              -0.000420441               0.000530663               0.999999984              -0.000402603               0.000448771               0.999999984              -0.000392880               0.000426099               0.999999984              -0.000390495               0.000428406               0.999999984              -0.000392976               0.000442070               0.999999984              -0.000398253               0.000461035               0.999999984              -0.000404790               0.000482164               0.999999984              -0.000411568               0.000503635               0.999999984              -0.000417866               0.000524400               0.999999984              -0.000423202               0.000543710               0.999999984              -0.000427245               0.000560988               0.999999985              -0.000429945               0.000576064               0.999999985              -0.000431288               0.000588958               0.999999985              -0.000431496               0.000599547               0.999999985              -0.000430850               0.000608246               0.999999985              -0.000429623               0.000615444               0.999999985              -0.000427913               0.000620988               0.999999985              -0.000393239               0.000624490               0.999999984              -0.000355865               0.000533520               0.999999984              -0.000340714               0.000511685               0.999999984              -0.000337548               0.000517494               0.999999984              -0.000340504               0.000535432               0.999999984              -0.000346104               0.000558675               0.999999984              -0.000352478               0.000584093               0.999999984              -0.000358522               0.000609604               0.999999984              -0.000363458               0.000634093               0.999999984              -0.000366850               0.000656670               0.999999985              -0.000368455               0.000677094               0.999999985              -0.000368128               0.000695377               0.999999985              -0.000366182               0.000711566               0.999999985              -0.000362844               0.000725963               0.999999985              -0.000358417               0.000739102               0.999999985              -0.000352935               0.000750872               0.999999985              -0.000346233               0.000760648               0.999999985              -0.000362638               0.000711907               0.999999984              -0.000307117               0.000616089               0.999999984              -0.000289118               0.000596172               0.999999984              -0.000287070               0.000605487               0.999999984              -0.000291337               0.000627400               0.999999984              -0.000297726               0.000654801               0.999999984              -0.000304248               0.000684337               0.999999984              -0.000309539               0.000713678               0.999999985              -0.000312947               0.000741700               0.999999985              -0.000313891               0.000767720               0.999999985              -0.000312171               0.000791209               0.999999985              -0.000308137               0.000812283               0.999999985              -0.000302062               0.000831461               0.999999985              -0.000294282               0.000849101               0.999999985              -0.000284935               0.000865562               0.999999985              -0.000273878               0.000880498               0.999999985              -0.000261275               0.000893175               0.999999985              -0.000329730               0.000791392               0.999999984              -0.000258039               0.000696391               0.999999984              -0.000240775               0.000678488               0.999999984              -0.000241110               0.000690868               0.999999984              -0.000247268               0.000716466               0.999999984              -0.000254761               0.000747881               0.999999984              -0.000261289               0.000781271               0.999999985              -0.000265510               0.000814393               0.999999985              -0.000266549               0.000845953               0.999999985              -0.000264057               0.000874682               0.999999985              -0.000258125               0.000900525               0.999999985              -0.000249189               0.000923987               0.999999985              -0.000237818               0.000945700               0.999999985              -0.000224477               0.000966057               0.999999985              -0.000209431               0.000984888               0.999999985              -0.000193166               0.001002000               0.999999985              -0.000175970               0.001017441               0.999999985              -0.000296139               0.000866010               0.999999984              -0.000217769               0.000783662               0.999999984              -0.000197417               0.000760958               0.999999984              -0.000196392               0.000767393               0.999999984              -0.000201807               0.000788166               0.999999984              -0.000209030               0.000816236               0.999999984              -0.000215647               0.000847673               0.999999985              -0.000220408               0.000880363               0.999999985              -0.000222513               0.000912480               0.999999985              -0.000221154               0.000942872               0.999999985              -0.000216184               0.000970830               0.999999985              -0.000207694               0.000996216               0.999999985              -0.000196141               0.001019625               0.999999985              -0.000182246               0.001041585               0.999999985              -0.000166532               0.001062462               0.999999985              -0.000149947               0.001082076               0.999999985              -0.000133019               0.001100376               0.999999985              -0.000259278               0.000933508               0.999999984              -0.000180213               0.000867454               0.999999984              -0.000156939               0.000844910               0.999999984              -0.000153834               0.000847306               0.999999984              -0.000157970               0.000864065               0.999999984              -0.000164416               0.000889045               0.999999985              -0.000170701               0.000918536               0.999999985              -0.000175540               0.000950474               0.999999985              -0.000178203               0.000983023               0.999999985              -0.000177933               0.001014596               0.999999985              -0.000174115               0.001044495               0.999999985              -0.000166473               0.001072173               0.999999985              -0.000155002               0.001097641               0.999999985              -0.000140539               0.001121261               0.999999985              -0.000123673               0.001143621               0.999999985              -0.000105097               0.001165038               0.999999985              -0.000085735               0.001185818               0.999999985              -0.000220021               0.000992384               0.999999984              -0.000145314               0.000945342               0.999999984              -0.000120494               0.000926647               0.999999984              -0.000115160               0.000927770               0.999999984              -0.000117545               0.000941907               0.999999985              -0.000122587               0.000964530               0.999999985              -0.000128041               0.000992453               0.999999985              -0.000132591               0.001023676               0.999999985              -0.000135382               0.001056411               0.999999985              -0.000135823               0.001089240               0.999999985              -0.000132923               0.001121061               0.999999985              -0.000126322               0.001151265               0.999999985              -0.000115758               0.001179488               0.999999985              -0.000101316               0.001205515               0.999999985              -0.000083353               0.001229818               0.999999985              -0.000062343               0.001252955               0.999999985              -0.000038947               0.001275550               0.999999985              -0.000178668               0.001041777               0.999999984              -0.000113003               0.001014313               0.999999984              -0.000088638               0.001002148               0.999999985              -0.000081708               0.001004497               0.999999985              -0.000082193               0.001017870               0.999999985              -0.000085558               0.001039214               0.999999985              -0.000089727               0.001066189               0.999999985              -0.000093485               0.001097120               0.999999985              -0.000096128               0.001130174               0.999999985              -0.000096870               0.001164115               0.999999985              -0.000094642               0.001198026               0.999999985              -0.000089116               0.001230974               0.999999985              -0.000079949               0.001262433               0.999999985              -0.000066604               0.001291973               0.999999985              -0.000048683               0.001319527               0.999999985              -0.000026134               0.001345429               0.999999985               0.000000999               0.001370311               0.999999985              -0.000135572               0.001080913               0.999999985              -0.000082908               0.001071426               0.999999985              -0.000061453               0.001067031               0.999999985              -0.000054122               0.001072303               0.999999985              -0.000053162               0.001086513               0.999999985              -0.000054923               0.001107787               0.999999985              -0.000057667               0.001134615               0.999999985              -0.000060463               0.001165574               0.999999985              -0.000062559               0.001199211               0.999999985              -0.000063167               0.001234456               0.999999985              -0.000061554               0.001270254               0.999999985              -0.000057295               0.001305878               0.999999985              -0.000049904               0.001340681               0.999999985              -0.000038681               0.001374128               0.999999985              -0.000022814               0.001405923               0.999999985              -0.000001315               0.001435856               0.999999985               0.000026470               0.001464206               0.999999985              -0.000091123               0.001109257               0.999999985              -0.000054438               0.001114144               0.999999985              -0.000038397               0.001117089               0.999999985              -0.000032192               0.001125872               0.999999985              -0.000030671               0.001141655               0.999999985              -0.000031286               0.001163588               0.999999985              -0.000032827               0.001190764               0.999999985              -0.000034631               0.001222157               0.999999985              -0.000035977               0.001256485               0.999999985              -0.000036388               0.001292875               0.999999985              -0.000035324               0.001330420               0.999999985              -0.000032416               0.001368400               0.999999985              -0.000027181               0.001406258               0.999999985              -0.000019025               0.001443369               0.999999985              -0.000007019               0.001479318               0.999999985               0.000010032               0.001513596               0.999999985               0.000033274               0.001545903               0.999999985              -0.000045771               0.001126412               0.999999985              -0.000026992               0.001140546               0.999999985              -0.000018412               0.001148710               0.999999985              -0.000014838               0.001160315               0.999999985              -0.000013722               0.001177544               0.999999985              -0.000013839               0.001200238               0.999999985              -0.000014517               0.001227873               0.999999985              -0.000015363               0.001259710               0.999999985              -0.000015966               0.001294654               0.999999985              -0.000016137               0.001331857               0.999999985              -0.000015630               0.001370567               0.999999985              -0.000014114               0.001410247               0.999999985              -0.000011395               0.001450301               0.999999985              -0.000007108               0.001490140               0.999999985              -0.000000520               0.001529234               0.999999985               0.000008868               0.001566894               0.999999985               0.000022143               0.001602451               0.999999985               0.000000000               0.001132110               0.999999985               0.000000000               0.001149470               0.999999985               0.000000000               0.001159628               0.999999985               0.000000000               0.001172320               0.999999985              -0.000000000               0.001190034               0.999999985              -0.000000000               0.001212979               0.999999985               0.000000000               0.001240841               0.999999985              -0.000000000               0.001272955               0.999999985               0.000000000               0.001308164               0.999999985              -0.000000000               0.001345642               0.999999985              -0.000000000               0.001384745               0.999999985               0.000000000               0.001425008               0.999999985               0.000000000               0.001465842               0.999999985              -0.000000000               0.001506677               0.999999985              -0.000000000               0.001546875               0.999999985              -0.000000000               0.001585757               0.999999985               0.000000000               0.001622602               0.999999985              -0.000486848               0.000000000               0.999999984              -0.000530271               0.000000000               0.999999984              -0.000550115               0.000000000               0.999999984              -0.000561730               0.000000000               0.999999984              -0.000570996               0.000000000               0.999999984              -0.000580264              -0.000000000               0.999999984              -0.000590265               0.000000000               0.999999984              -0.000601345              -0.000000000               0.999999984              -0.000613522               0.000000000               0.999999984              -0.000626573               0.000000000               0.999999984              -0.000640447               0.000000000               0.999999984              -0.000654896               0.000000000               0.999999984              -0.000669766               0.000000000               0.999999984              -0.000684832              -0.000000000               0.999999984              -0.000699656              -0.000000000               0.999999984              -0.000713902               0.000000000               0.999999984              -0.000727153               0.000000000               0.999999985              -0.000484123              -0.000110724               0.999999984              -0.000524635              -0.000091986               0.999999984              -0.000542628              -0.000084574               0.999999984              -0.000553149              -0.000082769               0.999999984              -0.000561724              -0.000084123               0.999999984              -0.000570473              -0.000087047               0.999999984              -0.000580145              -0.000090899               0.999999984              -0.000590873              -0.000095170               0.999999984              -0.000602622              -0.000099442               0.999999984              -0.000615202              -0.000103534               0.999999984              -0.000628384              -0.000107082               0.999999984              -0.000641965              -0.000110010               0.999999984              -0.000655861              -0.000112143               0.999999984              -0.000669798              -0.000112960               0.999999984              -0.000683428              -0.000111997               0.999999984              -0.000696433              -0.000108892               0.999999985              -0.000708473              -0.000102774               0.999999985              -0.000475825              -0.000220315               0.999999984              -0.000507833              -0.000183325               0.999999984              -0.000520761              -0.000169351               0.999999984              -0.000528329              -0.000166580               0.999999984              -0.000535195              -0.000169798               0.999999984              -0.000542785              -0.000176113               0.999999984              -0.000551547              -0.000184011               0.999999984              -0.000561424              -0.000192597               0.999999984              -0.000572153              -0.000201232               0.999999984              -0.000583341              -0.000209286               0.999999984              -0.000594809              -0.000216290               0.999999984              -0.000606356              -0.000222100               0.999999984              -0.000617777              -0.000226513               0.999999984              -0.000628882              -0.000228773               0.999999984              -0.000639445              -0.000228007               0.999999985              -0.000649302              -0.000223679               0.999999985              -0.000658293              -0.000214821               0.999999985              -0.000462228              -0.000327557               0.999999984              -0.000480818              -0.000273478               0.999999984              -0.000486438              -0.000254577               0.999999984              -0.000490127              -0.000252169               0.999999984              -0.000494883              -0.000258103               0.999999984              -0.000501214              -0.000268298               0.999999984              -0.000508994              -0.000280578               0.999999984              -0.000517730              -0.000293601               0.999999984              -0.000526953              -0.000306377               0.999999984              -0.000536290              -0.000318342               0.999999984              -0.000545534              -0.000328941               0.999999984              -0.000554447              -0.000337907               0.999999984              -0.000562722              -0.000344751               0.999999984              -0.000570094              -0.000348871               0.999999985              -0.000576508              -0.000349719               0.999999985              -0.000582130              -0.000347006               0.999999985              -0.000587277              -0.000340162               0.999999985              -0.000443668              -0.000431338               0.999999984              -0.000445086              -0.000362020               0.999999984              -0.000442608              -0.000340243               0.999999984              -0.000442688              -0.000339624               0.999999984              -0.000445829              -0.000349152               0.999999984              -0.000451350              -0.000363636               0.999999984              -0.000458339              -0.000380334               0.999999984              -0.000465958              -0.000397740               0.999999984              -0.000473632              -0.000414610               0.999999984              -0.000481055              -0.000430359               0.999999984              -0.000487739              -0.000444409               0.999999984              -0.000493418              -0.000456440               0.999999985              -0.000497961              -0.000466057               0.999999985              -0.000501407              -0.000472968               0.999999985              -0.000503920              -0.000477255               0.999999985              -0.000505920              -0.000478944               0.999999985              -0.000507805              -0.000478153               0.999999985              -0.000420441              -0.000530663               0.999999984              -0.000402603              -0.000448771               0.999999984              -0.000392880              -0.000426099               0.999999984              -0.000390495              -0.000428406               0.999999984              -0.000392976              -0.000442070               0.999999984              -0.000398253              -0.000461035               0.999999984              -0.000404790              -0.000482164               0.999999984              -0.000411568              -0.000503635               0.999999984              -0.000417866              -0.000524400               0.999999984              -0.000423202              -0.000543710               0.999999984              -0.000427245              -0.000560988               0.999999985              -0.000429945              -0.000576064               0.999999985              -0.000431288              -0.000588958               0.999999985              -0.000431496              -0.000599547               0.999999985              -0.000430850              -0.000608246               0.999999985              -0.000429623              -0.000615444               0.999999985              -0.000427913              -0.000620988               0.999999985              -0.000393239              -0.000624490               0.999999984              -0.000355865              -0.000533520               0.999999984              -0.000340714              -0.000511685               0.999999984              -0.000337548              -0.000517494               0.999999984              -0.000340504              -0.000535432               0.999999984              -0.000346104              -0.000558675               0.999999984              -0.000352478              -0.000584093               0.999999984              -0.000358522              -0.000609604               0.999999984              -0.000363458              -0.000634093               0.999999984              -0.000366850              -0.000656670               0.999999985              -0.000368455              -0.000677094               0.999999985              -0.000368128              -0.000695377               0.999999985              -0.000366182              -0.000711566               0.999999985              -0.000362844              -0.000725963               0.999999985              -0.000358417              -0.000739102               0.999999985              -0.000352935              -0.000750872               0.999999985              -0.000346233              -0.000760648               0.999999985              -0.000362638              -0.000711907               0.999999984              -0.000307117              -0.000616089               0.999999984              -0.000289118              -0.000596172               0.999999984              -0.000287070              -0.000605487               0.999999984              -0.000291337              -0.000627400               0.999999984              -0.000297726              -0.000654801               0.999999984              -0.000304248              -0.000684337               0.999999984              -0.000309539              -0.000713678               0.999999985              -0.000312947              -0.000741700               0.999999985              -0.000313891              -0.000767720               0.999999985              -0.000312171              -0.000791209               0.999999985              -0.000308137              -0.000812283               0.999999985              -0.000302062              -0.000831461               0.999999985              -0.000294282              -0.000849101               0.999999985              -0.000284935              -0.000865562               0.999999985              -0.000273878              -0.000880498               0.999999985              -0.000261275              -0.000893175               0.999999985              -0.000329730              -0.000791392               0.999999984              -0.000258039              -0.000696391               0.999999984              -0.000240775              -0.000678488               0.999999984              -0.000241110              -0.000690868               0.999999984              -0.000247268              -0.000716466               0.999999984              -0.000254761              -0.000747881               0.999999984              -0.000261289              -0.000781271               0.999999985              -0.000265510              -0.000814393               0.999999985              -0.000266549              -0.000845953               0.999999985              -0.000264057              -0.000874682               0.999999985              -0.000258125              -0.000900525               0.999999985              -0.000249189              -0.000923987               0.999999985              -0.000237818              -0.000945700               0.999999985              -0.000224477              -0.000966057               0.999999985              -0.000209431              -0.000984888               0.999999985              -0.000193166              -0.001002000               0.999999985              -0.000175970              -0.001017441               0.999999985              -0.000296139              -0.000866010               0.999999984              -0.000217769              -0.000783662               0.999999984              -0.000197417              -0.000760958               0.999999984              -0.000196392              -0.000767393               0.999999984              -0.000201807              -0.000788166               0.999999984              -0.000209030              -0.000816236               0.999999984              -0.000215647              -0.000847673               0.999999985              -0.000220408              -0.000880363               0.999999985              -0.000222513              -0.000912480               0.999999985              -0.000221154              -0.000942872               0.999999985              -0.000216184              -0.000970830               0.999999985              -0.000207694              -0.000996216               0.999999985              -0.000196141              -0.001019625               0.999999985              -0.000182246              -0.001041585               0.999999985              -0.000166532              -0.001062462               0.999999985              -0.000149947              -0.001082076               0.999999985              -0.000133019              -0.001100376               0.999999985              -0.000259278              -0.000933508               0.999999984              -0.000180213              -0.000867454               0.999999984              -0.000156939              -0.000844910               0.999999984              -0.000153834              -0.000847306               0.999999984              -0.000157970              -0.000864065               0.999999984              -0.000164416              -0.000889045               0.999999985              -0.000170701              -0.000918536               0.999999985              -0.000175540              -0.000950474               0.999999985              -0.000178203              -0.000983023               0.999999985              -0.000177933              -0.001014596               0.999999985              -0.000174115              -0.001044495               0.999999985              -0.000166473              -0.001072173               0.999999985              -0.000155002              -0.001097641               0.999999985              -0.000140539              -0.001121261               0.999999985              -0.000123673              -0.001143621               0.999999985              -0.000105097              -0.001165038               0.999999985              -0.000085735              -0.001185818               0.999999985              -0.000220021              -0.000992384               0.999999984              -0.000145314              -0.000945342               0.999999984              -0.000120494              -0.000926647               0.999999984              -0.000115160              -0.000927770               0.999999984              -0.000117545              -0.000941907               0.999999985              -0.000122587              -0.000964530               0.999999985              -0.000128041              -0.000992453               0.999999985              -0.000132591              -0.001023676               0.999999985              -0.000135382              -0.001056411               0.999999985              -0.000135823              -0.001089240               0.999999985              -0.000132923              -0.001121061               0.999999985              -0.000126322              -0.001151265               0.999999985              -0.000115758              -0.001179488               0.999999985              -0.000101316              -0.001205515               0.999999985              -0.000083353              -0.001229818               0.999999985              -0.000062343              -0.001252955               0.999999985              -0.000038947              -0.001275550               0.999999985              -0.000178668              -0.001041777               0.999999984              -0.000113003              -0.001014313               0.999999984              -0.000088638              -0.001002148               0.999999985              -0.000081708              -0.001004497               0.999999985              -0.000082193              -0.001017870               0.999999985              -0.000085558              -0.001039214               0.999999985              -0.000089727              -0.001066189               0.999999985              -0.000093485              -0.001097120               0.999999985              -0.000096128              -0.001130174               0.999999985              -0.000096870              -0.001164115               0.999999985              -0.000094642              -0.001198026               0.999999985              -0.000089116              -0.001230974               0.999999985              -0.000079949              -0.001262433               0.999999985              -0.000066604              -0.001291973               0.999999985              -0.000048683              -0.001319527               0.999999985              -0.000026134              -0.001345429               0.999999985               0.000000999              -0.001370311               0.999999985              -0.000135572              -0.001080913               0.999999985              -0.000082908              -0.001071426               0.999999985              -0.000061453              -0.001067031               0.999999985              -0.000054122              -0.001072303               0.999999985              -0.000053162              -0.001086513               0.999999985              -0.000054923              -0.001107787               0.999999985              -0.000057667              -0.001134615               0.999999985              -0.000060463              -0.001165574               0.999999985              -0.000062559              -0.001199211               0.999999985              -0.000063167              -0.001234456               0.999999985              -0.000061554              -0.001270254               0.999999985              -0.000057295              -0.001305878               0.999999985              -0.000049904              -0.001340681               0.999999985              -0.000038681              -0.001374128               0.999999985              -0.000022814              -0.001405923               0.999999985              -0.000001315              -0.001435856               0.999999985               0.000026470              -0.001464206               0.999999985              -0.000091123              -0.001109257               0.999999985              -0.000054438              -0.001114144               0.999999985              -0.000038397              -0.001117089               0.999999985              -0.000032192              -0.001125872               0.999999985              -0.000030671              -0.001141655               0.999999985              -0.000031286              -0.001163588               0.999999985              -0.000032827              -0.001190764               0.999999985              -0.000034631              -0.001222157               0.999999985              -0.000035977              -0.001256485               0.999999985              -0.000036388              -0.001292875               0.999999985              -0.000035324              -0.001330420               0.999999985              -0.000032416              -0.001368400               0.999999985              -0.000027181              -0.001406258               0.999999985              -0.000019025              -0.001443369               0.999999985              -0.000007019              -0.001479318               0.999999985               0.000010032              -0.001513596               0.999999985               0.000033274              -0.001545903               0.999999985              -0.000045771              -0.001126412               0.999999985              -0.000026992              -0.001140546               0.999999985              -0.000018412              -0.001148710               0.999999985              -0.000014838              -0.001160315               0.999999985              -0.000013722              -0.001177544               0.999999985              -0.000013839              -0.001200238               0.999999985              -0.000014517              -0.001227873               0.999999985              -0.000015363              -0.001259710               0.999999985              -0.000015966              -0.001294654               0.999999985              -0.000016137              -0.001331857               0.999999985              -0.000015630              -0.001370567               0.999999985              -0.000014114              -0.001410247               0.999999985              -0.000011395              -0.001450301               0.999999985              -0.000007108              -0.001490140               0.999999985              -0.000000520              -0.001529234               0.999999985               0.000008868              -0.001566894               0.999999985               0.000022143              -0.001602451               0.999999985               0.000000000              -0.001132110               0.999999985              -0.000000000              -0.001149470               0.999999985              -0.000000000              -0.001159628               0.999999985               0.000000000              -0.001172320               0.999999985              -0.000000000              -0.001190034               0.999999985               0.000000000              -0.001212979               0.999999985               0.000000000              -0.001240841               0.999999985              -0.000000000              -0.001272955               0.999999985              -0.000000000              -0.001308164               0.999999985              -0.000000000              -0.001345642               0.999999985               0.000000000              -0.001384745               0.999999985               0.000000000              -0.001425008               0.999999985               0.000000000              -0.001465842               0.999999985              -0.000000000              -0.001506677               0.999999985              -0.000000000              -0.001546875               0.999999985               0.000000000              -0.001585757               0.999999985               0.000000000              -0.001622602               0.999999985               0.000486848              -0.000000000               0.999999984               0.000530271               0.000000000               0.999999984               0.000550115               0.000000000               0.999999984               0.000561730               0.000000000               0.999999984               0.000570996              -0.000000000               0.999999984               0.000580264               0.000000000               0.999999984               0.000590265               0.000000000               0.999999984               0.000601345               0.000000000               0.999999984               0.000613522               0.000000000               0.999999984               0.000626573               0.000000000               0.999999984               0.000640447               0.000000000               0.999999984               0.000654896               0.000000000               0.999999984               0.000669766               0.000000000               0.999999984               0.000684832               0.000000000               0.999999984               0.000699656              -0.000000000               0.999999984               0.000713902              -0.000000000               0.999999984               0.000727153              -0.000000000               0.999999985               0.000484123              -0.000110724               0.999999984               0.000524635              -0.000091986               0.999999984               0.000542628              -0.000084574               0.999999984               0.000553149              -0.000082769               0.999999984               0.000561724              -0.000084123               0.999999984               0.000570473              -0.000087047               0.999999984               0.000580145              -0.000090899               0.999999984               0.000590873              -0.000095170               0.999999984               0.000602622              -0.000099442               0.999999984               0.000615202              -0.000103534               0.999999984               0.000628384              -0.000107082               0.999999984               0.000641965              -0.000110010               0.999999984               0.000655861              -0.000112143               0.999999984               0.000669798              -0.000112960               0.999999984               0.000683428              -0.000111997               0.999999984               0.000696433              -0.000108892               0.999999985               0.000708473              -0.000102774               0.999999985               0.000475825              -0.000220315               0.999999984               0.000507833              -0.000183325               0.999999984               0.000520761              -0.000169351               0.999999984               0.000528329              -0.000166580               0.999999984               0.000535195              -0.000169798               0.999999984               0.000542785              -0.000176113               0.999999984               0.000551547              -0.000184011               0.999999984               0.000561424              -0.000192597               0.999999984               0.000572153              -0.000201232               0.999999984               0.000583341              -0.000209286               0.999999984               0.000594809              -0.000216290               0.999999984               0.000606356              -0.000222100               0.999999984               0.000617777              -0.000226513               0.999999984               0.000628882              -0.000228773               0.999999984               0.000639445              -0.000228007               0.999999985               0.000649302              -0.000223679               0.999999985               0.000658293              -0.000214821               0.999999985               0.000462228              -0.000327557               0.999999984               0.000480818              -0.000273478               0.999999984               0.000486438              -0.000254577               0.999999984               0.000490127              -0.000252169               0.999999984               0.000494883              -0.000258103               0.999999984               0.000501214              -0.000268298               0.999999984               0.000508994              -0.000280578               0.999999984               0.000517730              -0.000293601               0.999999984               0.000526953              -0.000306377               0.999999984               0.000536290              -0.000318342               0.999999984               0.000545534              -0.000328941               0.999999984               0.000554447              -0.000337907               0.999999984               0.000562722              -0.000344751               0.999999984               0.000570094              -0.000348871               0.999999985               0.000576508              -0.000349719               0.999999985               0.000582130              -0.000347006               0.999999985               0.000587277              -0.000340162               0.999999985               0.000443668              -0.000431338               0.999999984               0.000445086              -0.000362020               0.999999984               0.000442608              -0.000340243               0.999999984               0.000442688              -0.000339624               0.999999984               0.000445829              -0.000349152               0.999999984               0.000451350              -0.000363636               0.999999984               0.000458339              -0.000380334               0.999999984               0.000465958              -0.000397740               0.999999984               0.000473632              -0.000414610               0.999999984               0.000481055              -0.000430359               0.999999984               0.000487739              -0.000444409               0.999999984               0.000493418              -0.000456440               0.999999985               0.000497961              -0.000466057               0.999999985               0.000501407              -0.000472968               0.999999985               0.000503920              -0.000477255               0.999999985               0.000505920              -0.000478944               0.999999985               0.000507805              -0.000478153               0.999999985               0.000420441              -0.000530663               0.999999984               0.000402603              -0.000448771               0.999999984               0.000392880              -0.000426099               0.999999984               0.000390495              -0.000428406               0.999999984               0.000392976              -0.000442070               0.999999984               0.000398253              -0.000461035               0.999999984               0.000404790              -0.000482164               0.999999984               0.000411568              -0.000503635               0.999999984               0.000417866              -0.000524400               0.999999984               0.000423202              -0.000543710               0.999999984               0.000427245              -0.000560988               0.999999985               0.000429945              -0.000576064               0.999999985               0.000431288              -0.000588958               0.999999985               0.000431496              -0.000599547               0.999999985               0.000430850              -0.000608246               0.999999985               0.000429623              -0.000615444               0.999999985               0.000427913              -0.000620988               0.999999985               0.000393239              -0.000624490               0.999999984               0.000355865              -0.000533520               0.999999984               0.000340714              -0.000511685               0.999999984               0.000337548              -0.000517494               0.999999984               0.000340504              -0.000535432               0.999999984               0.000346104              -0.000558675               0.999999984               0.000352478              -0.000584093               0.999999984               0.000358522              -0.000609604               0.999999984               0.000363458              -0.000634093               0.999999984               0.000366850              -0.000656670               0.999999985               0.000368455              -0.000677094               0.999999985               0.000368128              -0.000695377               0.999999985               0.000366182              -0.000711566               0.999999985               0.000362844              -0.000725963               0.999999985               0.000358417              -0.000739102               0.999999985               0.000352935              -0.000750872               0.999999985               0.000346233              -0.000760648               0.999999985               0.000362638              -0.000711907               0.999999984               0.000307117              -0.000616089               0.999999984               0.000289118              -0.000596172               0.999999984               0.000287070              -0.000605487               0.999999984               0.000291337              -0.000627400               0.999999984               0.000297726              -0.000654801               0.999999984               0.000304248              -0.000684337               0.999999984               0.000309539              -0.000713678               0.999999985               0.000312947              -0.000741700               0.999999985               0.000313891              -0.000767720               0.999999985               0.000312171              -0.000791209               0.999999985               0.000308137              -0.000812283               0.999999985               0.000302062              -0.000831461               0.999999985               0.000294282              -0.000849101               0.999999985               0.000284935              -0.000865562               0.999999985               0.000273878              -0.000880498               0.999999985               0.000261275              -0.000893175               0.999999985               0.000329730              -0.000791392               0.999999984               0.000258039              -0.000696391               0.999999984               0.000240775              -0.000678488               0.999999984               0.000241110              -0.000690868               0.999999984               0.000247268              -0.000716466               0.999999984               0.000254761              -0.000747881               0.999999984               0.000261289              -0.000781271               0.999999985               0.000265510              -0.000814393               0.999999985               0.000266549              -0.000845953               0.999999985               0.000264057              -0.000874682               0.999999985               0.000258125              -0.000900525               0.999999985               0.000249189              -0.000923987               0.999999985               0.000237818              -0.000945700               0.999999985               0.000224477              -0.000966057               0.999999985               0.000209431              -0.000984888               0.999999985               0.000193166              -0.001002000               0.999999985               0.000175970              -0.001017441               0.999999985               0.000296139              -0.000866010               0.999999984               0.000217769              -0.000783662               0.999999984               0.000197417              -0.000760958               0.999999984               0.000196392              -0.000767393               0.999999984               0.000201807              -0.000788166               0.999999984               0.000209030              -0.000816236               0.999999984               0.000215647              -0.000847673               0.999999985               0.000220408              -0.000880363               0.999999985               0.000222513              -0.000912480               0.999999985               0.000221154              -0.000942872               0.999999985               0.000216184              -0.000970830               0.999999985               0.000207694              -0.000996216               0.999999985               0.000196141              -0.001019625               0.999999985               0.000182246              -0.001041585               0.999999985               0.000166532              -0.001062462               0.999999985               0.000149947              -0.001082076               0.999999985               0.000133019              -0.001100376               0.999999985               0.000259278              -0.000933508               0.999999984               0.000180213              -0.000867454               0.999999984               0.000156939              -0.000844910               0.999999984               0.000153834              -0.000847306               0.999999984               0.000157970              -0.000864065               0.999999984               0.000164416              -0.000889045               0.999999985               0.000170701              -0.000918536               0.999999985               0.000175540              -0.000950474               0.999999985               0.000178203              -0.000983023               0.999999985               0.000177933              -0.001014596               0.999999985               0.000174115              -0.001044495               0.999999985               0.000166473              -0.001072173               0.999999985               0.000155002              -0.001097641               0.999999985               0.000140539              -0.001121261               0.999999985               0.000123673              -0.001143621               0.999999985               0.000105097              -0.001165038               0.999999985               0.000085735              -0.001185818               0.999999985               0.000220021              -0.000992384               0.999999984               0.000145314              -0.000945342               0.999999984               0.000120494              -0.000926647               0.999999984               0.000115160              -0.000927770               0.999999984               0.000117545              -0.000941907               0.999999985               0.000122587              -0.000964530               0.999999985               0.000128041              -0.000992453               0.999999985               0.000132591              -0.001023676               0.999999985               0.000135382              -0.001056411               0.999999985               0.000135823              -0.001089240               0.999999985               0.000132923              -0.001121061               0.999999985               0.000126322              -0.001151265               0.999999985               0.000115758              -0.001179488               0.999999985               0.000101316              -0.001205515               0.999999985               0.000083353              -0.001229818               0.999999985               0.000062343              -0.001252955               0.999999985               0.000038947              -0.001275550               0.999999985               0.000178668              -0.001041777               0.999999984               0.000113003              -0.001014313               0.999999984               0.000088638              -0.001002148               0.999999985               0.000081708              -0.001004497               0.999999985               0.000082193              -0.001017870               0.999999985               0.000085558              -0.001039214               0.999999985               0.000089727              -0.001066189               0.999999985               0.000093485              -0.001097120               0.999999985               0.000096128              -0.001130174               0.999999985               0.000096870              -0.001164115               0.999999985               0.000094642              -0.001198026               0.999999985               0.000089116              -0.001230974               0.999999985               0.000079949              -0.001262433               0.999999985               0.000066604              -0.001291973               0.999999985               0.000048683              -0.001319527               0.999999985               0.000026134              -0.001345429               0.999999985              -0.000000999              -0.001370311               0.999999985               0.000135572              -0.001080913               0.999999985               0.000082908              -0.001071426               0.999999985               0.000061453              -0.001067031               0.999999985               0.000054122              -0.001072303               0.999999985               0.000053162              -0.001086513               0.999999985               0.000054923              -0.001107787               0.999999985               0.000057667              -0.001134615               0.999999985               0.000060463              -0.001165574               0.999999985               0.000062559              -0.001199211               0.999999985               0.000063167              -0.001234456               0.999999985               0.000061554              -0.001270254               0.999999985               0.000057295              -0.001305878               0.999999985               0.000049904              -0.001340681               0.999999985               0.000038681              -0.001374128               0.999999985               0.000022814              -0.001405923               0.999999985               0.000001315              -0.001435856               0.999999985              -0.000026470              -0.001464206               0.999999985               0.000091123              -0.001109257               0.999999985               0.000054438              -0.001114144               0.999999985               0.000038397              -0.001117089               0.999999985               0.000032192              -0.001125872               0.999999985               0.000030671              -0.001141655               0.999999985               0.000031286              -0.001163588               0.999999985               0.000032827              -0.001190764               0.999999985               0.000034631              -0.001222157               0.999999985               0.000035977              -0.001256485               0.999999985               0.000036388              -0.001292875               0.999999985               0.000035324              -0.001330420               0.999999985               0.000032416              -0.001368400               0.999999985               0.000027181              -0.001406258               0.999999985               0.000019025              -0.001443369               0.999999985               0.000007019              -0.001479318               0.999999985              -0.000010032              -0.001513596               0.999999985              -0.000033274              -0.001545903               0.999999985               0.000045771              -0.001126412               0.999999985               0.000026992              -0.001140546               0.999999985               0.000018412              -0.001148710               0.999999985               0.000014838              -0.001160315               0.999999985               0.000013722              -0.001177544               0.999999985               0.000013839              -0.001200238               0.999999985               0.000014517              -0.001227873               0.999999985               0.000015363              -0.001259710               0.999999985               0.000015966              -0.001294654               0.999999985               0.000016137              -0.001331857               0.999999985               0.000015630              -0.001370567               0.999999985               0.000014114              -0.001410247               0.999999985               0.000011395              -0.001450301               0.999999985               0.000007108              -0.001490140               0.999999985               0.000000520              -0.001529234               0.999999985              -0.000008868              -0.001566894               0.999999985              -0.000022143              -0.001602451               0.999999985               0.000000000              -0.001132110               0.999999985              -0.000000000              -0.001149470               0.999999985              -0.000000000              -0.001159628               0.999999985               0.000000000              -0.001172320               0.999999985              -0.000000000              -0.001190034               0.999999985               0.000000000              -0.001212979               0.999999985               0.000000000              -0.001240841               0.999999985              -0.000000000              -0.001272955               0.999999985              -0.000000000              -0.001308164               0.999999985              -0.000000000              -0.001345642               0.999999985               0.000000000              -0.001384745               0.999999985               0.000000000              -0.001425008               0.999999985               0.000000000              -0.001465842               0.999999985              -0.000000000              -0.001506677               0.999999985              -0.000000000              -0.001546875               0.999999985               0.000000000              -0.001585757               0.999999985               0.000000000              -0.001622602               0.999999985               0.000486848              -0.000000000               0.999999984               0.000530271               0.000000000               0.999999984               0.000550115               0.000000000               0.999999984               0.000561730               0.000000000               0.999999984               0.000570996              -0.000000000               0.999999984               0.000580264               0.000000000               0.999999984               0.000590265               0.000000000               0.999999984               0.000601345               0.000000000               0.999999984               0.000613522               0.000000000               0.999999984               0.000626573               0.000000000               0.999999984               0.000640447               0.000000000               0.999999984               0.000654896               0.000000000               0.999999984               0.000669766               0.000000000               0.999999984               0.000684832               0.000000000               0.999999984               0.000699656              -0.000000000               0.999999984               0.000713902              -0.000000000               0.999999984               0.000727153              -0.000000000               0.999999985               0.000484123               0.000110724               0.999999984               0.000524635               0.000091986               0.999999984               0.000542628               0.000084574               0.999999984               0.000553149               0.000082769               0.999999984               0.000561724               0.000084123               0.999999984               0.000570473               0.000087047               0.999999984               0.000580145               0.000090899               0.999999984               0.000590873               0.000095170               0.999999984               0.000602622               0.000099442               0.999999984               0.000615202               0.000103534               0.999999984               0.000628384               0.000107082               0.999999984               0.000641965               0.000110010               0.999999984               0.000655861               0.000112143               0.999999984               0.000669798               0.000112960               0.999999984               0.000683428               0.000111997               0.999999984               0.000696433               0.000108892               0.999999985               0.000708473               0.000102774               0.999999985               0.000475825               0.000220315               0.999999984               0.000507833               0.000183325               0.999999984               0.000520761               0.000169351               0.999999984               0.000528329               0.000166580               0.999999984               0.000535195               0.000169798               0.999999984               0.000542785               0.000176113               0.999999984               0.000551547               0.000184011               0.999999984               0.000561424               0.000192597               0.999999984               0.000572153               0.000201232               0.999999984               0.000583341               0.000209286               0.999999984               0.000594809               0.000216290               0.999999984               0.000606356               0.000222100               0.999999984               0.000617777               0.000226513               0.999999984               0.000628882               0.000228773               0.999999984               0.000639445               0.000228007               0.999999985               0.000649302               0.000223679               0.999999985               0.000658293               0.000214821               0.999999985               0.000462228               0.000327557               0.999999984               0.000480818               0.000273478               0.999999984               0.000486438               0.000254577               0.999999984               0.000490127               0.000252169               0.999999984               0.000494883               0.000258103               0.999999984               0.000501214               0.000268298               0.999999984               0.000508994               0.000280578               0.999999984               0.000517730               0.000293601               0.999999984               0.000526953               0.000306377               0.999999984               0.000536290               0.000318342               0.999999984               0.000545534               0.000328941               0.999999984               0.000554447               0.000337907               0.999999984               0.000562722               0.000344751               0.999999984               0.000570094               0.000348871               0.999999985               0.000576508               0.000349719               0.999999985               0.000582130               0.000347006               0.999999985               0.000587277               0.000340162               0.999999985               0.000443668               0.000431338               0.999999984               0.000445086               0.000362020               0.999999984               0.000442608               0.000340243               0.999999984               0.000442688               0.000339624               0.999999984               0.000445829               0.000349152               0.999999984               0.000451350               0.000363636               0.999999984               0.000458339               0.000380334               0.999999984               0.000465958               0.000397740               0.999999984               0.000473632               0.000414610               0.999999984               0.000481055               0.000430359               0.999999984               0.000487739               0.000444409               0.999999984               0.000493418               0.000456440               0.999999985               0.000497961               0.000466057               0.999999985               0.000501407               0.000472968               0.999999985               0.000503920               0.000477255               0.999999985               0.000505920               0.000478944               0.999999985               0.000507805               0.000478153               0.999999985               0.000420441               0.000530663               0.999999984               0.000402603               0.000448771               0.999999984               0.000392880               0.000426099               0.999999984               0.000390495               0.000428406               0.999999984               0.000392976               0.000442070               0.999999984               0.000398253               0.000461035               0.999999984               0.000404790               0.000482164               0.999999984               0.000411568               0.000503635               0.999999984               0.000417866               0.000524400               0.999999984               0.000423202               0.000543710               0.999999984               0.000427245               0.000560988               0.999999985               0.000429945               0.000576064               0.999999985               0.000431288               0.000588958               0.999999985               0.000431496               0.000599547               0.999999985               0.000430850               0.000608246               0.999999985               0.000429623               0.000615444               0.999999985               0.000427913               0.000620988               0.999999985               0.000393239               0.000624490               0.999999984               0.000355865               0.000533520               0.999999984               0.000340714               0.000511685               0.999999984               0.000337548               0.000517494               0.999999984               0.000340504               0.000535432               0.999999984               0.000346104               0.000558675               0.999999984               0.000352478               0.000584093               0.999999984               0.000358522               0.000609604               0.999999984               0.000363458               0.000634093               0.999999984               0.000366850               0.000656670               0.999999985               0.000368455               0.000677094               0.999999985               0.000368128               0.000695377               0.999999985               0.000366182               0.000711566               0.999999985               0.000362844               0.000725963               0.999999985               0.000358417               0.000739102               0.999999985               0.000352935               0.000750872               0.999999985               0.000346233               0.000760648               0.999999985               0.000362638               0.000711907               0.999999984               0.000307117               0.000616089               0.999999984               0.000289118               0.000596172               0.999999984               0.000287070               0.000605487               0.999999984               0.000291337               0.000627400               0.999999984               0.000297726               0.000654801               0.999999984               0.000304248               0.000684337               0.999999984               0.000309539               0.000713678               0.999999985               0.000312947               0.000741700               0.999999985               0.000313891               0.000767720               0.999999985               0.000312171               0.000791209               0.999999985               0.000308137               0.000812283               0.999999985               0.000302062               0.000831461               0.999999985               0.000294282               0.000849101               0.999999985               0.000284935               0.000865562               0.999999985               0.000273878               0.000880498               0.999999985               0.000261275               0.000893175               0.999999985               0.000329730               0.000791392               0.999999984               0.000258039               0.000696391               0.999999984               0.000240775               0.000678488               0.999999984               0.000241110               0.000690868               0.999999984               0.000247268               0.000716466               0.999999984               0.000254761               0.000747881               0.999999984               0.000261289               0.000781271               0.999999985               0.000265510               0.000814393               0.999999985               0.000266549               0.000845953               0.999999985               0.000264057               0.000874682               0.999999985               0.000258125               0.000900525               0.999999985               0.000249189               0.000923987               0.999999985               0.000237818               0.000945700               0.999999985               0.000224477               0.000966057               0.999999985               0.000209431               0.000984888               0.999999985               0.000193166               0.001002000               0.999999985               0.000175970               0.001017441               0.999999985               0.000296139               0.000866010               0.999999984               0.000217769               0.000783662               0.999999984               0.000197417               0.000760958               0.999999984               0.000196392               0.000767393               0.999999984               0.000201807               0.000788166               0.999999984               0.000209030               0.000816236               0.999999984               0.000215647               0.000847673               0.999999985               0.000220408               0.000880363               0.999999985               0.000222513               0.000912480               0.999999985               0.000221154               0.000942872               0.999999985               0.000216184               0.000970830               0.999999985               0.000207694               0.000996216               0.999999985               0.000196141               0.001019625               0.999999985               0.000182246               0.001041585               0.999999985               0.000166532               0.001062462               0.999999985               0.000149947               0.001082076               0.999999985               0.000133019               0.001100376               0.999999985               0.000259278               0.000933508               0.999999984               0.000180213               0.000867454               0.999999984               0.000156939               0.000844910               0.999999984               0.000153834               0.000847306               0.999999984               0.000157970               0.000864065               0.999999984               0.000164416               0.000889045               0.999999985               0.000170701               0.000918536               0.999999985               0.000175540               0.000950474               0.999999985               0.000178203               0.000983023               0.999999985               0.000177933               0.001014596               0.999999985               0.000174115               0.001044495               0.999999985               0.000166473               0.001072173               0.999999985               0.000155002               0.001097641               0.999999985               0.000140539               0.001121261               0.999999985               0.000123673               0.001143621               0.999999985               0.000105097               0.001165038               0.999999985               0.000085735               0.001185818               0.999999985               0.000220021               0.000992384               0.999999984               0.000145314               0.000945342               0.999999984               0.000120494               0.000926647               0.999999984               0.000115160               0.000927770               0.999999984               0.000117545               0.000941907               0.999999985               0.000122587               0.000964530               0.999999985               0.000128041               0.000992453               0.999999985               0.000132591               0.001023676               0.999999985               0.000135382               0.001056411               0.999999985               0.000135823               0.001089240               0.999999985               0.000132923               0.001121061               0.999999985               0.000126322               0.001151265               0.999999985               0.000115758               0.001179488               0.999999985               0.000101316               0.001205515               0.999999985               0.000083353               0.001229818               0.999999985               0.000062343               0.001252955               0.999999985               0.000038947               0.001275550               0.999999985               0.000178668               0.001041777               0.999999984               0.000113003               0.001014313               0.999999984               0.000088638               0.001002148               0.999999985               0.000081708               0.001004497               0.999999985               0.000082193               0.001017870               0.999999985               0.000085558               0.001039214               0.999999985               0.000089727               0.001066189               0.999999985               0.000093485               0.001097120               0.999999985               0.000096128               0.001130174               0.999999985               0.000096870               0.001164115               0.999999985               0.000094642               0.001198026               0.999999985               0.000089116               0.001230974               0.999999985               0.000079949               0.001262433               0.999999985               0.000066604               0.001291973               0.999999985               0.000048683               0.001319527               0.999999985               0.000026134               0.001345429               0.999999985              -0.000000999               0.001370311               0.999999985               0.000135572               0.001080913               0.999999985               0.000082908               0.001071426               0.999999985               0.000061453               0.001067031               0.999999985               0.000054122               0.001072303               0.999999985               0.000053162               0.001086513               0.999999985               0.000054923               0.001107787               0.999999985               0.000057667               0.001134615               0.999999985               0.000060463               0.001165574               0.999999985               0.000062559               0.001199211               0.999999985               0.000063167               0.001234456               0.999999985               0.000061554               0.001270254               0.999999985               0.000057295               0.001305878               0.999999985               0.000049904               0.001340681               0.999999985               0.000038681               0.001374128               0.999999985               0.000022814               0.001405923               0.999999985               0.000001315               0.001435856               0.999999985              -0.000026470               0.001464206               0.999999985               0.000091123               0.001109257               0.999999985               0.000054438               0.001114144               0.999999985               0.000038397               0.001117089               0.999999985               0.000032192               0.001125872               0.999999985               0.000030671               0.001141655               0.999999985               0.000031286               0.001163588               0.999999985               0.000032827               0.001190764               0.999999985               0.000034631               0.001222157               0.999999985               0.000035977               0.001256485               0.999999985               0.000036388               0.001292875               0.999999985               0.000035324               0.001330420               0.999999985               0.000032416               0.001368400               0.999999985               0.000027181               0.001406258               0.999999985               0.000019025               0.001443369               0.999999985               0.000007019               0.001479318               0.999999985              -0.000010032               0.001513596               0.999999985              -0.000033274               0.001545903               0.999999985               0.000045771               0.001126412               0.999999985               0.000026992               0.001140546               0.999999985               0.000018412               0.001148710               0.999999985               0.000014838               0.001160315               0.999999985               0.000013722               0.001177544               0.999999985               0.000013839               0.001200238               0.999999985               0.000014517               0.001227873               0.999999985               0.000015363               0.001259710               0.999999985               0.000015966               0.001294654               0.999999985               0.000016137               0.001331857               0.999999985               0.000015630               0.001370567               0.999999985               0.000014114               0.001410247               0.999999985               0.000011395               0.001450301               0.999999985               0.000007108               0.001490140               0.999999985               0.000000520               0.001529234               0.999999985              -0.000008868               0.001566894               0.999999985              -0.000022143               0.001602451               0.999999985               0.000000000               0.001132110               0.999999985               0.000000000               0.001149470               0.999999985               0.000000000               0.001159628               0.999999985               0.000000000               0.001172320               0.999999985              -0.000000000               0.001190034               0.999999985              -0.000000000               0.001212979               0.999999985               0.000000000               0.001240841               0.999999985              -0.000000000               0.001272955               0.999999985               0.000000000               0.001308164               0.999999985              -0.000000000               0.001345642               0.999999985              -0.000000000               0.001384745               0.999999985               0.000000000               0.001425008               0.999999985               0.000000000               0.001465842               0.999999985              -0.000000000               0.001506677               0.999999985              -0.000000000               0.001546875               0.999999985              -0.000000000               0.001585757               0.999999985               0.000000000               0.001622602               0.999999985 </DataArray>
<DataArray type="Float64"                                    Name="stress"                                                      NumberOfComponents="10" format="ascii">
              0.001826997               0.020343458               0.000000000              -0.001857804               0.007400353               0.005542549               0.000000000               0.000000000               0.000000000               0.000000000               0.001830672               0.016087110               0.000000000              -0.001324383               0.005803778               0.004479394               0.000000000               0.000000000               0.000000000               0.000000000               0.002428447               0.012653132               0.000000000              -0.000670972               0.004441326               0.003770354               0.000000000               0.000000000               0.000000000               0.000000000               0.002360311               0.010732027               0.000000000              -0.000456386               0.003729435               0.003273049               0.000000000               0.000000000               0.000000000               0.000000000               0.002086650               0.009548193              -0.000000000              -0.000411029               0.003319709               0.002908680               0.000000000               0.000000000               0.000000000               0.000000000               0.001771048               0.008747814              -0.000000000              -0.000429333               0.003059020               0.002629687               0.000000000               0.000000000               0.000000000               0.000000000               0.001471626               0.008168553               0.000000000              -0.000469208               0.002879226               0.002410018               0.000000000               0.000000000               0.000000000               0.000000000               0.001198766               0.007716624              -0.000000000              -0.000515039               0.002743862               0.002228823               0.000000000               0.000000000               0.000000000               0.000000000               0.000962674               0.007338770              -0.000000000              -0.000556342               0.002631680               0.002075338               0.000000000               0.000000000               0.000000000               0.000000000               0.000758590               0.007003017              -0.000000000              -0.000590904               0.002531284               0.001940380               0.000000000               0.000000000               0.000000000               0.000000000               0.000579181               0.006683006               0.000000000              -0.000618181               0.002433707               0.001815525               0.000000000               0.000000000               0.000000000               0.000000000               0.000422139               0.006368543              -0.000000000              -0.000637764               0.002335415               0.001697650               0.000000000               0.000000000               0.000000000               0.000000000               0.000284217               0.006047426              -0.000000000              -0.000649345               0.002232237               0.001582892               0.000000000               0.000000000               0.000000000               0.000000000               0.000176048               0.005702750              -0.000000000              -0.000646824               0.002116506               0.001469681               0.000000000               0.000000000               0.000000000               0.000000000               0.000097317               0.005318328              -0.000000000              -0.000628295               0.001982190               0.001353895               0.000000000               0.000000000               0.000000000               0.000000000               0.000042253               0.004879174               0.000000000              -0.000594050               0.001824392               0.001230342               0.000000000               0.000000000               0.000000000               0.000000000              -0.000014284               0.004542206               0.000000000              -0.000573131               0.001705097               0.001131966               0.000000000               0.000000000               0.000000000               0.000000000               0.001899027               0.019937996              -0.001408355              -0.001780110               0.007239302               0.005459192               0.000000000               0.000000000               0.000000000               0.000000000               0.001806411               0.015822446              -0.000736815              -0.001300398               0.005707562               0.004407164               0.000000000               0.000000000               0.000000000               0.000000000               0.002298982               0.012535597              -0.000068490              -0.000704830               0.004413434               0.003708604               0.000000000               0.000000000               0.000000000               0.000000000               0.002189588               0.010694121               0.000215388              -0.000515668               0.003736561               0.003220892               0.000000000               0.000000000               0.000000000               0.000000000               0.001909001               0.009551214               0.000333041              -0.000478025               0.003343048               0.002865023               0.000000000               0.000000000               0.000000000               0.000000000               0.001599002               0.008773578               0.000375726              -0.000497070               0.003090187               0.002593116               0.000000000               0.000000000               0.000000000               0.000000000               0.001309937               0.008202303               0.000384972              -0.000534060               0.002912094               0.002378034               0.000000000               0.000000000               0.000000000               0.000000000               0.001054853               0.007753031               0.000376723              -0.000573558               0.002775504               0.002201946               0.000000000               0.000000000               0.000000000               0.000000000               0.000837550               0.007376672               0.000361349              -0.000608001               0.002661533               0.002053532               0.000000000               0.000000000               0.000000000               0.000000000               0.000653308               0.007038628               0.000341930              -0.000634837               0.002557798               0.001922961               0.000000000               0.000000000               0.000000000               0.000000000               0.000494653               0.006717593               0.000322024              -0.000654203               0.002457243               0.001803040               0.000000000               0.000000000               0.000000000               0.000000000               0.000354524               0.006403907               0.000303770              -0.000667540               0.002357128               0.001689588               0.000000000               0.000000000               0.000000000               0.000000000               0.000233214               0.006089774               0.000277678              -0.000673765               0.002254493               0.001580728               0.000000000               0.000000000               0.000000000               0.000000000               0.000140396               0.005762575               0.000236538              -0.000667672               0.002143396               0.001475725               0.000000000               0.000000000               0.000000000               0.000000000               0.000074200               0.005406792               0.000181931              -0.000648023               0.002018254               0.001370231               0.000000000               0.000000000               0.000000000               0.000000000               0.000030966               0.005012345               0.000105830              -0.000614929               0.001875741               0.001260812               0.000000000               0.000000000               0.000000000               0.000000000              -0.000014891               0.004718477               0.000065772              -0.000595392               0.001771274               0.001175882               0.000000000               0.000000000               0.000000000               0.000000000               0.002079093               0.018770013              -0.002622078              -0.001566589               0.006778805               0.005212215               0.000000000               0.000000000               0.000000000               0.000000000               0.001718560               0.015067568              -0.001372989              -0.001238983               0.005435467               0.004196483               0.000000000               0.000000000               0.000000000               0.000000000               0.001923889               0.012205911              -0.000139616              -0.000804279               0.004336689               0.003532411               0.000000000               0.000000000               0.000000000               0.000000000               0.001709630               0.010582529               0.000366984              -0.000681703               0.003754709               0.003073006               0.000000000               0.000000000               0.000000000               0.000000000               0.001412186               0.009547686               0.000570739              -0.000663889               0.003403827               0.002739937               0.000000000               0.000000000               0.000000000               0.000000000               0.001126830               0.008825835               0.000639861              -0.000680666               0.003168805               0.002488138               0.000000000               0.000000000               0.000000000               0.000000000               0.000876619               0.008279491               0.000650658              -0.000706203               0.002995204               0.002289001               0.000000000               0.000000000               0.000000000               0.000000000               0.000669726               0.007837749               0.000635271              -0.000728570               0.002855413               0.002126844               0.000000000               0.000000000               0.000000000               0.000000000               0.000506381               0.007460257               0.000607089              -0.000742638               0.002734273               0.001991636               0.000000000               0.000000000               0.000000000               0.000000000               0.000375274               0.007120894               0.000570386              -0.000749382               0.002623402               0.001874020               0.000000000               0.000000000               0.000000000               0.000000000               0.000265677               0.006804792               0.000531529              -0.000750968               0.002518564               0.001767596               0.000000000               0.000000000               0.000000000               0.000000000               0.000176483               0.006503087               0.000493973              -0.000746703               0.002416575               0.001669872               0.000000000               0.000000000               0.000000000               0.000000000               0.000105589               0.006206741               0.000446311              -0.000736245               0.002314308               0.001578063               0.000000000               0.000000000               0.000000000               0.000000000               0.000054758               0.005913720               0.000375927              -0.000718679               0.002210780               0.001492101               0.000000000               0.000000000               0.000000000               0.000000000               0.000021742               0.005623270               0.000283667              -0.000694754               0.002105989               0.001411235               0.000000000               0.000000000               0.000000000               0.000000000               0.000004786               0.005337824               0.000161155              -0.000665432               0.002001067               0.001335636               0.000000000               0.000000000               0.000000000               0.000000000              -0.000017047               0.005147762               0.000095930              -0.000649861               0.001932524               0.001282663               0.000000000               0.000000000               0.000000000               0.000000000               0.002280964               0.016989757              -0.003501610              -0.001268357               0.006085981               0.004817624               0.000000000               0.000000000               0.000000000               0.000000000               0.001544021               0.013929894              -0.001845338              -0.001162227               0.005030660               0.003868434               0.000000000               0.000000000               0.000000000               0.000000000               0.001348458               0.011709837              -0.000229498              -0.000958056               0.004222592               0.003264536               0.000000000               0.000000000               0.000000000               0.000000000               0.001014145               0.010394509               0.000400614              -0.000919007               0.003771138               0.002852130               0.000000000               0.000000000               0.000000000               0.000000000               0.000715344               0.009508182               0.000642526              -0.000920267               0.003476118               0.002555851               0.000000000               0.000000000               0.000000000               0.000000000               0.000479085               0.008855005               0.000720563              -0.000927217               0.003260711               0.002333494               0.000000000               0.000000000               0.000000000               0.000000000               0.000301315               0.008339687               0.000730147              -0.000929466               0.003089690               0.002160224               0.000000000               0.000000000               0.000000000               0.000000000               0.000175031               0.007910668               0.000708955              -0.000923195               0.002944595               0.002021400               0.000000000               0.000000000               0.000000000               0.000000000               0.000085799               0.007533867               0.000673700              -0.000909557               0.002814449               0.001904893               0.000000000               0.000000000               0.000000000               0.000000000               0.000023702               0.007196904               0.000629311              -0.000890723               0.002695852               0.001805129               0.000000000               0.000000000               0.000000000               0.000000000              -0.000019870               0.006889371               0.000581930              -0.000868620               0.002585974               0.001717354               0.000000000               0.000000000               0.000000000               0.000000000              -0.000043959               0.006603295               0.000532354              -0.000841894               0.002481708               0.001639813               0.000000000               0.000000000               0.000000000               0.000000000              -0.000047936               0.006334320               0.000470738              -0.000809764               0.002381340               0.001571576               0.000000000               0.000000000               0.000000000               0.000000000              -0.000036445               0.006090763               0.000389869              -0.000775011               0.002288571               0.001513560               0.000000000               0.000000000               0.000000000               0.000000000              -0.000020356               0.005885715               0.000288811              -0.000743346               0.002209667               0.001466321               0.000000000               0.000000000               0.000000000               0.000000000              -0.000008878               0.005727028               0.000160315              -0.000719206               0.002148725               0.001429520               0.000000000               0.000000000               0.000000000               0.000000000              -0.000007835               0.005649116               0.000089128              -0.000709076               0.002119379               0.001410303               0.000000000               0.000000000               0.000000000               0.000000000               0.002388750               0.014815440              -0.003973404              -0.000956150               0.005257146               0.004300997               0.000000000               0.000000000               0.000000000               0.000000000               0.001259271               0.012558045              -0.002132200              -0.001097528               0.004551815               0.003454288               0.000000000               0.000000000               0.000000000               0.000000000               0.000644933               0.011099554              -0.000359574              -0.001145591               0.004081678               0.002936087               0.000000000               0.000000000               0.000000000               0.000000000               0.000225918               0.010122506               0.000293766              -0.001180591               0.003767665               0.002587074               0.000000000               0.000000000               0.000000000               0.000000000              -0.000034935               0.009393975               0.000534146              -0.001187345               0.003527075               0.002339731               0.000000000               0.000000000               0.000000000               0.000000000              -0.000188839               0.008814536               0.000611120              -0.001172629               0.003329026               0.002156397               0.000000000               0.000000000               0.000000000               0.000000000              -0.000269219               0.008331770               0.000623031              -0.001142426               0.003158037               0.002015612               0.000000000               0.000000000               0.000000000               0.000000000              -0.000300152               0.007914635               0.000604115              -0.001101884               0.003005480               0.001903596               0.000000000               0.000000000               0.000000000               0.000000000              -0.000304789               0.007545955               0.000569515              -0.001057538               0.002867806               0.001810268               0.000000000               0.000000000               0.000000000               0.000000000              -0.000288090               0.007215231               0.000527884              -0.001009935               0.002741698               0.001731763               0.000000000               0.000000000               0.000000000               0.000000000              -0.000252307               0.006916792               0.000482646              -0.000959212               0.002625312               0.001666100               0.000000000               0.000000000               0.000000000               0.000000000              -0.000204893               0.006648830               0.000432478              -0.000907936               0.002518900               0.001610964               0.000000000               0.000000000               0.000000000               0.000000000              -0.000149662               0.006417481               0.000369547              -0.000858306               0.002425241               0.001566935               0.000000000               0.000000000               0.000000000               0.000000000              -0.000092802               0.006230005               0.000294619              -0.000813549               0.002347831               0.001534281               0.000000000               0.000000000               0.000000000               0.000000000              -0.000045649               0.006095918               0.000209134              -0.000779106               0.002291654               0.001512548               0.000000000               0.000000000               0.000000000               0.000000000              -0.000017046               0.006018909               0.000109748              -0.000758754               0.002259201               0.001500447               0.000000000               0.000000000               0.000000000               0.000000000              -0.000005700               0.005996940               0.000056161              -0.000751753               0.002249544               0.001497791               0.000000000               0.000000000               0.000000000               0.000000000               0.002304492               0.012466795              -0.004050540              -0.000694167               0.004386945               0.003692778               0.000000000               0.000000000               0.000000000               0.000000000               0.000862728               0.011098130              -0.002259488              -0.001063742               0.004053920               0.002990178               0.000000000               0.000000000               0.000000000               0.000000000              -0.000095426               0.010429412              -0.000546522              -0.001339458               0.003922922               0.002583464               0.000000000               0.000000000               0.000000000               0.000000000              -0.000525532               0.009770757               0.000058994              -0.001418415               0.003729691               0.002311276               0.000000000               0.000000000               0.000000000               0.000000000              -0.000701514               0.009184196               0.000281718              -0.001411089               0.003531731               0.002120642               0.000000000               0.000000000               0.000000000               0.000000000              -0.000750305               0.008671719               0.000362815              -0.001365326               0.003345653               0.001980327               0.000000000               0.000000000               0.000000000               0.000000000              -0.000728712               0.008226298               0.000383430              -0.001301551               0.003175922               0.001874371               0.000000000               0.000000000               0.000000000               0.000000000              -0.000666614               0.007830986               0.000375378              -0.001228850               0.003019920               0.001791069               0.000000000               0.000000000               0.000000000               0.000000000              -0.000582037               0.007478954               0.000352320              -0.001153130               0.002877337               0.001724206               0.000000000               0.000000000               0.000000000               0.000000000              -0.000486054               0.007159905               0.000320757              -0.001077256               0.002745696               0.001668441               0.000000000               0.000000000               0.000000000               0.000000000              -0.000384045               0.006876630               0.000284165              -0.001003593               0.002626718               0.001623125               0.000000000               0.000000000               0.000000000               0.000000000              -0.000285450               0.006631562               0.000245191              -0.000935987               0.002522494               0.001586507               0.000000000               0.000000000               0.000000000               0.000000000              -0.000195531               0.006428337               0.000198654              -0.000876864               0.002435045               0.001558181               0.000000000               0.000000000               0.000000000               0.000000000              -0.000120939               0.006271487               0.000148868              -0.000829286               0.002366903               0.001537617               0.000000000               0.000000000               0.000000000               0.000000000              -0.000063844               0.006161104               0.000101452              -0.000794078               0.002318373               0.001524296               0.000000000               0.000000000               0.000000000               0.000000000              -0.000023886               0.006085513               0.000050272              -0.000769645               0.002285032               0.001515388               0.000000000               0.000000000               0.000000000               0.000000000              -0.000016274               0.006041658               0.000027921              -0.000761308               0.002267635               0.001506327               0.000000000               0.000000000               0.000000000               0.000000000               0.001974942               0.010141394              -0.003797924              -0.000527073               0.003556121               0.003029048               0.000000000               0.000000000               0.000000000               0.000000000               0.000378847               0.009669448              -0.002266155              -0.001066612               0.003578654               0.002512042               0.000000000               0.000000000               0.000000000               0.000000000              -0.000786917               0.009731469              -0.000788990              -0.001511524               0.003747632               0.002236108               0.000000000               0.000000000               0.000000000               0.000000000              -0.001144838               0.009341176              -0.000267124              -0.001596957               0.003646013               0.002049056               0.000000000               0.000000000               0.000000000               0.000000000              -0.001198631               0.008873980              -0.000056568              -0.001558730               0.003477540               0.001918810               0.000000000               0.000000000               0.000000000               0.000000000              -0.001130202               0.008428774               0.000039061              -0.001477419               0.003302036               0.001824618               0.000000000               0.000000000               0.000000000               0.000000000              -0.001008790               0.008028081               0.000079507              -0.001381803               0.003136601               0.001754798               0.000000000               0.000000000               0.000000000               0.000000000              -0.000865050               0.007664529               0.000091234              -0.001282457               0.002982303               0.001699846               0.000000000               0.000000000               0.000000000               0.000000000              -0.000710958               0.007335896               0.000086764              -0.001183593               0.002839805               0.001656212               0.000000000               0.000000000               0.000000000               0.000000000              -0.000558411               0.007039579               0.000073522              -0.001089349               0.002709619               0.001620270               0.000000000               0.000000000               0.000000000               0.000000000              -0.000415992               0.006773760               0.000061105              -0.001002714               0.002592135               0.001589421               0.000000000               0.000000000               0.000000000               0.000000000              -0.000295965               0.006537821               0.000050667              -0.000928212               0.002488656               0.001560444               0.000000000               0.000000000               0.000000000               0.000000000              -0.000203277               0.006336177               0.000040767              -0.000868249               0.002401454               0.001533206               0.000000000               0.000000000               0.000000000               0.000000000              -0.000134548               0.006172686               0.000036616              -0.000822039               0.002331555               0.001509515               0.000000000               0.000000000               0.000000000               0.000000000              -0.000083245               0.006039468               0.000035558              -0.000786149               0.002275185               0.001489037               0.000000000               0.000000000               0.000000000               0.000000000              -0.000040375               0.005920039               0.000023568              -0.000755144               0.002225041               0.001469897               0.000000000               0.000000000               0.000000000               0.000000000              -0.000039686               0.005834156               0.000024338              -0.000744150               0.002192749               0.001448599               0.000000000               0.000000000               0.000000000               0.000000000               0.001411094               0.007984392              -0.003292072              -0.000468891               0.002817733               0.002348842               0.000000000               0.000000000               0.000000000               0.000000000              -0.000171496               0.008353343              -0.002189921              -0.001108478               0.003153912               0.002045434               0.000000000               0.000000000               0.000000000               0.000000000              -0.001367353               0.009015678              -0.001078283              -0.001639713               0.003551767               0.001912054               0.000000000               0.000000000               0.000000000               0.000000000              -0.001577568               0.008840257              -0.000635774              -0.001696616               0.003512261               0.001815646               0.000000000               0.000000000               0.000000000               0.000000000              -0.001492191               0.008483987              -0.000417889              -0.001620066               0.003367989               0.001747923               0.000000000               0.000000000               0.000000000               0.000000000              -0.001313917               0.008113201              -0.000297615              -0.001506865               0.003206662               0.001699797               0.000000000               0.000000000               0.000000000               0.000000000              -0.001106815               0.007759845              -0.000228096              -0.001385033               0.003048267               0.001663234               0.000000000               0.000000000               0.000000000               0.000000000              -0.000895904               0.007432506              -0.000187682              -0.001265024               0.002899152               0.001634128               0.000000000               0.000000000               0.000000000               0.000000000              -0.000695014               0.007129721              -0.000160695              -0.001151842               0.002760497               0.001608655               0.000000000               0.000000000               0.000000000               0.000000000              -0.000512979               0.006842357              -0.000139743              -0.001047659               0.002629983               0.001582324               0.000000000               0.000000000               0.000000000               0.000000000              -0.000369262               0.006569967              -0.000117243              -0.000959717               0.002509873               0.001550156               0.000000000               0.000000000               0.000000000               0.000000000              -0.000267267               0.006322163              -0.000087863              -0.000890493               0.002404198               0.001513704               0.000000000               0.000000000               0.000000000               0.000000000              -0.000197737               0.006107761              -0.000053571              -0.000837619               0.002315107               0.001477487               0.000000000               0.000000000               0.000000000               0.000000000              -0.000149652               0.005922974              -0.000016892              -0.000796489               0.002239801               0.001443312               0.000000000               0.000000000               0.000000000               0.000000000              -0.000106815               0.005755263               0.000014608              -0.000759462               0.002171556               0.001412094               0.000000000               0.000000000               0.000000000               0.000000000              -0.000058890               0.005603661               0.000021442              -0.000722539               0.002108715               0.001386175               0.000000000               0.000000000               0.000000000               0.000000000              -0.000049624               0.005506969               0.000026495              -0.000706978               0.002071298               0.001364319               0.000000000               0.000000000               0.000000000               0.000000000               0.000706089               0.006148053              -0.002635090              -0.000503725               0.002217238               0.001713513               0.000000000               0.000000000               0.000000000               0.000000000              -0.000702879               0.007175764              -0.002081209              -0.001160548               0.002778746               0.001618198               0.000000000               0.000000000               0.000000000               0.000000000              -0.001795509               0.008319377              -0.001416034              -0.001713234               0.003344176               0.001630942               0.000000000               0.000000000               0.000000000               0.000000000              -0.001845121               0.008365054              -0.001024030              -0.001737548               0.003367506               0.001629958               0.000000000               0.000000000               0.000000000               0.000000000              -0.001645379               0.008138384              -0.000782265              -0.001634311               0.003257538               0.001623226               0.000000000               0.000000000               0.000000000               0.000000000              -0.001385228               0.007849501              -0.000626462              -0.001500644               0.003116689               0.001616044               0.000000000               0.000000000               0.000000000               0.000000000              -0.001118982               0.007550575              -0.000517950              -0.001363437               0.002971312               0.001607875               0.000000000               0.000000000               0.000000000               0.000000000              -0.000858054               0.007265791              -0.000440315              -0.001229991               0.002831903               0.001601912               0.000000000               0.000000000               0.000000000               0.000000000              -0.000623436               0.006974477              -0.000378866              -0.001105595               0.002693334               0.001587739               0.000000000               0.000000000               0.000000000               0.000000000              -0.000431774               0.006674267              -0.000323162              -0.000996196               0.002556799               0.001560603               0.000000000               0.000000000               0.000000000               0.000000000              -0.000289829               0.006388130              -0.000264105              -0.000907200               0.002431755               0.001524555               0.000000000               0.000000000               0.000000000               0.000000000              -0.000202523               0.006127991              -0.000196314              -0.000841943               0.002323291               0.001481348               0.000000000               0.000000000               0.000000000               0.000000000              -0.000158799               0.005898719              -0.000124815              -0.000796887               0.002231849               0.001434962               0.000000000               0.000000000               0.000000000               0.000000000              -0.000142260               0.005689844              -0.000058802              -0.000764576               0.002151454               0.001386878               0.000000000               0.000000000               0.000000000               0.000000000              -0.000139455               0.005487937              -0.000010405              -0.000738286               0.002075389               0.001337103               0.000000000               0.000000000               0.000000000               0.000000000              -0.000128125               0.005303428               0.000009951              -0.000710973               0.002004783               0.001293809               0.000000000               0.000000000               0.000000000               0.000000000              -0.000113336               0.005211218               0.000014080              -0.000693901               0.001968356               0.001274454               0.000000000               0.000000000               0.000000000               0.000000000              -0.000153920               0.004431059              -0.001928031              -0.000611602               0.001680872               0.001069269               0.000000000               0.000000000               0.000000000               0.000000000              -0.001135977               0.005821342              -0.001954405              -0.001153657               0.002324980               0.001171323               0.000000000               0.000000000               0.000000000               0.000000000              -0.002014280               0.007313443              -0.001782081              -0.001669532               0.002994300               0.001324768               0.000000000               0.000000000               0.000000000               0.000000000              -0.001981163               0.007673633              -0.001454219              -0.001702137               0.003125231               0.001423094               0.000000000               0.000000000               0.000000000               0.000000000              -0.001729686               0.007663740              -0.001186512              -0.001606596               0.003090086               0.001483490               0.000000000               0.000000000               0.000000000               0.000000000              -0.001440411               0.007523806              -0.000986831              -0.001480626               0.003001452               0.001520826               0.000000000               0.000000000               0.000000000               0.000000000              -0.001155856               0.007340985              -0.000833877              -0.001351066               0.002897326               0.001546260               0.000000000               0.000000000               0.000000000               0.000000000              -0.000889146               0.007136406              -0.000716318              -0.001225478               0.002787271               0.001561793               0.000000000               0.000000000               0.000000000               0.000000000              -0.000650845               0.006890262              -0.000616918              -0.001105347               0.002665180               0.001559833               0.000000000               0.000000000               0.000000000               0.000000000              -0.000451270               0.006614394              -0.000523881              -0.000996023               0.002536784               0.001540760               0.000000000               0.000000000               0.000000000               0.000000000              -0.000303109               0.006326404              -0.000430832              -0.000904464               0.002410268               0.001505804               0.000000000               0.000000000               0.000000000               0.000000000              -0.000210835               0.006050192              -0.000331310              -0.000835335               0.002295155               0.001459820               0.000000000               0.000000000               0.000000000               0.000000000              -0.000171095               0.005801887              -0.000230368              -0.000789394               0.002197074               0.001407680               0.000000000               0.000000000               0.000000000               0.000000000              -0.000168247               0.005579588              -0.000136372              -0.000760539               0.002113357               0.001352818               0.000000000               0.000000000               0.000000000               0.000000000              -0.000190763               0.005370446              -0.000063557              -0.000742840               0.002037744               0.001294904               0.000000000               0.000000000               0.000000000               0.000000000              -0.000226759               0.005172138              -0.000021127              -0.000731550               0.001967879               0.001236329               0.000000000               0.000000000               0.000000000               0.000000000              -0.000240100               0.005078710              -0.000007746              -0.000724874               0.001934511               0.001209637               0.000000000               0.000000000               0.000000000               0.000000000              -0.001285635               0.002871674              -0.001212336              -0.000841071               0.001237572               0.000396501               0.000000000               0.000000000               0.000000000               0.000000000              -0.001630278               0.004467854              -0.001760414              -0.001169834               0.001879214               0.000709380               0.000000000               0.000000000               0.000000000               0.000000000              -0.002148917               0.006159312              -0.002068622              -0.001575755               0.002578334               0.001002579               0.000000000               0.000000000               0.000000000               0.000000000              -0.002044044               0.006818816              -0.001866724              -0.001618865               0.002812537               0.001193672               0.000000000               0.000000000               0.000000000               0.000000000              -0.001770446               0.007053419              -0.001601709              -0.001545591               0.002866313               0.001320722               0.000000000               0.000000000               0.000000000               0.000000000              -0.001475858               0.007095535              -0.001369425              -0.001440385               0.002845283               0.001404897               0.000000000               0.000000000               0.000000000               0.000000000              -0.001187068               0.007055776              -0.001178884              -0.001327119               0.002794275               0.001467155               0.000000000               0.000000000               0.000000000               0.000000000              -0.000919195               0.006960223              -0.001024731              -0.001214723               0.002724959               0.001510235               0.000000000               0.000000000               0.000000000               0.000000000              -0.000684296               0.006792449              -0.000894979              -0.001105665               0.002632682               0.001527017               0.000000000               0.000000000               0.000000000               0.000000000              -0.000476775               0.006574234              -0.000774096              -0.001000567               0.002524912               0.001524344               0.000000000               0.000000000               0.000000000               0.000000000              -0.000309517               0.006325633              -0.000652492              -0.000906771               0.002410780               0.001504009               0.000000000               0.000000000               0.000000000               0.000000000              -0.000189524               0.006064879              -0.000527533              -0.000829179               0.002297999               0.001468820               0.000000000               0.000000000               0.000000000               0.000000000              -0.000123140               0.005808868              -0.000403479              -0.000772284               0.002193698               0.001421414               0.000000000               0.000000000               0.000000000               0.000000000              -0.000110767               0.005571375              -0.000282984              -0.000737957               0.002103092               0.001365135               0.000000000               0.000000000               0.000000000               0.000000000              -0.000147159               0.005356442              -0.000169214              -0.000724738               0.002027042               0.001302304               0.000000000               0.000000000               0.000000000               0.000000000              -0.000229545               0.005165104              -0.000074538              -0.000731716               0.001965589               0.001233874               0.000000000               0.000000000               0.000000000               0.000000000              -0.000297572               0.005066276              -0.000026913              -0.000744872               0.001937032               0.001192160               0.000000000               0.000000000               0.000000000               0.000000000              -0.002611420               0.001580910              -0.000541294              -0.001176894               0.000919262              -0.000257633               0.000000000               0.000000000               0.000000000               0.000000000              -0.002230264               0.003193657              -0.001476378              -0.001235554               0.001476392               0.000240838               0.000000000               0.000000000               0.000000000               0.000000000              -0.002239536               0.004872174              -0.002173014              -0.001448845               0.002106989               0.000658144               0.000000000               0.000000000               0.000000000               0.000000000              -0.002002823               0.005744302              -0.002134442              -0.001469094               0.002404445               0.000935352               0.000000000               0.000000000               0.000000000               0.000000000              -0.001702136               0.006205977              -0.001916968              -0.001414045               0.002539986               0.001125941               0.000000000               0.000000000               0.000000000               0.000000000              -0.001407354               0.006445789              -0.001683727              -0.001333479               0.002593067               0.001259589               0.000000000               0.000000000               0.000000000               0.000000000              -0.001126265               0.006567661              -0.001478645              -0.001243305               0.002603633               0.001360329               0.000000000               0.000000000               0.000000000               0.000000000              -0.000865126               0.006601047              -0.001304754              -0.001149551               0.002583510               0.001433960               0.000000000               0.000000000               0.000000000               0.000000000              -0.000633056               0.006541832              -0.001155307              -0.001055123               0.002532296               0.001477173               0.000000000               0.000000000               0.000000000               0.000000000              -0.000427112               0.006414167              -0.001014144              -0.000961936               0.002458680               0.001496744               0.000000000               0.000000000               0.000000000               0.000000000              -0.000252798               0.006236747              -0.000873062              -0.000874391               0.002370358               0.001495968               0.000000000               0.000000000               0.000000000               0.000000000              -0.000109124               0.006028409              -0.000734216              -0.000794471               0.002274273               0.001479802               0.000000000               0.000000000               0.000000000               0.000000000              -0.000003481               0.005797364              -0.000594941              -0.000725974               0.002174427               0.001448452               0.000000000               0.000000000               0.000000000               0.000000000               0.000046593               0.005563012              -0.000450904              -0.000677903               0.002080286               0.001402384               0.000000000               0.000000000               0.000000000               0.000000000               0.000034024               0.005349237              -0.000299981              -0.000655894               0.002001692               0.001345798               0.000000000               0.000000000               0.000000000               0.000000000              -0.000045046               0.005165799              -0.000148144              -0.000662615               0.001942788               0.001280172               0.000000000               0.000000000               0.000000000               0.000000000              -0.000130583               0.005065287              -0.000063111              -0.000682128               0.001915788               0.001233660               0.000000000               0.000000000               0.000000000               0.000000000              -0.004039020               0.000620170              -0.000002864              -0.001592152               0.000737436              -0.000854716               0.000000000               0.000000000               0.000000000               0.000000000              -0.002899246               0.002065880              -0.001138262              -0.001345450               0.001137102              -0.000208348               0.000000000               0.000000000               0.000000000               0.000000000              -0.002308582               0.003557642              -0.002071130              -0.001310421               0.001622675               0.000312254               0.000000000               0.000000000               0.000000000               0.000000000              -0.001879737               0.004538477              -0.002181611              -0.001272209               0.001936879               0.000664670               0.000000000               0.000000000               0.000000000               0.000000000              -0.001527414               0.005178055              -0.002041580              -0.001220035               0.002132679               0.000912644               0.000000000               0.000000000               0.000000000               0.000000000              -0.001224184               0.005599591              -0.001842411              -0.001159016               0.002252850               0.001093834               0.000000000               0.000000000               0.000000000               0.000000000              -0.000951388               0.005886786              -0.001649428              -0.001092617               0.002326447               0.001233831               0.000000000               0.000000000               0.000000000               0.000000000              -0.000704493               0.006056340              -0.001478600              -0.001021226               0.002359168               0.001337942               0.000000000               0.000000000               0.000000000               0.000000000              -0.000484397               0.006117271              -0.001326566              -0.000946306               0.002354505               0.001408199               0.000000000               0.000000000               0.000000000               0.000000000              -0.000285652               0.006102391              -0.001177232              -0.000869917               0.002324082               0.001454165               0.000000000               0.000000000               0.000000000               0.000000000              -0.000104400               0.006023098              -0.001031043              -0.000792036               0.002271691               0.001479655               0.000000000               0.000000000               0.000000000               0.000000000               0.000059429               0.005893297              -0.000892350              -0.000714375               0.002202537               0.001488163               0.000000000               0.000000000               0.000000000               0.000000000               0.000201724               0.005725248              -0.000749768              -0.000640008               0.002121733               0.001481725               0.000000000               0.000000000               0.000000000               0.000000000               0.000309228               0.005533614              -0.000593254              -0.000575740               0.002036433               0.001460693               0.000000000               0.000000000               0.000000000               0.000000000               0.000365502               0.005340834              -0.000417451              -0.000530540               0.001957107               0.001426567               0.000000000               0.000000000               0.000000000               0.000000000               0.000353052               0.005166150              -0.000219625              -0.000513373               0.001893157               0.001379784               0.000000000               0.000000000               0.000000000               0.000000000               0.000308861               0.005074556              -0.000109265              -0.000518495               0.001864333               0.001345838               0.000000000               0.000000000               0.000000000               0.000000000              -0.005423704              -0.000016918               0.000324009              -0.002031772               0.000671614              -0.001360159               0.000000000               0.000000000               0.000000000               0.000000000              -0.003576534               0.001148103              -0.000793195              -0.001484711               0.000877598              -0.000607113               0.000000000               0.000000000               0.000000000               0.000000000              -0.002370064               0.002343572              -0.001764192              -0.001181719               0.001175088              -0.000006631               0.000000000               0.000000000               0.000000000               0.000000000              -0.001711002               0.003338378              -0.001966936              -0.001058921               0.001465754               0.000406833               0.000000000               0.000000000               0.000000000               0.000000000              -0.001279134               0.004090532              -0.001903696              -0.000990990               0.001693826               0.000702836               0.000000000               0.000000000               0.000000000               0.000000000              -0.000954665               0.004652295              -0.001759104              -0.000939535               0.001863927               0.000924392               0.000000000               0.000000000               0.000000000               0.000000000              -0.000683657               0.005079173              -0.001603594              -0.000891267               0.001990129               0.001098862               0.000000000               0.000000000               0.000000000               0.000000000              -0.000449460               0.005376469              -0.001457089              -0.000840605               0.002072340               0.001231735               0.000000000               0.000000000               0.000000000               0.000000000              -0.000245872               0.005560735              -0.001318821              -0.000787293               0.002115990               0.001328698               0.000000000               0.000000000               0.000000000               0.000000000              -0.000058033               0.005657169              -0.001183356              -0.000728907               0.002128673               0.001399766               0.000000000               0.000000000               0.000000000               0.000000000               0.000125984               0.005680063              -0.001052698              -0.000662763               0.002114256               0.001451493               0.000000000               0.000000000               0.000000000               0.000000000               0.000307875               0.005647728              -0.000927856              -0.000590512               0.002079394               0.001488883               0.000000000               0.000000000               0.000000000               0.000000000               0.000483501               0.005566552              -0.000797642              -0.000514505               0.002027000               0.001512495               0.000000000               0.000000000               0.000000000               0.000000000               0.000651150               0.005449630              -0.000649500              -0.000437021               0.001962199               0.001525177               0.000000000               0.000000000               0.000000000               0.000000000               0.000799607               0.005307397              -0.000470728              -0.000363571               0.001890305               0.001526734               0.000000000               0.000000000               0.000000000               0.000000000               0.000911149               0.005155721              -0.000253301              -0.000302784               0.001819484               0.001516701               0.000000000               0.000000000               0.000000000               0.000000000               0.000970008               0.005085799              -0.000136930              -0.000271971               0.001785906               0.001513935               0.000000000               0.000000000               0.000000000               0.000000000              -0.006591192              -0.000383336               0.000403740              -0.002423778               0.000680143              -0.001743635               0.000000000               0.000000000               0.000000000               0.000000000              -0.004171441               0.000482536              -0.000482302              -0.001624606               0.000702376              -0.000922230               0.000000000               0.000000000               0.000000000               0.000000000              -0.002426200               0.001363914              -0.001280791              -0.001080313               0.000814736              -0.000265577               0.000000000               0.000000000               0.000000000               0.000000000              -0.001538963               0.002307640              -0.001491786              -0.000865565               0.001057726               0.000192162               0.000000000               0.000000000               0.000000000               0.000000000              -0.001016351               0.003110853              -0.001480615              -0.000769987               0.001293602               0.000523615               0.000000000               0.000000000               0.000000000               0.000000000              -0.000659325               0.003763672              -0.001393153              -0.000717705               0.001493779               0.000776075               0.000000000               0.000000000               0.000000000               0.000000000              -0.000383621               0.004294729              -0.001287824              -0.000680698               0.001658461               0.000977763               0.000000000               0.000000000               0.000000000               0.000000000              -0.000161739               0.004695123              -0.001181223              -0.000647542               0.001780872               0.001133331               0.000000000               0.000000000               0.000000000               0.000000000               0.000026732               0.004978917              -0.001076331              -0.000612339               0.001863735               0.001251396               0.000000000               0.000000000               0.000000000               0.000000000               0.000205740               0.005172347              -0.000974295              -0.000569390               0.001913895               0.001344505               0.000000000               0.000000000               0.000000000               0.000000000               0.000388537               0.005290491              -0.000876219              -0.000515609               0.001935349               0.001419740               0.000000000               0.000000000               0.000000000               0.000000000               0.000580414               0.005351820              -0.000781302              -0.000451321               0.001934362               0.001483041               0.000000000               0.000000000               0.000000000               0.000000000               0.000784212               0.005359944              -0.000682258              -0.000375913               0.001911934               0.001536022               0.000000000               0.000000000               0.000000000               0.000000000               0.001004451               0.005323383              -0.000566116              -0.000288753               0.001870694               0.001581941               0.000000000               0.000000000               0.000000000               0.000000000               0.001240994               0.005245286              -0.000418255              -0.000190288               0.001811840               0.001621553               0.000000000               0.000000000               0.000000000               0.000000000               0.001496147               0.005131276              -0.000229146              -0.000080355               0.001737193               0.001656839               0.000000000               0.000000000               0.000000000               0.000000000               0.001686906               0.005089446              -0.000130726              -0.000003591               0.001697662               0.001694071               0.000000000               0.000000000               0.000000000               0.000000000              -0.007370959              -0.000556151               0.000266404              -0.002694589               0.000712808              -0.001981781               0.000000000               0.000000000               0.000000000               0.000000000              -0.004583316               0.000085236              -0.000223017              -0.001729396               0.000604873              -0.001124523               0.000000000               0.000000000               0.000000000               0.000000000              -0.002470989               0.000729364              -0.000674063              -0.001017790               0.000582381              -0.000435410               0.000000000               0.000000000               0.000000000               0.000000000              -0.001411181               0.001607781              -0.000806812              -0.000730164               0.000779309               0.000049145               0.000000000               0.000000000               0.000000000               0.000000000              -0.000812246               0.002423715              -0.000812613              -0.000607555               0.001010415               0.000402860               0.000000000               0.000000000               0.000000000               0.000000000              -0.000426643               0.003125344              -0.000772894              -0.000550658               0.001225323               0.000674665               0.000000000               0.000000000               0.000000000               0.000000000              -0.000146776               0.003719861              -0.000720376              -0.000520023               0.001413282               0.000893259               0.000000000               0.000000000               0.000000000               0.000000000               0.000067854               0.004187512              -0.000664479              -0.000497993               0.001561821               0.001063828               0.000000000               0.000000000               0.000000000               0.000000000               0.000248229               0.004534978              -0.000608606              -0.000473785               0.001669573               0.001195787               0.000000000               0.000000000               0.000000000               0.000000000               0.000419453               0.004791011              -0.000554405              -0.000441581               0.001744181               0.001302601               0.000000000               0.000000000               0.000000000               0.000000000               0.000599813               0.004978730              -0.000500851              -0.000397411               0.001792030               0.001394619               0.000000000               0.000000000               0.000000000               0.000000000               0.000798863               0.005110828              -0.000449026              -0.000339279               0.001816686               0.001477406               0.000000000               0.000000000               0.000000000               0.000000000               0.001022082               0.005186297              -0.000396096              -0.000265006               0.001817084               0.001552078               0.000000000               0.000000000               0.000000000               0.000000000               0.001279806               0.005211325              -0.000331190              -0.000171488               0.001794254               0.001622765               0.000000000               0.000000000               0.000000000               0.000000000               0.001584824               0.005185079              -0.000248142              -0.000053826               0.001746284               0.001692458               0.000000000               0.000000000               0.000000000               0.000000000               0.001952120               0.005106568              -0.000138996               0.000093723               0.001670931               0.001764654               0.000000000               0.000000000               0.000000000               0.000000000               0.002251039               0.005090598              -0.000082170               0.000207813               0.001627578               0.001835391               0.000000000               0.000000000               0.000000000               0.000000000              -0.007643652              -0.000602036               0.000000000              -0.002791113               0.000729687              -0.002061426               0.000000000               0.000000000               0.000000000               0.000000000              -0.004730467              -0.000042308               0.000000000              -0.001768635               0.000575439              -0.001193197               0.000000000               0.000000000               0.000000000               0.000000000              -0.002489329               0.000512212               0.000000000              -0.000997524               0.000503242              -0.000494282               0.000000000               0.000000000               0.000000000               0.000000000              -0.001366208               0.001356666              -0.000000000              -0.000681910               0.000679520              -0.000002390               0.000000000               0.000000000               0.000000000               0.000000000              -0.000736663               0.002171463              -0.000000000              -0.000547680               0.000906374               0.000358694               0.000000000               0.000000000               0.000000000               0.000000000              -0.000339612               0.002890976               0.000000000              -0.000488725               0.001126557               0.000637832               0.000000000               0.000000000               0.000000000               0.000000000              -0.000057509               0.003510619               0.000000000              -0.000460392               0.001323659               0.000863266               0.000000000               0.000000000               0.000000000               0.000000000               0.000155861               0.004001871              -0.000000000              -0.000441785               0.001481205               0.001039420               0.000000000               0.000000000               0.000000000               0.000000000               0.000334251               0.004368569              -0.000000000              -0.000420726               0.001596417               0.001175691               0.000000000               0.000000000               0.000000000               0.000000000               0.000502966               0.004645157              -0.000000000              -0.000392031               0.001679047               0.001287016               0.000000000               0.000000000               0.000000000               0.000000000               0.000681741               0.004858240               0.000000000              -0.000351626               0.001736606               0.001384980               0.000000000               0.000000000               0.000000000               0.000000000               0.000884155               0.005017078               0.000000000              -0.000295576               0.001770868               0.001475292               0.000000000               0.000000000               0.000000000               0.000000000               0.001114365               0.005118147              -0.000000000              -0.000221881               0.001779992               0.001558111               0.000000000               0.000000000               0.000000000               0.000000000               0.001385180               0.005164769              -0.000000000              -0.000126153               0.001763623               0.001637470               0.000000000               0.000000000               0.000000000               0.000000000               0.001717010               0.005157295              -0.000000000              -0.000000783               0.001719342               0.001718559               0.000000000               0.000000000               0.000000000               0.000000000               0.002125844               0.005095265               0.000000000               0.000160282               0.001644978               0.001805259               0.000000000               0.000000000               0.000000000               0.000000000               0.002465964               0.005091604               0.000000000               0.000288283               0.001601090               0.001889373               0.000000000               0.000000000               0.000000000               0.000000000               0.000000000               0.000000000               0.000000000               0.000000000               0.000000000               0.000000000               0.000000000               0.000000000               0.000000000               0.000000000               0.000000000               0.000000000               0.000000000               0.000000000               0.000000000               0.000000000               0.000000000               0.000000000               0.000000000               0.000000000               0.000000000               0.000000000               0.000000000               0.000000000               0.000000000               0.000000000               0.000000000               0.000000000               0.000000000               0.000000000               0.000000000               0.000000000               0.000000000               0.000000000               0.000000000               0.000000000               0.000000000               0.000000000               0.000000000               0.000000000               0.000000000               0.000000000               0.000000000               0.000000000               0.000000000               0.000000000               0.000000000               0.000000000               0.000000000               0.000000000               0.000000000               0.000000000               0.000000000               0.000000000               0.000000000               0.000000000               0.000000000               0.000000000               0.000000000               0.000000000               0.000000000               0.000000000               0.000000000               0.000000000               0.000000000               0.000000000               0.000000000               0.000000000               0.000000000               0.000000000               0.000000000               0.000000000               0.000000000               0.000000000               0.000000000               0.000000000               0.000000000               0.000000000               0.000000000               0.000000000               0.000000000               0.000000000               0.000000000               0.000000000               0.000000000               0.000000000               0.000000000               0.000000000               0.000000000               0.000000000               0.000000000               0.000000000               0.000000000               0.000000000               0.000000000               0.000000000               0.000000000               0.000000000               0.000000000               0.000000000               0.000000000               0.000000000               0.000000000               0.000000000               0.000000000               0.000000000               0.000000000               0.000000000               0.000000000               0.000000000               0.000000000               0.000000000               0.000000000               0.000000000               0.000000000               0.000000000               0.000000000               0.000000000               0.000000000               0.000000000               0.000000000               0.000000000               0.000000000               0.000000000               0.000000000               0.000000000               0.000000000               0.000000000               0.000000000               0.000000000               0.000000000               0.000000000               0.000000000               0.000000000               0.000000000               0.000000000               0.000000000               0.000000000               0.000000000               0.000000000               0.000000000               0.000000000               0.000000000               0.000000000               0.000000000               0.000000000               0.000000000               0.000000000               0.000000000               0.000000000               0.000000000               0.000000000               0.000000000               0.000000000               0.000000000               0.000000000               0.000000000               0.000000000               0.000000000               0.000000000               0.000000000               0.000000000               0.000000000               0.000000000               0.000000000               0.000000000               0.000000000               0.000000000               0.000000000               0.000000000               0.001899027               0.019937996               0.001408355              -0.001780110               0.007239302               0.005459192               0.000000000               0.000000000               0.000000000               0.000000000               0.001806411               0.015822446               0.000736815              -0.001300398               0.005707562               0.004407164               0.000000000               0.000000000               0.000000000               0.000000000               0.002298982               0.012535597               0.000068490              -0.000704830               0.004413434               0.003708604               0.000000000               0.000000000               0.000000000               0.000000000               0.002189588               0.010694121              -0.000215388              -0.000515668               0.003736561               0.003220892               0.000000000               0.000000000               0.000000000               0.000000000               0.001909001               0.009551214              -0.000333041              -0.000478025               0.003343048               0.002865023               0.000000000               0.000000000               0.000000000               0.000000000               0.001599002               0.008773578              -0.000375726              -0.000497070               0.003090187               0.002593116               0.000000000               0.000000000               0.000000000               0.000000000               0.001309937               0.008202303              -0.000384972              -0.000534060               0.002912094               0.002378034               0.000000000               0.000000000               0.000000000               0.000000000               0.001054853               0.007753031              -0.000376723              -0.000573558               0.002775504               0.002201946               0.000000000               0.000000000               0.000000000               0.000000000               0.000837550               0.007376672              -0.000361349              -0.000608001               0.002661533               0.002053532               0.000000000               0.000000000               0.000000000               0.000000000               0.000653308               0.007038628              -0.000341930              -0.000634837               0.002557798               0.001922961               0.000000000               0.000000000               0.000000000               0.000000000               0.000494653               0.006717593              -0.000322024              -0.000654203               0.002457243               0.001803040               0.000000000               0.000000000               0.000000000               0.000000000               0.000354524               0.006403907              -0.000303770              -0.000667540               0.002357128               0.001689588               0.000000000               0.000000000               0.000000000               0.000000000               0.000233214               0.006089774              -0.000277678              -0.000673765               0.002254493               0.001580728               0.000000000               0.000000000               0.000000000               0.000000000               0.000140396               0.005762575              -0.000236538              -0.000667672               0.002143396               0.001475725               0.000000000               0.000000000               0.000000000               0.000000000               0.000074200               0.005406792              -0.000181931              -0.000648023               0.002018254               0.001370231               0.000000000               0.000000000               0.000000000               0.000000000               0.000030966               0.005012345              -0.000105830              -0.000614929               0.001875741               0.001260812               0.000000000               0.000000000               0.000000000               0.000000000              -0.000014891               0.004718477              -0.000065772              -0.000595392               0.001771274               0.001175882               0.000000000               0.000000000               0.000000000               0.000000000               0.002079093               0.018770013               0.002622078              -0.001566589               0.006778805               0.005212215               0.000000000               0.000000000               0.000000000               0.000000000               0.001718560               0.015067568               0.001372989              -0.001238983               0.005435467               0.004196483               0.000000000               0.000000000               0.000000000               0.000000000               0.001923889               0.012205911               0.000139616              -0.000804279               0.004336689               0.003532411               0.000000000               0.000000000               0.000000000               0.000000000               0.001709630               0.010582529              -0.000366984              -0.000681703               0.003754709               0.003073006               0.000000000               0.000000000               0.000000000               0.000000000               0.001412186               0.009547686              -0.000570739              -0.000663889               0.003403827               0.002739937               0.000000000               0.000000000               0.000000000               0.000000000               0.001126830               0.008825835              -0.000639861              -0.000680666               0.003168805               0.002488138               0.000000000               0.000000000               0.000000000               0.000000000               0.000876619               0.008279491              -0.000650658              -0.000706203               0.002995204               0.002289001               0.000000000               0.000000000               0.000000000               0.000000000               0.000669726               0.007837749              -0.000635271              -0.000728570               0.002855413               0.002126844               0.000000000               0.000000000               0.000000000               0.000000000               0.000506381               0.007460257              -0.000607089              -0.000742638               0.002734273               0.001991636               0.000000000               0.000000000               0.000000000               0.000000000               0.000375274               0.007120894              -0.000570386              -0.000749382               0.002623402               0.001874020               0.000000000               0.000000000               0.000000000               0.000000000               0.000265677               0.006804792              -0.000531529              -0.000750968               0.002518564               0.001767596               0.000000000               0.000000000               0.000000000               0.000000000               0.000176483               0.006503087              -0.000493973              -0.000746703               0.002416575               0.001669872               0.000000000               0.000000000               0.000000000               0.000000000               0.000105589               0.006206741              -0.000446311              -0.000736245               0.002314308               0.001578063               0.000000000               0.000000000               0.000000000               0.000000000               0.000054758               0.005913720              -0.000375927              -0.000718679               0.002210780               0.001492101               0.000000000               0.000000000               0.000000000               0.000000000               0.000021742               0.005623270              -0.000283667              -0.000694754               0.002105989               0.001411235               0.000000000               0.000000000               0.000000000               0.000000000               0.000004786               0.005337824              -0.000161155              -0.000665432               0.002001067               0.001335636               0.000000000               0.000000000               0.000000000               0.000000000              -0.000017047               0.005147762              -0.000095930              -0.000649861               0.001932524               0.001282663               0.000000000               0.000000000               0.000000000               0.000000000               0.002280964               0.016989757               0.003501610              -0.001268357               0.006085981               0.004817624               0.000000000               0.000000000               0.000000000               0.000000000               0.001544021               0.013929894               0.001845338              -0.001162227               0.005030660               0.003868434               0.000000000               0.000000000               0.000000000               0.000000000               0.001348458               0.011709837               0.000229498              -0.000958056               0.004222592               0.003264536               0.000000000               0.000000000               0.000000000               0.000000000               0.001014145               0.010394509              -0.000400614              -0.000919007               0.003771138               0.002852130               0.000000000               0.000000000               0.000000000               0.000000000               0.000715344               0.009508182              -0.000642526              -0.000920267               0.003476118               0.002555851               0.000000000               0.000000000               0.000000000               0.000000000               0.000479085               0.008855005              -0.000720563              -0.000927217               0.003260711               0.002333494               0.000000000               0.000000000               0.000000000               0.000000000               0.000301315               0.008339687              -0.000730147              -0.000929466               0.003089690               0.002160224               0.000000000               0.000000000               0.000000000               0.000000000               0.000175031               0.007910668              -0.000708955              -0.000923195               0.002944595               0.002021400               0.000000000               0.000000000               0.000000000               0.000000000               0.000085799               0.007533867              -0.000673700              -0.000909557               0.002814449               0.001904893               0.000000000               0.000000000               0.000000000               0.000000000               0.000023702               0.007196904              -0.000629311              -0.000890723               0.002695852               0.001805129               0.000000000               0.000000000               0.000000000               0.000000000              -0.000019870               0.006889371              -0.000581930              -0.000868620               0.002585974               0.001717354               0.000000000               0.000000000               0.000000000               0.000000000              -0.000043959               0.006603295              -0.000532354              -0.000841894               0.002481708               0.001639813               0.000000000               0.000000000               0.000000000               0.000000000              -0.000047936               0.006334320              -0.000470738              -0.000809764               0.002381340               0.001571576               0.000000000               0.000000000               0.000000000               0.000000000              -0.000036445               0.006090763              -0.000389869              -0.000775011               0.002288571               0.001513560               0.000000000               0.000000000               0.000000000               0.000000000              -0.000020356               0.005885715              -0.000288811              -0.000743346               0.002209667               0.001466321               0.000000000               0.000000000               0.000000000               0.000000000              -0.000008878               0.005727028              -0.000160315              -0.000719206               0.002148725               0.001429520               0.000000000               0.000000000               0.000000000               0.000000000              -0.000007835               0.005649116              -0.000089128              -0.000709076               0.002119379               0.001410303               0.000000000               0.000000000               0.000000000               0.000000000               0.002388750               0.014815440               0.003973404              -0.000956150               0.005257146               0.004300997               0.000000000               0.000000000               0.000000000               0.000000000               0.001259271               0.012558045               0.002132200              -0.001097528               0.004551815               0.003454288               0.000000000               0.000000000               0.000000000               0.000000000               0.000644933               0.011099554               0.000359574              -0.001145591               0.004081678               0.002936087               0.000000000               0.000000000               0.000000000               0.000000000               0.000225918               0.010122506              -0.000293766              -0.001180591               0.003767665               0.002587074               0.000000000               0.000000000               0.000000000               0.000000000              -0.000034935               0.009393975              -0.000534146              -0.001187345               0.003527075               0.002339731               0.000000000               0.000000000               0.000000000               0.000000000              -0.000188839               0.008814536              -0.000611120              -0.001172629               0.003329026               0.002156397               0.000000000               0.000000000               0.000000000               0.000000000              -0.000269219               0.008331770              -0.000623031              -0.001142426               0.003158037               0.002015612               0.000000000               0.000000000               0.000000000               0.000000000              -0.000300152               0.007914635              -0.000604115              -0.001101884               0.003005480               0.001903596               0.000000000               0.000000000               0.000000000               0.000000000              -0.000304789               0.007545955              -0.000569515              -0.001057538               0.002867806               0.001810268               0.000000000               0.000000000               0.000000000               0.000000000              -0.000288090               0.007215231              -0.000527884              -0.001009935               0.002741698               0.001731763               0.000000000               0.000000000               0.000000000               0.000000000              -0.000252307               0.006916792              -0.000482646              -0.000959212               0.002625312               0.001666100               0.000000000               0.000000000               0.000000000               0.000000000              -0.000204893               0.006648830              -0.000432478              -0.000907936               0.002518900               0.001610964               0.000000000               0.000000000               0.000000000               0.000000000              -0.000149662               0.006417481              -0.000369547              -0.000858306               0.002425241               0.001566935               0.000000000               0.000000000               0.000000000               0.000000000              -0.000092802               0.006230005              -0.000294619              -0.000813549               0.002347831               0.001534281               0.000000000               0.000000000               0.000000000               0.000000000              -0.000045649               0.006095918              -0.000209134              -0.000779106               0.002291654               0.001512548               0.000000000               0.000000000               0.000000000               0.000000000              -0.000017046               0.006018909              -0.000109748              -0.000758754               0.002259201               0.001500447               0.000000000               0.000000000               0.000000000               0.000000000              -0.000005700               0.005996940              -0.000056161              -0.000751753               0.002249544               0.001497791               0.000000000               0.000000000               0.000000000               0.000000000               0.002304492               0.012466795               0.004050540              -0.000694167               0.004386945               0.003692778               0.000000000               0.000000000               0.000000000               0.000000000               0.000862728               0.011098130               0.002259488              -0.001063742               0.004053920               0.002990178               0.000000000               0.000000000               0.000000000               0.000000000              -0.000095426               0.010429412               0.000546522              -0.001339458               0.003922922               0.002583464               0.000000000               0.000000000               0.000000000               0.000000000              -0.000525532               0.009770757              -0.000058994              -0.001418415               0.003729691               0.002311276               0.000000000               0.000000000               0.000000000               0.000000000              -0.000701514               0.009184196              -0.000281718              -0.001411089               0.003531731               0.002120642               0.000000000               0.000000000               0.000000000               0.000000000              -0.000750305               0.008671719              -0.000362815              -0.001365326               0.003345653               0.001980327               0.000000000               0.000000000               0.000000000               0.000000000              -0.000728712               0.008226298              -0.000383430              -0.001301551               0.003175922               0.001874371               0.000000000               0.000000000               0.000000000               0.000000000              -0.000666614               0.007830986              -0.000375378              -0.001228850               0.003019920               0.001791069               0.000000000               0.000000000               0.000000000               0.000000000              -0.000582037               0.007478954              -0.000352320              -0.001153130               0.002877337               0.001724206               0.000000000               0.000000000               0.000000000               0.000000000              -0.000486054               0.007159905              -0.000320757              -0.001077256               0.002745696               0.001668441               0.000000000               0.000000000               0.000000000               0.000000000              -0.000384045               0.006876630              -0.000284165              -0.001003593               0.002626718               0.001623125               0.000000000               0.000000000               0.000000000               0.000000000              -0.000285450               0.006631562              -0.000245191              -0.000935987               0.002522494               0.001586507               0.000000000               0.000000000               0.000000000               0.000000000              -0.000195531               0.006428337              -0.000198654              -0.000876864               0.002435045               0.001558181               0.000000000               0.000000000               0.000000000               0.000000000              -0.000120939               0.006271487              -0.000148868              -0.000829286               0.002366903               0.001537617               0.000000000               0.000000000               0.000000000               0.000000000              -0.000063844               0.006161104              -0.000101452              -0.000794078               0.002318373               0.001524296               0.000000000               0.000000000               0.000000000               0.000000000              -0.000023886               0.006085513              -0.000050272              -0.000769645               0.002285032               0.001515388               0.000000000               0.000000000               0.000000000               0.000000000              -0.000016274               0.006041658              -0.000027921              -0.000761308               0.002267635               0.001506327               0.000000000               0.000000000               0.000000000               0.000000000               0.001974942               0.010141394               0.003797924              -0.000527073               0.003556121               0.003029048               0.000000000               0.000000000               0.000000000               0.000000000               0.000378847               0.009669448               0.002266155              -0.001066612               0.003578654               0.002512042               0.000000000               0.000000000               0.000000000               0.000000000              -0.000786917               0.009731469               0.000788990              -0.001511524               0.003747632               0.002236108               0.000000000               0.000000000               0.000000000               0.000000000              -0.001144838               0.009341176               0.000267124              -0.001596957               0.003646013               0.002049056               0.000000000               0.000000000               0.000000000               0.000000000              -0.001198631               0.008873980               0.000056568              -0.001558730               0.003477540               0.001918810               0.000000000               0.000000000               0.000000000               0.000000000              -0.001130202               0.008428774              -0.000039061              -0.001477419               0.003302036               0.001824618               0.000000000               0.000000000               0.000000000               0.000000000              -0.001008790               0.008028081              -0.000079507              -0.001381803               0.003136601               0.001754798               0.000000000               0.000000000               0.000000000               0.000000000              -0.000865050               0.007664529              -0.000091234              -0.001282457               0.002982303               0.001699846               0.000000000               0.000000000               0.000000000               0.000000000              -0.000710958               0.007335896              -0.000086764              -0.001183593               0.002839805               0.001656212               0.000000000               0.000000000               0.000000000               0.000000000              -0.000558411               0.007039579              -0.000073522              -0.001089349               0.002709619               0.001620270               0.000000000               0.000000000               0.000000000               0.000000000              -0.000415992               0.006773760              -0.000061105              -0.001002714               0.002592135               0.001589421               0.000000000               0.000000000               0.000000000               0.000000000              -0.000295965               0.006537821              -0.000050667              -0.000928212               0.002488656               0.001560444               0.000000000               0.000000000               0.000000000               0.000000000              -0.000203277               0.006336177              -0.000040767              -0.000868249               0.002401454               0.001533206               0.000000000               0.000000000               0.000000000               0.000000000              -0.000134548               0.006172686              -0.000036616              -0.000822039               0.002331555               0.001509515               0.000000000               0.000000000               0.000000000               0.000000000              -0.000083245               0.006039468              -0.000035558              -0.000786149               0.002275185               0.001489037               0.000000000               0.000000000               0.000000000               0.000000000              -0.000040375               0.005920039              -0.000023568              -0.000755144               0.002225041               0.001469897               0.000000000               0.000000000               0.000000000               0.000000000              -0.000039686               0.005834156              -0.000024338              -0.000744150               0.002192749               0.001448599               0.000000000               0.000000000               0.000000000               0.000000000               0.001411094               0.007984392               0.003292072              -0.000468891               0.002817733               0.002348842               0.000000000               0.000000000               0.000000000               0.000000000              -0.000171496               0.008353343               0.002189921              -0.001108478               0.003153912               0.002045434               0.000000000               0.000000000               0.000000000               0.000000000              -0.001367353               0.009015678               0.001078283              -0.001639713               0.003551767               0.001912054               0.000000000               0.000000000               0.000000000               0.000000000              -0.001577568               0.008840257               0.000635774              -0.001696616               0.003512261               0.001815646               0.000000000               0.000000000               0.000000000               0.000000000              -0.001492191               0.008483987               0.000417889              -0.001620066               0.003367989               0.001747923               0.000000000               0.000000000               0.000000000               0.000000000              -0.001313917               0.008113201               0.000297615              -0.001506865               0.003206662               0.001699797               0.000000000               0.000000000               0.000000000               0.000000000              -0.001106815               0.007759845               0.000228096              -0.001385033               0.003048267               0.001663234               0.000000000               0.000000000               0.000000000               0.000000000              -0.000895904               0.007432506               0.000187682              -0.001265024               0.002899152               0.001634128               0.000000000               0.000000000               0.000000000               0.000000000              -0.000695014               0.007129721               0.000160695              -0.001151842               0.002760497               0.001608655               0.000000000               0.000000000               0.000000000               0.000000000              -0.000512979               0.006842357               0.000139743              -0.001047659               0.002629983               0.001582324               0.000000000               0.000000000               0.000000000               0.000000000              -0.000369262               0.006569967               0.000117243              -0.000959717               0.002509873               0.001550156               0.000000000               0.000000000               0.000000000               0.000000000              -0.000267267               0.006322163               0.000087863              -0.000890493               0.002404198               0.001513704               0.000000000               0.000000000               0.000000000               0.000000000              -0.000197737               0.006107761               0.000053571              -0.000837619               0.002315107               0.001477487               0.000000000               0.000000000               0.000000000               0.000000000              -0.000149652               0.005922974               0.000016892              -0.000796489               0.002239801               0.001443312               0.000000000               0.000000000               0.000000000               0.000000000              -0.000106815               0.005755263              -0.000014608              -0.000759462               0.002171556               0.001412094               0.000000000               0.000000000               0.000000000               0.000000000              -0.000058890               0.005603661              -0.000021442              -0.000722539               0.002108715               0.001386175               0.000000000               0.000000000               0.000000000               0.000000000              -0.000049624               0.005506969              -0.000026495              -0.000706978               0.002071298               0.001364319               0.000000000               0.000000000               0.000000000               0.000000000               0.000706089               0.006148053               0.002635090              -0.000503725               0.002217238               0.001713513               0.000000000               0.000000000               0.000000000               0.000000000              -0.000702879               0.007175764               0.002081209              -0.001160548               0.002778746               0.001618198               0.000000000               0.000000000               0.000000000               0.000000000              -0.001795509               0.008319377               0.001416034              -0.001713234               0.003344176               0.001630942               0.000000000               0.000000000               0.000000000               0.000000000              -0.001845121               0.008365054               0.001024030              -0.001737548               0.003367506               0.001629958               0.000000000               0.000000000               0.000000000               0.000000000              -0.001645379               0.008138384               0.000782265              -0.001634311               0.003257538               0.001623226               0.000000000               0.000000000               0.000000000               0.000000000              -0.001385228               0.007849501               0.000626462              -0.001500644               0.003116689               0.001616044               0.000000000               0.000000000               0.000000000               0.000000000              -0.001118982               0.007550575               0.000517950              -0.001363437               0.002971312               0.001607875               0.000000000               0.000000000               0.000000000               0.000000000              -0.000858054               0.007265791               0.000440315              -0.001229991               0.002831903               0.001601912               0.000000000               0.000000000               0.000000000               0.000000000              -0.000623436               0.006974477               0.000378866              -0.001105595               0.002693334               0.001587739               0.000000000               0.000000000               0.000000000               0.000000000              -0.000431774               0.006674267               0.000323162              -0.000996196               0.002556799               0.001560603               0.000000000               0.000000000               0.000000000               0.000000000              -0.000289829               0.006388130               0.000264105              -0.000907200               0.002431755               0.001524555               0.000000000               0.000000000               0.000000000               0.000000000              -0.000202523               0.006127991               0.000196314              -0.000841943               0.002323291               0.001481348               0.000000000               0.000000000               0.000000000               0.000000000              -0.000158799               0.005898719               0.000124815              -0.000796887               0.002231849               0.001434962               0.000000000               0.000000000               0.000000000               0.000000000              -0.000142260               0.005689844               0.000058802              -0.000764576               0.002151454               0.001386878               0.000000000               0.000000000               0.000000000               0.000000000              -0.000139455               0.005487937               0.000010405              -0.000738286               0.002075389               0.001337103               0.000000000               0.000000000               0.000000000               0.000000000              -0.000128125               0.005303428              -0.000009951              -0.000710973               0.002004783               0.001293809               0.000000000               0.000000000               0.000000000               0.000000000              -0.000113336               0.005211218              -0.000014080              -0.000693901               0.001968356               0.001274454               0.000000000               0.000000000               0.000000000               0.000000000              -0.000153920               0.004431059               0.001928031              -0.000611602               0.001680872               0.001069269               0.000000000               0.000000000               0.000000000               0.000000000              -0.001135977               0.005821342               0.001954405              -0.001153657               0.002324980               0.001171323               0.000000000               0.000000000               0.000000000               0.000000000              -0.002014280               0.007313443               0.001782081              -0.001669532               0.002994300               0.001324768               0.000000000               0.000000000               0.000000000               0.000000000              -0.001981163               0.007673633               0.001454219              -0.001702137               0.003125231               0.001423094               0.000000000               0.000000000               0.000000000               0.000000000              -0.001729686               0.007663740               0.001186512              -0.001606596               0.003090086               0.001483490               0.000000000               0.000000000               0.000000000               0.000000000              -0.001440411               0.007523806               0.000986831              -0.001480626               0.003001452               0.001520826               0.000000000               0.000000000               0.000000000               0.000000000              -0.001155856               0.007340985               0.000833877              -0.001351066               0.002897326               0.001546260               0.000000000               0.000000000               0.000000000               0.000000000              -0.000889146               0.007136406               0.000716318              -0.001225478               0.002787271               0.001561793               0.000000000               0.000000000               0.000000000               0.000000000              -0.000650845               0.006890262               0.000616918              -0.001105347               0.002665180               0.001559833               0.000000000               0.000000000               0.000000000               0.000000000              -0.000451270               0.006614394               0.000523881              -0.000996023               0.002536784               0.001540760               0.000000000               0.000000000               0.000000000               0.000000000              -0.000303109               0.006326404               0.000430832              -0.000904464               0.002410268               0.001505804               0.000000000               0.000000000               0.000000000               0.000000000              -0.000210835               0.006050192               0.000331310              -0.000835335               0.002295155               0.001459820               0.000000000               0.000000000               0.000000000               0.000000000              -0.000171095               0.005801887               0.000230368              -0.000789394               0.002197074               0.001407680               0.000000000               0.000000000               0.000000000               0.000000000              -0.000168247               0.005579588               0.000136372              -0.000760539               0.002113357               0.001352818               0.000000000               0.000000000               0.000000000               0.000000000              -0.000190763               0.005370446               0.000063557              -0.000742840               0.002037744               0.001294904               0.000000000               0.000000000               0.000000000               0.000000000              -0.000226759               0.005172138               0.000021127              -0.000731550               0.001967879               0.001236329               0.000000000               0.000000000               0.000000000               0.000000000              -0.000240100               0.005078710               0.000007746              -0.000724874               0.001934511               0.001209637               0.000000000               0.000000000               0.000000000               0.000000000              -0.001285635               0.002871674               0.001212336              -0.000841071               0.001237572               0.000396501               0.000000000               0.000000000               0.000000000               0.000000000              -0.001630278               0.004467854               0.001760414              -0.001169834               0.001879214               0.000709380               0.000000000               0.000000000               0.000000000               0.000000000              -0.002148917               0.006159312               0.002068622              -0.001575755               0.002578334               0.001002579               0.000000000               0.000000000               0.000000000               0.000000000              -0.002044044               0.006818816               0.001866724              -0.001618865               0.002812537               0.001193672               0.000000000               0.000000000               0.000000000               0.000000000              -0.001770446               0.007053419               0.001601709              -0.001545591               0.002866313               0.001320722               0.000000000               0.000000000               0.000000000               0.000000000              -0.001475858               0.007095535               0.001369425              -0.001440385               0.002845283               0.001404897               0.000000000               0.000000000               0.000000000               0.000000000              -0.001187068               0.007055776               0.001178884              -0.001327119               0.002794275               0.001467155               0.000000000               0.000000000               0.000000000               0.000000000              -0.000919195               0.006960223               0.001024731              -0.001214723               0.002724959               0.001510235               0.000000000               0.000000000               0.000000000               0.000000000              -0.000684296               0.006792449               0.000894979              -0.001105665               0.002632682               0.001527017               0.000000000               0.000000000               0.000000000               0.000000000              -0.000476775               0.006574234               0.000774096              -0.001000567               0.002524912               0.001524344               0.000000000               0.000000000               0.000000000               0.000000000              -0.000309517               0.006325633               0.000652492              -0.000906771               0.002410780               0.001504009               0.000000000               0.000000000               0.000000000               0.000000000              -0.000189524               0.006064879               0.000527533              -0.000829179               0.002297999               0.001468820               0.000000000               0.000000000               0.000000000               0.000000000              -0.000123140               0.005808868               0.000403479              -0.000772284               0.002193698               0.001421414               0.000000000               0.000000000               0.000000000               0.000000000              -0.000110767               0.005571375               0.000282984              -0.000737957               0.002103092               0.001365135               0.000000000               0.000000000               0.000000000               0.000000000              -0.000147159               0.005356442               0.000169214              -0.000724738               0.002027042               0.001302304               0.000000000               0.000000000               0.000000000               0.000000000              -0.000229545               0.005165104               0.000074538              -0.000731716               0.001965589               0.001233874               0.000000000               0.000000000               0.000000000               0.000000000              -0.000297572               0.005066276               0.000026913              -0.000744872               0.001937032               0.001192160               0.000000000               0.000000000               0.000000000               0.000000000              -0.002611420               0.001580910               0.000541294              -0.001176894               0.000919262              -0.000257633               0.000000000               0.000000000               0.000000000               0.000000000              -0.002230264               0.003193657               0.001476378              -0.001235554               0.001476392               0.000240838               0.000000000               0.000000000               0.000000000               0.000000000              -0.002239536               0.004872174               0.002173014              -0.001448845               0.002106989               0.000658144               0.000000000               0.000000000               0.000000000               0.000000000              -0.002002823               0.005744302               0.002134442              -0.001469094               0.002404445               0.000935352               0.000000000               0.000000000               0.000000000               0.000000000              -0.001702136               0.006205977               0.001916968              -0.001414045               0.002539986               0.001125941               0.000000000               0.000000000               0.000000000               0.000000000              -0.001407354               0.006445789               0.001683727              -0.001333479               0.002593067               0.001259589               0.000000000               0.000000000               0.000000000               0.000000000              -0.001126265               0.006567661               0.001478645              -0.001243305               0.002603633               0.001360329               0.000000000               0.000000000               0.000000000               0.000000000              -0.000865126               0.006601047               0.001304754              -0.001149551               0.002583510               0.001433960               0.000000000               0.000000000               0.000000000               0.000000000              -0.000633056               0.006541832               0.001155307              -0.001055123               0.002532296               0.001477173               0.000000000               0.000000000               0.000000000               0.000000000              -0.000427112               0.006414167               0.001014144              -0.000961936               0.002458680               0.001496744               0.000000000               0.000000000               0.000000000               0.000000000              -0.000252798               0.006236747               0.000873062              -0.000874391               0.002370358               0.001495968               0.000000000               0.000000000               0.000000000               0.000000000              -0.000109124               0.006028409               0.000734216              -0.000794471               0.002274273               0.001479802               0.000000000               0.000000000               0.000000000               0.000000000              -0.000003481               0.005797364               0.000594941              -0.000725974               0.002174427               0.001448452               0.000000000               0.000000000               0.000000000               0.000000000               0.000046593               0.005563012               0.000450904              -0.000677903               0.002080286               0.001402384               0.000000000               0.000000000               0.000000000               0.000000000               0.000034024               0.005349237               0.000299981              -0.000655894               0.002001692               0.001345798               0.000000000               0.000000000               0.000000000               0.000000000              -0.000045046               0.005165799               0.000148144              -0.000662615               0.001942788               0.001280172               0.000000000               0.000000000               0.000000000               0.000000000              -0.000130583               0.005065287               0.000063111              -0.000682128               0.001915788               0.001233660               0.000000000               0.000000000               0.000000000               0.000000000              -0.004039020               0.000620170               0.000002864              -0.001592152               0.000737436              -0.000854716               0.000000000               0.000000000               0.000000000               0.000000000              -0.002899246               0.002065880               0.001138262              -0.001345450               0.001137102              -0.000208348               0.000000000               0.000000000               0.000000000               0.000000000              -0.002308582               0.003557642               0.002071130              -0.001310421               0.001622675               0.000312254               0.000000000               0.000000000               0.000000000               0.000000000              -0.001879737               0.004538477               0.002181611              -0.001272209               0.001936879               0.000664670               0.000000000               0.000000000               0.000000000               0.000000000              -0.001527414               0.005178055               0.002041580              -0.001220035               0.002132679               0.000912644               0.000000000               0.000000000               0.000000000               0.000000000              -0.001224184               0.005599591               0.001842411              -0.001159016               0.002252850               0.001093834               0.000000000               0.000000000               0.000000000               0.000000000              -0.000951388               0.005886786               0.001649428              -0.001092617               0.002326447               0.001233831               0.000000000               0.000000000               0.000000000               0.000000000              -0.000704493               0.006056340               0.001478600              -0.001021226               0.002359168               0.001337942               0.000000000               0.000000000               0.000000000               0.000000000              -0.000484397               0.006117271               0.001326566              -0.000946306               0.002354505               0.001408199               0.000000000               0.000000000               0.000000000               0.000000000              -0.000285652               0.006102391               0.001177232              -0.000869917               0.002324082               0.001454165               0.000000000               0.000000000               0.000000000               0.000000000              -0.000104400               0.006023098               0.001031043              -0.000792036               0.002271691               0.001479655               0.000000000               0.000000000               0.000000000               0.000000000               0.000059429               0.005893297               0.000892350              -0.000714375               0.002202537               0.001488163               0.000000000               0.000000000               0.000000000               0.000000000               0.000201724               0.005725248               0.000749768              -0.000640008               0.002121733               0.001481725               0.000000000               0.000000000               0.000000000               0.000000000               0.000309228               0.005533614               0.000593254              -0.000575740               0.002036433               0.001460693               0.000000000               0.000000000               0.000000000               0.000000000               0.000365502               0.005340834               0.000417451              -0.000530540               0.001957107               0.001426567               0.000000000               0.000000000               0.000000000               0.000000000               0.000353052               0.005166150               0.000219625              -0.000513373               0.001893157               0.001379784               0.000000000               0.000000000               0.000000000               0.000000000               0.000308861               0.005074556               0.000109265              -0.000518495               0.001864333               0.001345838               0.000000000               0.000000000               0.000000000               0.000000000              -0.005423704              -0.000016918              -0.000324009              -0.002031772               0.000671614              -0.001360159               0.000000000               0.000000000               0.000000000               0.000000000              -0.003576534               0.001148103               0.000793195              -0.001484711               0.000877598              -0.000607113               0.000000000               0.000000000               0.000000000               0.000000000              -0.002370064               0.002343572               0.001764192              -0.001181719               0.001175088              -0.000006631               0.000000000               0.000000000               0.000000000               0.000000000              -0.001711002               0.003338378               0.001966936              -0.001058921               0.001465754               0.000406833               0.000000000               0.000000000               0.000000000               0.000000000              -0.001279134               0.004090532               0.001903696              -0.000990990               0.001693826               0.000702836               0.000000000               0.000000000               0.000000000               0.000000000              -0.000954665               0.004652295               0.001759104              -0.000939535               0.001863927               0.000924392               0.000000000               0.000000000               0.000000000               0.000000000              -0.000683657               0.005079173               0.001603594              -0.000891267               0.001990129               0.001098862               0.000000000               0.000000000               0.000000000               0.000000000              -0.000449460               0.005376469               0.001457089              -0.000840605               0.002072340               0.001231735               0.000000000               0.000000000               0.000000000               0.000000000              -0.000245872               0.005560735               0.001318821              -0.000787293               0.002115990               0.001328698               0.000000000               0.000000000               0.000000000               0.000000000              -0.000058033               0.005657169               0.001183356              -0.000728907               0.002128673               0.001399766               0.000000000               0.000000000               0.000000000               0.000000000               0.000125984               0.005680063               0.001052698              -0.000662763               0.002114256               0.001451493               0.000000000               0.000000000               0.000000000               0.000000000               0.000307875               0.005647728               0.000927856              -0.000590512               0.002079394               0.001488883               0.000000000               0.000000000               0.000000000               0.000000000               0.000483501               0.005566552               0.000797642              -0.000514505               0.002027000               0.001512495               0.000000000               0.000000000               0.000000000               0.000000000               0.000651150               0.005449630               0.000649500              -0.000437021               0.001962199               0.001525177               0.000000000               0.000000000               0.000000000               0.000000000               0.000799607               0.005307397               0.000470728              -0.000363571               0.001890305               0.001526734               0.000000000               0.000000000               0.000000000               0.000000000               0.000911149               0.005155721               0.000253301              -0.000302784               0.001819484               0.001516701               0.000000000               0.000000000               0.000000000               0.000000000               0.000970008               0.005085799               0.000136930              -0.000271971               0.001785906               0.001513935               0.000000000               0.000000000               0.000000000               0.000000000              -0.006591192              -0.000383336              -0.000403740              -0.002423778               0.000680143              -0.001743635               0.000000000               0.000000000               0.000000000               0.000000000              -0.004171441               0.000482536               0.000482302              -0.001624606               0.000702376              -0.000922230               0.000000000               0.000000000               0.000000000               0.000000000              -0.002426200               0.001363914               0.001280791              -0.001080313               0.000814736              -0.000265577               0.000000000               0.000000000               0.000000000               0.000000000              -0.001538963               0.002307640               0.001491786              -0.000865565               0.001057726               0.000192162               0.000000000               0.000000000               0.000000000               0.000000000              -0.001016351               0.003110853               0.001480615              -0.000769987               0.001293602               0.000523615               0.000000000               0.000000000               0.000000000               0.000000000              -0.000659325               0.003763672               0.001393153              -0.000717705               0.001493779               0.000776075               0.000000000               0.000000000               0.000000000               0.000000000              -0.000383621               0.004294729               0.001287824              -0.000680698               0.001658461               0.000977763               0.000000000               0.000000000               0.000000000               0.000000000              -0.000161739               0.004695123               0.001181223              -0.000647542               0.001780872               0.001133331               0.000000000               0.000000000               0.000000000               0.000000000               0.000026732               0.004978917               0.001076331              -0.000612339               0.001863735               0.001251396               0.000000000               0.000000000               0.000000000               0.000000000               0.000205740               0.005172347               0.000974295              -0.000569390               0.001913895               0.001344505               0.000000000               0.000000000               0.000000000               0.000000000               0.000388537               0.005290491               0.000876219              -0.000515609               0.001935349               0.001419740               0.000000000               0.000000000               0.000000000               0.000000000               0.000580414               0.005351820               0.000781302              -0.000451321               0.001934362               0.001483041               0.000000000               0.000000000               0.000000000               0.000000000               0.000784212               0.005359944               0.000682258              -0.000375913               0.001911934               0.001536022               0.000000000               0.000000000               0.000000000               0.000000000               0.001004451               0.005323383               0.000566116              -0.000288753               0.001870694               0.001581941               0.000000000               0.000000000               0.000000000               0.000000000               0.001240994               0.005245286               0.000418255              -0.000190288               0.001811840               0.001621553               0.000000000               0.000000000               0.000000000               0.000000000               0.001496147               0.005131276               0.000229146              -0.000080355               0.001737193               0.001656839               0.000000000               0.000000000               0.000000000               0.000000000               0.001686906               0.005089446               0.000130726              -0.000003591               0.001697662               0.001694071               0.000000000               0.000000000               0.000000000               0.000000000              -0.007370959              -0.000556151              -0.000266404              -0.002694589               0.000712808              -0.001981781               0.000000000               0.000000000               0.000000000               0.000000000              -0.004583316               0.000085236               0.000223017              -0.001729396               0.000604873              -0.001124523               0.000000000               0.000000000               0.000000000               0.000000000              -0.002470989               0.000729364               0.000674063              -0.001017790               0.000582381              -0.000435410               0.000000000               0.000000000               0.000000000               0.000000000              -0.001411181               0.001607781               0.000806812              -0.000730164               0.000779309               0.000049145               0.000000000               0.000000000               0.000000000               0.000000000              -0.000812246               0.002423715               0.000812613              -0.000607555               0.001010415               0.000402860               0.000000000               0.000000000               0.000000000               0.000000000              -0.000426643               0.003125344               0.000772894              -0.000550658               0.001225323               0.000674665               0.000000000               0.000000000               0.000000000               0.000000000              -0.000146776               0.003719861               0.000720376              -0.000520023               0.001413282               0.000893259               0.000000000               0.000000000               0.000000000               0.000000000               0.000067854               0.004187512               0.000664479              -0.000497993               0.001561821               0.001063828               0.000000000               0.000000000               0.000000000               0.000000000               0.000248229               0.004534978               0.000608606              -0.000473785               0.001669573               0.001195787               0.000000000               0.000000000               0.000000000               0.000000000               0.000419453               0.004791011               0.000554405              -0.000441581               0.001744181               0.001302601               0.000000000               0.000000000               0.000000000               0.000000000               0.000599813               0.004978730               0.000500851              -0.000397411               0.001792030               0.001394619               0.000000000               0.000000000               0.000000000               0.000000000               0.000798863               0.005110828               0.000449026              -0.000339279               0.001816686               0.001477406               0.000000000               0.000000000               0.000000000               0.000000000               0.001022082               0.005186297               0.000396096              -0.000265006               0.001817084               0.001552078               0.000000000               0.000000000               0.000000000               0.000000000               0.001279806               0.005211325               0.000331190              -0.000171488               0.001794254               0.001622765               0.000000000               0.000000000               0.000000000               0.000000000               0.001584824               0.005185079               0.000248142              -0.000053826               0.001746284               0.001692458               0.000000000               0.000000000               0.000000000               0.000000000               0.001952120               0.005106568               0.000138996               0.000093723               0.001670931               0.001764654               0.000000000               0.000000000               0.000000000               0.000000000               0.002251039               0.005090598               0.000082170               0.000207813               0.001627578               0.001835391               0.000000000               0.000000000               0.000000000               0.000000000              -0.007643652              -0.000602036               0.000000000              -0.002791113               0.000729687              -0.002061426               0.000000000               0.000000000               0.000000000               0.000000000              -0.004730467              -0.000042308               0.000000000              -0.001768635               0.000575439              -0.001193197               0.000000000               0.000000000               0.000000000               0.000000000              -0.002489329               0.000512212               0.000000000              -0.000997524               0.000503242              -0.000494282               0.000000000               0.000000000               0.000000000               0.000000000              -0.001366208               0.001356666               0.000000000              -0.000681910               0.000679520              -0.000002390               0.000000000               0.000000000               0.000000000               0.000000000              -0.000736663               0.002171463               0.000000000              -0.000547680               0.000906374               0.000358694               0.000000000               0.000000000               0.000000000               0.000000000              -0.000339612               0.002890976              -0.000000000              -0.000488725               0.001126557               0.000637832               0.000000000               0.000000000               0.000000000               0.000000000              -0.000057509               0.003510619              -0.000000000              -0.000460392               0.001323659               0.000863266               0.000000000               0.000000000               0.000000000               0.000000000               0.000155861               0.004001871              -0.000000000              -0.000441785               0.001481205               0.001039420               0.000000000               0.000000000               0.000000000               0.000000000               0.000334251               0.004368569               0.000000000              -0.000420726               0.001596417               0.001175691               0.000000000               0.000000000               0.000000000               0.000000000               0.000502966               0.004645157               0.000000000              -0.000392031               0.001679047               0.001287016               0.000000000               0.000000000               0.000000000               0.000000000               0.000681741               0.004858240              -0.000000000              -0.000351626               0.001736606               0.001384980               0.000000000               0.000000000               0.000000000               0.000000000               0.000884155               0.005017078               0.000000000              -0.000295576               0.001770868               0.001475292               0.000000000               0.000000000               0.000000000               0.000000000               0.001114365               0.005118147               0.000000000              -0.000221881               0.001779992               0.001558111               0.000000000               0.000000000               0.000000000               0.000000000               0.001385180               0.005164769               0.000000000              -0.000126153               0.001763623               0.001637470               0.000000000               0.000000000               0.000000000               0.000000000               0.001717010               0.005157295               0.000000000              -0.000000783               0.001719342               0.001718559               0.000000000               0.000000000               0.000000000               0.000000000               0.002125844               0.005095265              -0.000000000               0.000160282               0.001644978               0.001805259               0.000000000               0.000000000               0.000000000               0.000000000               0.002465964               0.005091604               0.000000000               0.000288283               0.001601090               0.001889373               0.000000000               0.000000000               0.000000000               0.000000000               0.001826997               0.020343458              -0.000000000              -0.001857804               0.007400353               0.005542549               0.000000000               0.000000000               0.000000000               0.000000000               0.001830672               0.016087110              -0.000000000              -0.001324383               0.005803778               0.004479394               0.000000000               0.000000000               0.000000000               0.000000000               0.002428447               0.012653132               0.000000000              -0.000670972               0.004441326               0.003770354               0.000000000               0.000000000               0.000000000               0.000000000               0.002360311               0.010732027               0.000000000              -0.000456386               0.003729435               0.003273049               0.000000000               0.000000000               0.000000000               0.000000000               0.002086650               0.009548193              -0.000000000              -0.000411029               0.003319709               0.002908680               0.000000000               0.000000000               0.000000000               0.000000000               0.001771048               0.008747814               0.000000000              -0.000429333               0.003059020               0.002629687               0.000000000               0.000000000               0.000000000               0.000000000               0.001471626               0.008168553               0.000000000              -0.000469208               0.002879226               0.002410018               0.000000000               0.000000000               0.000000000               0.000000000               0.001198766               0.007716624               0.000000000              -0.000515039               0.002743862               0.002228823               0.000000000               0.000000000               0.000000000               0.000000000               0.000962674               0.007338770               0.000000000              -0.000556342               0.002631680               0.002075338               0.000000000               0.000000000               0.000000000               0.000000000               0.000758590               0.007003017               0.000000000              -0.000590904               0.002531284               0.001940380               0.000000000               0.000000000               0.000000000               0.000000000               0.000579181               0.006683006               0.000000000              -0.000618181               0.002433707               0.001815525               0.000000000               0.000000000               0.000000000               0.000000000               0.000422139               0.006368543              -0.000000000              -0.000637764               0.002335415               0.001697650               0.000000000               0.000000000               0.000000000               0.000000000               0.000284217               0.006047426              -0.000000000              -0.000649345               0.002232237               0.001582892               0.000000000               0.000000000               0.000000000               0.000000000               0.000176048               0.005702750               0.000000000              -0.000646824               0.002116506               0.001469681               0.000000000               0.000000000               0.000000000               0.000000000               0.000097317               0.005318328               0.000000000              -0.000628295               0.001982190               0.001353895               0.000000000               0.000000000               0.000000000               0.000000000               0.000042253               0.004879174              -0.000000000              -0.000594050               0.001824392               0.001230342               0.000000000               0.000000000               0.000000000               0.000000000              -0.000014284               0.004542206              -0.000000000              -0.000573131               0.001705097               0.001131966               0.000000000               0.000000000               0.000000000               0.000000000               0.001899027               0.019937996              -0.001408355              -0.001780110               0.007239302               0.005459192               0.000000000               0.000000000               0.000000000               0.000000000               0.001806411               0.015822446              -0.000736815              -0.001300398               0.005707562               0.004407164               0.000000000               0.000000000               0.000000000               0.000000000               0.002298982               0.012535597              -0.000068490              -0.000704830               0.004413434               0.003708604               0.000000000               0.000000000               0.000000000               0.000000000               0.002189588               0.010694121               0.000215388              -0.000515668               0.003736561               0.003220892               0.000000000               0.000000000               0.000000000               0.000000000               0.001909001               0.009551214               0.000333041              -0.000478025               0.003343048               0.002865023               0.000000000               0.000000000               0.000000000               0.000000000               0.001599002               0.008773578               0.000375726              -0.000497070               0.003090187               0.002593116               0.000000000               0.000000000               0.000000000               0.000000000               0.001309937               0.008202303               0.000384972              -0.000534060               0.002912094               0.002378034               0.000000000               0.000000000               0.000000000               0.000000000               0.001054853               0.007753031               0.000376723              -0.000573558               0.002775504               0.002201946               0.000000000               0.000000000               0.000000000               0.000000000               0.000837550               0.007376672               0.000361349              -0.000608001               0.002661533               0.002053532               0.000000000               0.000000000               0.000000000               0.000000000               0.000653308               0.007038628               0.000341930              -0.000634837               0.002557798               0.001922961               0.000000000               0.000000000               0.000000000               0.000000000               0.000494653               0.006717593               0.000322024              -0.000654203               0.002457243               0.001803040               0.000000000               0.000000000               0.000000000               0.000000000               0.000354524               0.006403907               0.000303770              -0.000667540               0.002357128               0.001689588               0.000000000               0.000000000               0.000000000               0.000000000               0.000233214               0.006089774               0.000277678              -0.000673765               0.002254493               0.001580728               0.000000000               0.000000000               0.000000000               0.000000000               0.000140396               0.005762575               0.000236538              -0.000667672               0.002143396               0.001475725               0.000000000               0.000000000               0.000000000               0.000000000               0.000074200               0.005406792               0.000181931              -0.000648023               0.002018254               0.001370231               0.000000000               0.000000000               0.000000000               0.000000000               0.000030966               0.005012345               0.000105830              -0.000614929               0.001875741               0.001260812               0.000000000               0.000000000               0.000000000               0.000000000              -0.000014891               0.004718477               0.000065772              -0.000595392               0.001771274               0.001175882               0.000000000               0.000000000               0.000000000               0.000000000               0.002079093               0.018770013              -0.002622078              -0.001566589               0.006778805               0.005212215               0.000000000               0.000000000               0.000000000               0.000000000               0.001718560               0.015067568              -0.001372989              -0.001238983               0.005435467               0.004196483               0.000000000               0.000000000               0.000000000               0.000000000               0.001923889               0.012205911              -0.000139616              -0.000804279               0.004336689               0.003532411               0.000000000               0.000000000               0.000000000               0.000000000               0.001709630               0.010582529               0.000366984              -0.000681703               0.003754709               0.003073006               0.000000000               0.000000000               0.000000000               0.000000000               0.001412186               0.009547686               0.000570739              -0.000663889               0.003403827               0.002739937               0.000000000               0.000000000               0.000000000               0.000000000               0.001126830               0.008825835               0.000639861              -0.000680666               0.003168805               0.002488138               0.000000000               0.000000000               0.000000000               0.000000000               0.000876619               0.008279491               0.000650658              -0.000706203               0.002995204               0.002289001               0.000000000               0.000000000               0.000000000               0.000000000               0.000669726               0.007837749               0.000635271              -0.000728570               0.002855413               0.002126844               0.000000000               0.000000000               0.000000000               0.000000000               0.000506381               0.007460257               0.000607089              -0.000742638               0.002734273               0.001991636               0.000000000               0.000000000               0.000000000               0.000000000               0.000375274               0.007120894               0.000570386              -0.000749382               0.002623402               0.001874020               0.000000000               0.000000000               0.000000000               0.000000000               0.000265677               0.006804792               0.000531529              -0.000750968               0.002518564               0.001767596               0.000000000               0.000000000               0.000000000               0.000000000               0.000176483               0.006503087               0.000493973              -0.000746703               0.002416575               0.001669872               0.000000000               0.000000000               0.000000000               0.000000000               0.000105589               0.006206741               0.000446311              -0.000736245               0.002314308               0.001578063               0.000000000               0.000000000               0.000000000               0.000000000               0.000054758               0.005913720               0.000375927              -0.000718679               0.002210780               0.001492101               0.000000000               0.000000000               0.000000000               0.000000000               0.000021742               0.005623270               0.000283667              -0.000694754               0.002105989               0.001411235               0.000000000               0.000000000               0.000000000               0.000000000               0.000004786               0.005337824               0.000161155              -0.000665432               0.002001067               0.001335636               0.000000000               0.000000000               0.000000000               0.000000000              -0.000017047               0.005147762               0.000095930              -0.000649861               0.001932524               0.001282663               0.000000000               0.000000000               0.000000000               0.000000000               0.002280964               0.016989757              -0.003501610              -0.001268357               0.006085981               0.004817624               0.000000000               0.000000000               0.000000000               0.000000000               0.001544021               0.013929894              -0.001845338              -0.001162227               0.005030660               0.003868434               0.000000000               0.000000000               0.000000000               0.000000000               0.001348458               0.011709837              -0.000229498              -0.000958056               0.004222592               0.003264536               0.000000000               0.000000000               0.000000000               0.000000000               0.001014145               0.010394509               0.000400614              -0.000919007               0.003771138               0.002852130               0.000000000               0.000000000               0.000000000               0.000000000               0.000715344               0.009508182               0.000642526              -0.000920267               0.003476118               0.002555851               0.000000000               0.000000000               0.000000000               0.000000000               0.000479085               0.008855005               0.000720563              -0.000927217               0.003260711               0.002333494               0.000000000               0.000000000               0.000000000               0.000000000               0.000301315               0.008339687               0.000730147              -0.000929466               0.003089690               0.002160224               0.000000000               0.000000000               0.000000000               0.000000000               0.000175031               0.007910668               0.000708955              -0.000923195               0.002944595               0.002021400               0.000000000               0.000000000               0.000000000               0.000000000               0.000085799               0.007533867               0.000673700              -0.000909557               0.002814449               0.001904893               0.000000000               0.000000000               0.000000000               0.000000000               0.000023702               0.007196904               0.000629311              -0.000890723               0.002695852               0.001805129               0.000000000               0.000000000               0.000000000               0.000000000              -0.000019870               0.006889371               0.000581930              -0.000868620               0.002585974               0.001717354               0.000000000               0.000000000               0.000000000               0.000000000              -0.000043959               0.006603295               0.000532354              -0.000841894               0.002481708               0.001639813               0.000000000               0.000000000               0.000000000               0.000000000              -0.000047936               0.006334320               0.000470738              -0.000809764               0.002381340               0.001571576               0.000000000               0.000000000               0.000000000               0.000000000              -0.000036445               0.006090763               0.000389869              -0.000775011               0.002288571               0.001513560               0.000000000               0.000000000               0.000000000               0.000000000              -0.000020356               0.005885715               0.000288811              -0.000743346               0.002209667               0.001466321               0.000000000               0.000000000               0.000000000               0.000000000              -0.000008878               0.005727028               0.000160315              -0.000719206               0.002148725               0.001429520               0.000000000               0.000000000               0.000000000               0.000000000              -0.000007835               0.005649116               0.000089128              -0.000709076               0.002119379               0.001410303               0.000000000               0.000000000               0.000000000               0.000000000               0.002388750               0.014815440              -0.003973404              -0.000956150               0.005257146               0.004300997               0.000000000               0.000000000               0.000000000               0.000000000               0.001259271               0.012558045              -0.002132200              -0.001097528               0.004551815               0.003454288               0.000000000               0.000000000               0.000000000               0.000000000               0.000644933               0.011099554              -0.000359574              -0.001145591               0.004081678               0.002936087               0.000000000               0.000000000               0.000000000               0.000000000               0.000225918               0.010122506               0.000293766              -0.001180591               0.003767665               0.002587074               0.000000000               0.000000000               0.000000000               0.000000000              -0.000034935               0.009393975               0.000534146              -0.001187345               0.003527075               0.002339731               0.000000000               0.000000000               0.000000000               0.000000000              -0.000188839               0.008814536               0.000611120              -0.001172629               0.003329026               0.002156397               0.000000000               0.000000000               0.000000000               0.000000000              -0.000269219               0.008331770               0.000623031              -0.001142426               0.003158037               0.002015612               0.000000000               0.000000000               0.000000000               0.000000000              -0.000300152               0.007914635               0.000604115              -0.001101884               0.003005480               0.001903596               0.000000000               0.000000000               0.000000000               0.000000000              -0.000304789               0.007545955               0.000569515              -0.001057538               0.002867806               0.001810268               0.000000000               0.000000000               0.000000000               0.000000000              -0.000288090               0.007215231               0.000527884              -0.001009935               0.002741698               0.001731763               0.000000000               0.000000000               0.000000000               0.000000000              -0.000252307               0.006916792               0.000482646              -0.000959212               0.002625312               0.001666100               0.000000000               0.000000000               0.000000000               0.000000000              -0.000204893               0.006648830               0.000432478              -0.000907936               0.002518900               0.001610964               0.000000000               0.000000000               0.000000000               0.000000000              -0.000149662               0.006417481               0.000369547              -0.000858306               0.002425241               0.001566935               0.000000000               0.000000000               0.000000000               0.000000000              -0.000092802               0.006230005               0.000294619              -0.000813549               0.002347831               0.001534281               0.000000000               0.000000000               0.000000000               0.000000000              -0.000045649               0.006095918               0.000209134              -0.000779106               0.002291654               0.001512548               0.000000000               0.000000000               0.000000000               0.000000000              -0.000017046               0.006018909               0.000109748              -0.000758754               0.002259201               0.001500447               0.000000000               0.000000000               0.000000000               0.000000000              -0.000005700               0.005996940               0.000056161              -0.000751753               0.002249544               0.001497791               0.000000000               0.000000000               0.000000000               0.000000000               0.002304492               0.012466795              -0.004050540              -0.000694167               0.004386945               0.003692778               0.000000000               0.000000000               0.000000000               0.000000000               0.000862728               0.011098130              -0.002259488              -0.001063742               0.004053920               0.002990178               0.000000000               0.000000000               0.000000000               0.000000000              -0.000095426               0.010429412              -0.000546522              -0.001339458               0.003922922               0.002583464               0.000000000               0.000000000               0.000000000               0.000000000              -0.000525532               0.009770757               0.000058994              -0.001418415               0.003729691               0.002311276               0.000000000               0.000000000               0.000000000               0.000000000              -0.000701514               0.009184196               0.000281718              -0.001411089               0.003531731               0.002120642               0.000000000               0.000000000               0.000000000               0.000000000              -0.000750305               0.008671719               0.000362815              -0.001365326               0.003345653               0.001980327               0.000000000               0.000000000               0.000000000               0.000000000              -0.000728712               0.008226298               0.000383430              -0.001301551               0.003175922               0.001874371               0.000000000               0.000000000               0.000000000               0.000000000              -0.000666614               0.007830986               0.000375378              -0.001228850               0.003019920               0.001791069               0.000000000               0.000000000               0.000000000               0.000000000              -0.000582037               0.007478954               0.000352320              -0.001153130               0.002877337               0.001724206               0.000000000               0.000000000               0.000000000               0.000000000              -0.000486054               0.007159905               0.000320757              -0.001077256               0.002745696               0.001668441               0.000000000               0.000000000               0.000000000               0.000000000              -0.000384045               0.006876630               0.000284165              -0.001003593               0.002626718               0.001623125               0.000000000               0.000000000               0.000000000               0.000000000              -0.000285450               0.006631562               0.000245191              -0.000935987               0.002522494               0.001586507               0.000000000               0.000000000               0.000000000               0.000000000              -0.000195531               0.006428337               0.000198654              -0.000876864               0.002435045               0.001558181               0.000000000               0.000000000               0.000000000               0.000000000              -0.000120939               0.006271487               0.000148868              -0.000829286               0.002366903               0.001537617               0.000000000               0.000000000               0.000000000               0.000000000              -0.000063844               0.006161104               0.000101452              -0.000794078               0.002318373               0.001524296               0.000000000               0.000000000               0.000000000               0.000000000              -0.000023886               0.006085513               0.000050272              -0.000769645               0.002285032               0.001515388               0.000000000               0.000000000               0.000000000               0.000000000              -0.000016274               0.006041658               0.000027921              -0.000761308               0.002267635               0.001506327               0.000000000               0.000000000               0.000000000               0.000000000               0.001974942               0.010141394              -0.003797924              -0.000527073               0.003556121               0.003029048               0.000000000               0.000000000               0.000000000               0.000000000               0.000378847               0.009669448              -0.002266155              -0.001066612               0.003578654               0.002512042               0.000000000               0.000000000               0.000000000               0.000000000              -0.000786917               0.009731469              -0.000788990              -0.001511524               0.003747632               0.002236108               0.000000000               0.000000000               0.000000000               0.000000000              -0.001144838               0.009341176              -0.000267124              -0.001596957               0.003646013               0.002049056               0.000000000               0.000000000               0.000000000               0.000000000              -0.001198631               0.008873980              -0.000056568              -0.001558730               0.003477540               0.001918810               0.000000000               0.000000000               0.000000000               0.000000000              -0.001130202               0.008428774               0.000039061              -0.001477419               0.003302036               0.001824618               0.000000000               0.000000000               0.000000000               0.000000000              -0.001008790               0.008028081               0.000079507              -0.001381803               0.003136601               0.001754798               0.000000000               0.000000000               0.000000000               0.000000000              -0.000865050               0.007664529               0.000091234              -0.001282457               0.002982303               0.001699846               0.000000000               0.000000000               0.000000000               0.000000000              -0.000710958               0.007335896               0.000086764              -0.001183593               0.002839805               0.001656212               0.000000000               0.000000000               0.000000000               0.000000000              -0.000558411               0.007039579               0.000073522              -0.001089349               0.002709619               0.001620270               0.000000000               0.000000000               0.000000000               0.000000000              -0.000415992               0.006773760               0.000061105              -0.001002714               0.002592135               0.001589421               0.000000000               0.000000000               0.000000000               0.000000000              -0.000295965               0.006537821               0.000050667              -0.000928212               0.002488656               0.001560444               0.000000000               0.000000000               0.000000000               0.000000000              -0.000203277               0.006336177               0.000040767              -0.000868249               0.002401454               0.001533206               0.000000000               0.000000000               0.000000000               0.000000000              -0.000134548               0.006172686               0.000036616              -0.000822039               0.002331555               0.001509515               0.000000000               0.000000000               0.000000000               0.000000000              -0.000083245               0.006039468               0.000035558              -0.000786149               0.002275185               0.001489037               0.000000000               0.000000000               0.000000000               0.000000000              -0.000040375               0.005920039               0.000023568              -0.000755144               0.002225041               0.001469897               0.000000000               0.000000000               0.000000000               0.000000000              -0.000039686               0.005834156               0.000024338              -0.000744150               0.002192749               0.001448599               0.000000000               0.000000000               0.000000000               0.000000000               0.001411094               0.007984392              -0.003292072              -0.000468891               0.002817733               0.002348842               0.000000000               0.000000000               0.000000000               0.000000000              -0.000171496               0.008353343              -0.002189921              -0.001108478               0.003153912               0.002045434               0.000000000               0.000000000               0.000000000               0.000000000              -0.001367353               0.009015678              -0.001078283              -0.001639713               0.003551767               0.001912054               0.000000000               0.000000000               0.000000000               0.000000000              -0.001577568               0.008840257              -0.000635774              -0.001696616               0.003512261               0.001815646               0.000000000               0.000000000               0.000000000               0.000000000              -0.001492191               0.008483987              -0.000417889              -0.001620066               0.003367989               0.001747923               0.000000000               0.000000000               0.000000000               0.000000000              -0.001313917               0.008113201              -0.000297615              -0.001506865               0.003206662               0.001699797               0.000000000               0.000000000               0.000000000               0.000000000              -0.001106815               0.007759845              -0.000228096              -0.001385033               0.003048267               0.001663234               0.000000000               0.000000000               0.000000000               0.000000000              -0.000895904               0.007432506              -0.000187682              -0.001265024               0.002899152               0.001634128               0.000000000               0.000000000               0.000000000               0.000000000              -0.000695014               0.007129721              -0.000160695              -0.001151842               0.002760497               0.001608655               0.000000000               0.000000000               0.000000000               0.000000000              -0.000512979               0.006842357              -0.000139743              -0.001047659               0.002629983               0.001582324               0.000000000               0.000000000               0.000000000               0.000000000              -0.000369262               0.006569967              -0.000117243              -0.000959717               0.002509873               0.001550156               0.000000000               0.000000000               0.000000000               0.000000000              -0.000267267               0.006322163              -0.000087863              -0.000890493               0.002404198               0.001513704               0.000000000               0.000000000               0.000000000               0.000000000              -0.000197737               0.006107761              -0.000053571              -0.000837619               0.002315107               0.001477487               0.000000000               0.000000000               0.000000000               0.000000000              -0.000149652               0.005922974              -0.000016892              -0.000796489               0.002239801               0.001443312               0.000000000               0.000000000               0.000000000               0.000000000              -0.000106815               0.005755263               0.000014608              -0.000759462               0.002171556               0.001412094               0.000000000               0.000000000               0.000000000               0.000000000              -0.000058890               0.005603661               0.000021442              -0.000722539               0.002108715               0.001386175               0.000000000               0.000000000               0.000000000               0.000000000              -0.000049624               0.005506969               0.000026495              -0.000706978               0.002071298               0.001364319               0.000000000               0.000000000               0.000000000               0.000000000               0.000706089               0.006148053              -0.002635090              -0.000503725               0.002217238               0.001713513               0.000000000               0.000000000               0.000000000               0.000000000              -0.000702879               0.007175764              -0.002081209              -0.001160548               0.002778746               0.001618198               0.000000000               0.000000000               0.000000000               0.000000000              -0.001795509               0.008319377              -0.001416034              -0.001713234               0.003344176               0.001630942               0.000000000               0.000000000               0.000000000               0.000000000              -0.001845121               0.008365054              -0.001024030              -0.001737548               0.003367506               0.001629958               0.000000000               0.000000000               0.000000000               0.000000000              -0.001645379               0.008138384              -0.000782265              -0.001634311               0.003257538               0.001623226               0.000000000               0.000000000               0.000000000               0.000000000              -0.001385228               0.007849501              -0.000626462              -0.001500644               0.003116689               0.001616044               0.000000000               0.000000000               0.000000000               0.000000000              -0.001118982               0.007550575              -0.000517950              -0.001363437               0.002971312               0.001607875               0.000000000               0.000000000               0.000000000               0.000000000              -0.000858054               0.007265791              -0.000440315              -0.001229991               0.002831903               0.001601912               0.000000000               0.000000000               0.000000000               0.000000000              -0.000623436               0.006974477              -0.000378866              -0.001105595               0.002693334               0.001587739               0.000000000               0.000000000               0.000000000               0.000000000              -0.000431774               0.006674267              -0.000323162              -0.000996196               0.002556799               0.001560603               0.000000000               0.000000000               0.000000000               0.000000000              -0.000289829               0.006388130              -0.000264105              -0.000907200               0.002431755               0.001524555               0.000000000               0.000000000               0.000000000               0.000000000              -0.000202523               0.006127991              -0.000196314              -0.000841943               0.002323291               0.001481348               0.000000000               0.000000000               0.000000000               0.000000000              -0.000158799               0.005898719              -0.000124815              -0.000796887               0.002231849               0.001434962               0.000000000               0.000000000               0.000000000               0.000000000              -0.000142260               0.005689844              -0.000058802              -0.000764576               0.002151454               0.001386878               0.000000000               0.000000000               0.000000000               0.000000000              -0.000139455               0.005487937              -0.000010405              -0.000738286               0.002075389               0.001337103               0.000000000               0.000000000               0.000000000               0.000000000              -0.000128125               0.005303428               0.000009951              -0.000710973               0.002004783               0.001293809               0.000000000               0.000000000               0.000000000               0.000000000              -0.000113336               0.005211218               0.000014080              -0.000693901               0.001968356               0.001274454               0.000000000               0.000000000               0.000000000               0.000000000              -0.000153920               0.004431059              -0.001928031              -0.000611602               0.001680872               0.001069269               0.000000000               0.000000000               0.000000000               0.000000000              -0.001135977               0.005821342              -0.001954405              -0.001153657               0.002324980               0.001171323               0.000000000               0.000000000               0.000000000               0.000000000              -0.002014280               0.007313443              -0.001782081              -0.001669532               0.002994300               0.001324768               0.000000000               0.000000000               0.000000000               0.000000000              -0.001981163               0.007673633              -0.001454219              -0.001702137               0.003125231               0.001423094               0.000000000               0.000000000               0.000000000               0.000000000              -0.001729686               0.007663740              -0.001186512              -0.001606596               0.003090086               0.001483490               0.000000000               0.000000000               0.000000000               0.000000000              -0.001440411               0.007523806              -0.000986831              -0.001480626               0.003001452               0.001520826               0.000000000               0.000000000               0.000000000               0.000000000              -0.001155856               0.007340985              -0.000833877              -0.001351066               0.002897326               0.001546260               0.000000000               0.000000000               0.000000000               0.000000000              -0.000889146               0.007136406              -0.000716318              -0.001225478               0.002787271               0.001561793               0.000000000               0.000000000               0.000000000               0.000000000              -0.000650845               0.006890262              -0.000616918              -0.001105347               0.002665180               0.001559833               0.000000000               0.000000000               0.000000000               0.000000000              -0.000451270               0.006614394              -0.000523881              -0.000996023               0.002536784               0.001540760               0.000000000               0.000000000               0.000000000               0.000000000              -0.000303109               0.006326404              -0.000430832              -0.000904464               0.002410268               0.001505804               0.000000000               0.000000000               0.000000000               0.000000000              -0.000210835               0.006050192              -0.000331310              -0.000835335               0.002295155               0.001459820               0.000000000               0.000000000               0.000000000               0.000000000              -0.000171095               0.005801887              -0.000230368              -0.000789394               0.002197074               0.001407680               0.000000000               0.000000000               0.000000000               0.000000000              -0.000168247               0.005579588              -0.000136372              -0.000760539               0.002113357               0.001352818               0.000000000               0.000000000               0.000000000               0.000000000              -0.000190763               0.005370446              -0.000063557              -0.000742840               0.002037744               0.001294904               0.000000000               0.000000000               0.000000000               0.000000000              -0.000226759               0.005172138              -0.000021127              -0.000731550               0.001967879               0.001236329               0.000000000               0.000000000               0.000000000               0.000000000              -0.000240100               0.005078710              -0.000007746              -0.000724874               0.001934511               0.001209637               0.000000000               0.000000000               0.000000000               0.000000000              -0.001285635               0.002871674              -0.001212336              -0.000841071               0.001237572               0.000396501               0.000000000               0.000000000               0.000000000               0.000000000              -0.001630278               0.004467854              -0.001760414              -0.001169834               0.001879214               0.000709380               0.000000000               0.000000000               0.000000000               0.000000000              -0.002148917               0.006159312              -0.002068622              -0.001575755               0.002578334               0.001002579               0.000000000               0.000000000               0.000000000               0.000000000              -0.002044044               0.006818816              -0.001866724              -0.001618865               0.002812537               0.001193672               0.000000000               0.000000000               0.000000000               0.000000000              -0.001770446               0.007053419              -0.001601709              -0.001545591               0.002866313               0.001320722               0.000000000               0.000000000               0.000000000               0.000000000              -0.001475858               0.007095535              -0.001369425              -0.001440385               0.002845283               0.001404897               0.000000000               0.000000000               0.000000000               0.000000000              -0.001187068               0.007055776              -0.001178884              -0.001327119               0.002794275               0.001467155               0.000000000               0.000000000               0.000000000               0.000000000              -0.000919195               0.006960223              -0.001024731              -0.001214723               0.002724959               0.001510235               0.000000000               0.000000000               0.000000000               0.000000000              -0.000684296               0.006792449              -0.000894979              -0.001105665               0.002632682               0.001527017               0.000000000               0.000000000               0.000000000               0.000000000              -0.000476775               0.006574234              -0.000774096              -0.001000567               0.002524912               0.001524344               0.000000000               0.000000000               0.000000000               0.000000000              -0.000309517               0.006325633              -0.000652492              -0.000906771               0.002410780               0.001504009               0.000000000               0.000000000               0.000000000               0.000000000              -0.000189524               0.006064879              -0.000527533              -0.000829179               0.002297999               0.001468820               0.000000000               0.000000000               0.000000000               0.000000000              -0.000123140               0.005808868              -0.000403479              -0.000772284               0.002193698               0.001421414               0.000000000               0.000000000               0.000000000               0.000000000              -0.000110767               0.005571375              -0.000282984              -0.000737957               0.002103092               0.001365135               0.000000000               0.000000000               0.000000000               0.000000000              -0.000147159               0.005356442              -0.000169214              -0.000724738               0.002027042               0.001302304               0.000000000               0.000000000               0.000000000               0.000000000              -0.000229545               0.005165104              -0.000074538              -0.000731716               0.001965589               0.001233874               0.000000000               0.000000000               0.000000000               0.000000000              -0.000297572               0.005066276              -0.000026913              -0.000744872               0.001937032               0.001192160               0.000000000               0.000000000               0.000000000               0.000000000              -0.002611420               0.001580910              -0.000541294              -0.001176894               0.000919262              -0.000257633               0.000000000               0.000000000               0.000000000               0.000000000              -0.002230264               0.003193657              -0.001476378              -0.001235554               0.001476392               0.000240838               0.000000000               0.000000000               0.000000000               0.000000000              -0.002239536               0.004872174              -0.002173014              -0.001448845               0.002106989               0.000658144               0.000000000               0.000000000               0.000000000               0.000000000              -0.002002823               0.005744302              -0.002134442              -0.001469094               0.002404445               0.000935352               0.000000000               0.000000000               0.000000000               0.000000000              -0.001702136               0.006205977              -0.001916968              -0.001414045               0.002539986               0.001125941               0.000000000               0.000000000               0.000000000               0.000000000              -0.001407354               0.006445789              -0.001683727              -0.001333479               0.002593067               0.001259589               0.000000000               0.000000000               0.000000000               0.000000000              -0.001126265               0.006567661              -0.001478645              -0.001243305               0.002603633               0.001360329               0.000000000               0.000000000               0.000000000               0.000000000              -0.000865126               0.006601047              -0.001304754              -0.001149551               0.002583510               0.001433960               0.000000000               0.000000000               0.000000000               0.000000000              -0.000633056               0.006541832              -0.001155307              -0.001055123               0.002532296               0.001477173               0.000000000               0.000000000               0.000000000               0.000000000              -0.000427112               0.006414167              -0.001014144              -0.000961936               0.002458680               0.001496744               0.000000000               0.000000000               0.000000000               0.000000000              -0.000252798               0.006236747              -0.000873062              -0.000874391               0.002370358               0.001495968               0.000000000               0.000000000               0.000000000               0.000000000              -0.000109124               0.006028409              -0.000734216              -0.000794471               0.002274273               0.001479802               0.000000000               0.000000000               0.000000000               0.000000000              -0.000003481               0.005797364              -0.000594941              -0.000725974               0.002174427               0.001448452               0.000000000               0.000000000               0.000000000               0.000000000               0.000046593               0.005563012              -0.000450904              -0.000677903               0.002080286               0.001402384               0.000000000               0.000000000               0.000000000               0.000000000               0.000034024               0.005349237              -0.000299981              -0.000655894               0.002001692               0.001345798               0.000000000               0.000000000               0.000000000               0.000000000              -0.000045046               0.005165799              -0.000148144              -0.000662615               0.001942788               0.001280172               0.000000000               0.000000000               0.000000000               0.000000000              -0.000130583               0.005065287              -0.000063111              -0.000682128               0.001915788               0.001233660               0.000000000               0.000000000               0.000000000               0.000000000              -0.004039020               0.000620170              -0.000002864              -0.001592152               0.000737436              -0.000854716               0.000000000               0.000000000               0.000000000               0.000000000              -0.002899246               0.002065880              -0.001138262              -0.001345450               0.001137102              -0.000208348               0.000000000               0.000000000               0.000000000               0.000000000              -0.002308582               0.003557642              -0.002071130              -0.001310421               0.001622675               0.000312254               0.000000000               0.000000000               0.000000000               0.000000000              -0.001879737               0.004538477              -0.002181611              -0.001272209               0.001936879               0.000664670               0.000000000               0.000000000               0.000000000               0.000000000              -0.001527414               0.005178055              -0.002041580              -0.001220035               0.002132679               0.000912644               0.000000000               0.000000000               0.000000000               0.000000000              -0.001224184               0.005599591              -0.001842411              -0.001159016               0.002252850               0.001093834               0.000000000               0.000000000               0.000000000               0.000000000              -0.000951388               0.005886786              -0.001649428              -0.001092617               0.002326447               0.001233831               0.000000000               0.000000000               0.000000000               0.000000000              -0.000704493               0.006056340              -0.001478600              -0.001021226               0.002359168               0.001337942               0.000000000               0.000000000               0.000000000               0.000000000              -0.000484397               0.006117271              -0.001326566              -0.000946306               0.002354505               0.001408199               0.000000000               0.000000000               0.000000000               0.000000000              -0.000285652               0.006102391              -0.001177232              -0.000869917               0.002324082               0.001454165               0.000000000               0.000000000               0.000000000               0.000000000              -0.000104400               0.006023098              -0.001031043              -0.000792036               0.002271691               0.001479655               0.000000000               0.000000000               0.000000000               0.000000000               0.000059429               0.005893297              -0.000892350              -0.000714375               0.002202537               0.001488163               0.000000000               0.000000000               0.000000000               0.000000000               0.000201724               0.005725248              -0.000749768              -0.000640008               0.002121733               0.001481725               0.000000000               0.000000000               0.000000000               0.000000000               0.000309228               0.005533614              -0.000593254              -0.000575740               0.002036433               0.001460693               0.000000000               0.000000000               0.000000000               0.000000000               0.000365502               0.005340834              -0.000417451              -0.000530540               0.001957107               0.001426567               0.000000000               0.000000000               0.000000000               0.000000000               0.000353052               0.005166150              -0.000219625              -0.000513373               0.001893157               0.001379784               0.000000000               0.000000000               0.000000000               0.000000000               0.000308861               0.005074556              -0.000109265              -0.000518495               0.001864333               0.001345838               0.000000000               0.000000000               0.000000000               0.000000000              -0.005423704              -0.000016918               0.000324009              -0.002031772               0.000671614              -0.001360159               0.000000000               0.000000000               0.000000000               0.000000000              -0.003576534               0.001148103              -0.000793195              -0.001484711               0.000877598              -0.000607113               0.000000000               0.000000000               0.000000000               0.000000000              -0.002370064               0.002343572              -0.001764192              -0.001181719               0.001175088              -0.000006631               0.000000000               0.000000000               0.000000000               0.000000000              -0.001711002               0.003338378              -0.001966936              -0.001058921               0.001465754               0.000406833               0.000000000               0.000000000               0.000000000               0.000000000              -0.001279134               0.004090532              -0.001903696              -0.000990990               0.001693826               0.000702836               0.000000000               0.000000000               0.000000000               0.000000000              -0.000954665               0.004652295              -0.001759104              -0.000939535               0.001863927               0.000924392               0.000000000               0.000000000               0.000000000               0.000000000              -0.000683657               0.005079173              -0.001603594              -0.000891267               0.001990129               0.001098862               0.000000000               0.000000000               0.000000000               0.000000000              -0.000449460               0.005376469              -0.001457089              -0.000840605               0.002072340               0.001231735               0.000000000               0.000000000               0.000000000               0.000000000              -0.000245872               0.005560735              -0.001318821              -0.000787293               0.002115990               0.001328698               0.000000000               0.000000000               0.000000000               0.000000000              -0.000058033               0.005657169              -0.001183356              -0.000728907               0.002128673               0.001399766               0.000000000               0.000000000               0.000000000               0.000000000               0.000125984               0.005680063              -0.001052698              -0.000662763               0.002114256               0.001451493               0.000000000               0.000000000               0.000000000               0.000000000               0.000307875               0.005647728              -0.000927856              -0.000590512               0.002079394               0.001488883               0.000000000               0.000000000               0.000000000               0.000000000               0.000483501               0.005566552              -0.000797642              -0.000514505               0.002027000               0.001512495               0.000000000               0.000000000               0.000000000               0.000000000               0.000651150               0.005449630              -0.000649500              -0.000437021               0.001962199               0.001525177               0.000000000               0.000000000               0.000000000               0.000000000               0.000799607               0.005307397              -0.000470728              -0.000363571               0.001890305               0.001526734               0.000000000               0.000000000               0.000000000               0.000000000               0.000911149               0.005155721              -0.000253301              -0.000302784               0.001819484               0.001516701               0.000000000               0.000000000               0.000000000               0.000000000               0.000970008               0.005085799              -0.000136930              -0.000271971               0.001785906               0.001513935               0.000000000               0.000000000               0.000000000               0.000000000              -0.006591192              -0.000383336               0.000403740              -0.002423778               0.000680143              -0.001743635               0.000000000               0.000000000               0.000000000               0.000000000              -0.004171441               0.000482536              -0.000482302              -0.001624606               0.000702376              -0.000922230               0.000000000               0.000000000               0.000000000               0.000000000              -0.002426200               0.001363914              -0.001280791              -0.001080313               0.000814736              -0.000265577               0.000000000               0.000000000               0.000000000               0.000000000              -0.001538963               0.002307640              -0.001491786              -0.000865565               0.001057726               0.000192162               0.000000000               0.000000000               0.000000000               0.000000000              -0.001016351               0.003110853              -0.001480615              -0.000769987               0.001293602               0.000523615               0.000000000               0.000000000               0.000000000               0.000000000              -0.000659325               0.003763672              -0.001393153              -0.000717705               0.001493779               0.000776075               0.000000000               0.000000000               0.000000000               0.000000000              -0.000383621               0.004294729              -0.001287824              -0.000680698               0.001658461               0.000977763               0.000000000               0.000000000               0.000000000               0.000000000              -0.000161739               0.004695123              -0.001181223              -0.000647542               0.001780872               0.001133331               0.000000000               0.000000000               0.000000000               0.000000000               0.000026732               0.004978917              -0.001076331              -0.000612339               0.001863735               0.001251396               0.000000000               0.000000000               0.000000000               0.000000000               0.000205740               0.005172347              -0.000974295              -0.000569390               0.001913895               0.001344505               0.000000000               0.000000000               0.000000000               0.000000000               0.000388537               0.005290491              -0.000876219              -0.000515609               0.001935349               0.001419740               0.000000000               0.000000000               0.000000000               0.000000000               0.000580414               0.005351820              -0.000781302              -0.000451321               0.001934362               0.001483041               0.000000000               0.000000000               0.000000000               0.000000000               0.000784212               0.005359944              -0.000682258              -0.000375913               0.001911934               0.001536022               0.000000000               0.000000000               0.000000000               0.000000000               0.001004451               0.005323383              -0.000566116              -0.000288753               0.001870694               0.001581941               0.000000000               0.000000000               0.000000000               0.000000000               0.001240994               0.005245286              -0.000418255              -0.000190288               0.001811840               0.001621553               0.000000000               0.000000000               0.000000000               0.000000000               0.001496147               0.005131276              -0.000229146              -0.000080355               0.001737193               0.001656839               0.000000000               0.000000000               0.000000000               0.000000000               0.001686906               0.005089446              -0.000130726              -0.000003591               0.001697662               0.001694071               0.000000000               0.000000000               0.000000000               0.000000000              -0.007370959              -0.000556151               0.000266404              -0.002694589               0.000712808              -0.001981781               0.000000000               0.000000000               0.000000000               0.000000000              -0.004583316               0.000085236              -0.000223017              -0.001729396               0.000604873              -0.001124523               0.000000000               0.000000000               0.000000000               0.000000000              -0.002470989               0.000729364              -0.000674063              -0.001017790               0.000582381              -0.000435410               0.000000000               0.000000000               0.000000000               0.000000000              -0.001411181               0.001607781              -0.000806812              -0.000730164               0.000779309               0.000049145               0.000000000               0.000000000               0.000000000               0.000000000              -0.000812246               0.002423715              -0.000812613              -0.000607555               0.001010415               0.000402860               0.000000000               0.000000000               0.000000000               0.000000000              -0.000426643               0.003125344              -0.000772894              -0.000550658               0.001225323               0.000674665               0.000000000               0.000000000               0.000000000               0.000000000              -0.000146776               0.003719861              -0.000720376              -0.000520023               0.001413282               0.000893259               0.000000000               0.000000000               0.000000000               0.000000000               0.000067854               0.004187512              -0.000664479              -0.000497993               0.001561821               0.001063828               0.000000000               0.000000000               0.000000000               0.000000000               0.000248229               0.004534978              -0.000608606              -0.000473785               0.001669573               0.001195787               0.000000000               0.000000000               0.000000000               0.000000000               0.000419453               0.004791011              -0.000554405              -0.000441581               0.001744181               0.001302601               0.000000000               0.000000000               0.000000000               0.000000000               0.000599813               0.004978730              -0.000500851              -0.000397411               0.001792030               0.001394619               0.000000000               0.000000000               0.000000000               0.000000000               0.000798863               0.005110828              -0.000449026              -0.000339279               0.001816686               0.001477406               0.000000000               0.000000000               0.000000000               0.000000000               0.001022082               0.005186297              -0.000396096              -0.000265006               0.001817084               0.001552078               0.000000000               0.000000000               0.000000000               0.000000000               0.001279806               0.005211325              -0.000331190              -0.000171488               0.001794254               0.001622765               0.000000000               0.000000000               0.000000000               0.000000000               0.001584824               0.005185079              -0.000248142              -0.000053826               0.001746284               0.001692458               0.000000000               0.000000000               0.000000000               0.000000000               0.001952120               0.005106568              -0.000138996               0.000093723               0.001670931               0.001764654               0.000000000               0.000000000               0.000000000               0.000000000               0.002251039               0.005090598              -0.000082170               0.000207813               0.001627578               0.001835391               0.000000000               0.000000000               0.000000000               0.000000000               0.000000000               0.000000000               0.000000000               0.000000000               0.000000000               0.000000000               0.000000000               0.000000000               0.000000000               0.000000000               0.000000000               0.000000000               0.000000000               0.000000000               0.000000000               0.000000000               0.000000000               0.000000000               0.000000000               0.000000000               0.000000000               0.000000000               0.000000000               0.000000000               0.000000000               0.000000000               0.000000000               0.000000000               0.000000000               0.000000000               0.000000000               0.000000000               0.000000000               0.000000000               0.000000000               0.000000000               0.000000000               0.000000000               0.000000000               0.000000000               0.000000000               0.000000000               0.000000000               0.000000000               0.000000000               0.000000000               0.000000000               0.000000000               0.000000000               0.000000000               0.000000000               0.000000000               0.000000000               0.000000000               0.000000000               0.000000000               0.000000000               0.000000000               0.000000000               0.000000000               0.000000000               0.000000000               0.000000000               0.000000000               0.000000000               0.000000000               0.000000000               0.000000000               0.000000000               0.000000000               0.000000000               0.000000000               0.000000000               0.000000000               0.000000000               0.000000000               0.000000000               0.000000000               0.000000000               0.000000000               0.000000000               0.000000000               0.000000000               0.000000000               0.000000000               0.000000000               0.000000000               0.000000000               0.000000000               0.000000000               0.000000000               0.000000000               0.000000000               0.000000000               0.000000000               0.000000000               0.000000000               0.000000000               0.000000000               0.000000000               0.000000000               0.000000000               0.000000000               0.000000000               0.000000000               0.000000000               0.000000000               0.000000000               0.000000000               0.000000000               0.000000000               0.000000000               0.000000000               0.000000000               0.000000000               0.000000000               0.000000000               0.000000000               0.000000000               0.000000000               0.000000000               0.000000000               0.000000000               0.000000000               0.000000000               0.000000000               0.000000000               0.000000000               0.000000000               0.000000000               0.000000000               0.000000000               0.000000000               0.000000000               0.000000000               0.000000000               0.000000000               0.000000000               0.000000000               0.000000000               0.000000000               0.000000000               0.000000000               0.000000000               0.000000000               0.000000000               0.000000000               0.000000000               0.000000000               0.000000000               0.000000000               0.000000000               0.000000000               0.000000000               0.000000000               0.000000000               0.000000000               0.000000000               0.000000000               0.000000000               0.000000000               0.000000000               0.000000000               0.000000000               0.000000000               0.000000000               0.000000000               0.000000000               0.000000000               0.000000000               0.000000000               0.000000000               0.000000000               0.000000000               0.000000000               0.000000000               0.000000000               0.000000000               0.000000000               0.000000000               0.000000000               0.000000000               0.000000000               0.000000000               0.000000000               0.000000000               0.000000000               0.000000000               0.000000000               0.000000000               0.000000000               0.000000000               0.000000000               0.000000000               0.000000000               0.000000000               0.000000000               0.000000000               0.000000000               0.000000000               0.000000000               0.000000000               0.000000000               0.000000000               0.000000000               0.000000000               0.000000000               0.000000000               0.000000000               0.000000000               0.000000000               0.000000000               0.000000000               0.000000000               0.000000000               0.000000000               0.000000000               0.000000000               0.000000000               0.000000000               0.000000000               0.000000000               0.000000000               0.000000000               0.000000000               0.000000000               0.000000000               0.000000000               0.000000000               0.000000000               0.000000000               0.000000000               0.000000000               0.000000000               0.000000000               0.000000000               0.000000000               0.000000000               0.000000000               0.000000000               0.000000000               0.000000000               0.000000000               0.000000000               0.000000000               0.000000000               0.000000000               0.000000000               0.000000000               0.000000000               0.000000000               0.000000000               0.000000000               0.000000000               0.000000000               0.000000000               0.000000000               0.000000000               0.000000000               0.000000000               0.000000000               0.000000000               0.000000000               0.000000000               0.000000000               0.000000000               0.000000000               0.000000000               0.000000000               0.000000000               0.000000000               0.000000000               0.000000000               0.000000000               0.000000000               0.000000000               0.000000000               0.000000000               0.000000000               0.000000000               0.000000000               0.000000000               0.000000000               0.000000000               0.000000000               0.000000000               0.000000000               0.000000000               0.000000000               0.000000000               0.000000000               0.000000000               0.000000000               0.000000000               0.000000000               0.000000000               0.000000000               0.000000000               0.000000000               0.000000000               0.000000000               0.000000000               0.000000000               0.000000000               0.000000000               0.000000000               0.000000000               0.000000000               0.000000000               0.000000000               0.000000000               0.000000000               0.000000000               0.000000000               0.000000000               0.000000000               0.000000000               0.000000000               0.000000000               0.000000000               0.000000000               0.000000000               0.000000000               0.000000000               0.000000000               0.000000000               0.000000000               0.000000000               0.000000000               0.000000000               0.000000000               0.000000000               0.000000000               0.000000000               0.000000000               0.000000000               0.000000000               0.000000000               0.000000000               0.000000000               0.001899027               0.019937996               0.001408355              -0.001780110               0.007239302               0.005459192               0.000000000               0.000000000               0.000000000               0.000000000               0.001806411               0.015822446               0.000736815              -0.001300398               0.005707562               0.004407164               0.000000000               0.000000000               0.000000000               0.000000000               0.002298982               0.012535597               0.000068490              -0.000704830               0.004413434               0.003708604               0.000000000               0.000000000               0.000000000               0.000000000               0.002189588               0.010694121              -0.000215388              -0.000515668               0.003736561               0.003220892               0.000000000               0.000000000               0.000000000               0.000000000               0.001909001               0.009551214              -0.000333041              -0.000478025               0.003343048               0.002865023               0.000000000               0.000000000               0.000000000               0.000000000               0.001599002               0.008773578              -0.000375726              -0.000497070               0.003090187               0.002593116               0.000000000               0.000000000               0.000000000               0.000000000               0.001309937               0.008202303              -0.000384972              -0.000534060               0.002912094               0.002378034               0.000000000               0.000000000               0.000000000               0.000000000               0.001054853               0.007753031              -0.000376723              -0.000573558               0.002775504               0.002201946               0.000000000               0.000000000               0.000000000               0.000000000               0.000837550               0.007376672              -0.000361349              -0.000608001               0.002661533               0.002053532               0.000000000               0.000000000               0.000000000               0.000000000               0.000653308               0.007038628              -0.000341930              -0.000634837               0.002557798               0.001922961               0.000000000               0.000000000               0.000000000               0.000000000               0.000494653               0.006717593              -0.000322024              -0.000654203               0.002457243               0.001803040               0.000000000               0.000000000               0.000000000               0.000000000               0.000354524               0.006403907              -0.000303770              -0.000667540               0.002357128               0.001689588               0.000000000               0.000000000               0.000000000               0.000000000               0.000233214               0.006089774              -0.000277678              -0.000673765               0.002254493               0.001580728               0.000000000               0.000000000               0.000000000               0.000000000               0.000140396               0.005762575              -0.000236538              -0.000667672               0.002143396               0.001475725               0.000000000               0.000000000               0.000000000               0.000000000               0.000074200               0.005406792              -0.000181931              -0.000648023               0.002018254               0.001370231               0.000000000               0.000000000               0.000000000               0.000000000               0.000030966               0.005012345              -0.000105830              -0.000614929               0.001875741               0.001260812               0.000000000               0.000000000               0.000000000               0.000000000              -0.000014891               0.004718477              -0.000065772              -0.000595392               0.001771274               0.001175882               0.000000000               0.000000000               0.000000000               0.000000000               0.002079093               0.018770013               0.002622078              -0.001566589               0.006778805               0.005212215               0.000000000               0.000000000               0.000000000               0.000000000               0.001718560               0.015067568               0.001372989              -0.001238983               0.005435467               0.004196483               0.000000000               0.000000000               0.000000000               0.000000000               0.001923889               0.012205911               0.000139616              -0.000804279               0.004336689               0.003532411               0.000000000               0.000000000               0.000000000               0.000000000               0.001709630               0.010582529              -0.000366984              -0.000681703               0.003754709               0.003073006               0.000000000               0.000000000               0.000000000               0.000000000               0.001412186               0.009547686              -0.000570739              -0.000663889               0.003403827               0.002739937               0.000000000               0.000000000               0.000000000               0.000000000               0.001126830               0.008825835              -0.000639861              -0.000680666               0.003168805               0.002488138               0.000000000               0.000000000               0.000000000               0.000000000               0.000876619               0.008279491              -0.000650658              -0.000706203               0.002995204               0.002289001               0.000000000               0.000000000               0.000000000               0.000000000               0.000669726               0.007837749              -0.000635271              -0.000728570               0.002855413               0.002126844               0.000000000               0.000000000               0.000000000               0.000000000               0.000506381               0.007460257              -0.000607089              -0.000742638               0.002734273               0.001991636               0.000000000               0.000000000               0.000000000               0.000000000               0.000375274               0.007120894              -0.000570386              -0.000749382               0.002623402               0.001874020               0.000000000               0.000000000               0.000000000               0.000000000               0.000265677               0.006804792              -0.000531529              -0.000750968               0.002518564               0.001767596               0.000000000               0.000000000               0.000000000               0.000000000               0.000176483               0.006503087              -0.000493973              -0.000746703               0.002416575               0.001669872               0.000000000               0.000000000               0.000000000               0.000000000               0.000105589               0.006206741              -0.000446311              -0.000736245               0.002314308               0.001578063               0.000000000               0.000000000               0.000000000               0.000000000               0.000054758               0.005913720              -0.000375927              -0.000718679               0.002210780               0.001492101               0.000000000               0.000000000               0.000000000               0.000000000               0.000021742               0.005623270              -0.000283667              -0.000694754               0.002105989               0.001411235               0.000000000               0.000000000               0.000000000               0.000000000               0.000004786               0.005337824              -0.000161155              -0.000665432               0.002001067               0.001335636               0.000000000               0.000000000               0.000000000               0.000000000              -0.000017047               0.005147762              -0.000095930              -0.000649861               0.001932524               0.001282663               0.000000000               0.000000000               0.000000000               0.000000000               0.002280964               0.016989757               0.003501610              -0.001268357               0.006085981               0.004817624               0.000000000               0.000000000               0.000000000               0.000000000               0.001544021               0.013929894               0.001845338              -0.001162227               0.005030660               0.003868434               0.000000000               0.000000000               0.000000000               0.000000000               0.001348458               0.011709837               0.000229498              -0.000958056               0.004222592               0.003264536               0.000000000               0.000000000               0.000000000               0.000000000               0.001014145               0.010394509              -0.000400614              -0.000919007               0.003771138               0.002852130               0.000000000               0.000000000               0.000000000               0.000000000               0.000715344               0.009508182              -0.000642526              -0.000920267               0.003476118               0.002555851               0.000000000               0.000000000               0.000000000               0.000000000               0.000479085               0.008855005              -0.000720563              -0.000927217               0.003260711               0.002333494               0.000000000               0.000000000               0.000000000               0.000000000               0.000301315               0.008339687              -0.000730147              -0.000929466               0.003089690               0.002160224               0.000000000               0.000000000               0.000000000               0.000000000               0.000175031               0.007910668              -0.000708955              -0.000923195               0.002944595               0.002021400               0.000000000               0.000000000               0.000000000               0.000000000               0.000085799               0.007533867              -0.000673700              -0.000909557               0.002814449               0.001904893               0.000000000               0.000000000               0.000000000               0.000000000               0.000023702               0.007196904              -0.000629311              -0.000890723               0.002695852               0.001805129               0.000000000               0.000000000               0.000000000               0.000000000              -0.000019870               0.006889371              -0.000581930              -0.000868620               0.002585974               0.001717354               0.000000000               0.000000000               0.000000000               0.000000000              -0.000043959               0.006603295              -0.000532354              -0.000841894               0.002481708               0.001639813               0.000000000               0.000000000               0.000000000               0.000000000              -0.000047936               0.006334320              -0.000470738              -0.000809764               0.002381340               0.001571576               0.000000000               0.000000000               0.000000000               0.000000000              -0.000036445               0.006090763              -0.000389869              -0.000775011               0.002288571               0.001513560               0.000000000               0.000000000               0.000000000               0.000000000              -0.000020356               0.005885715              -0.000288811              -0.000743346               0.002209667               0.001466321               0.000000000               0.000000000               0.000000000               0.000000000              -0.000008878               0.005727028              -0.000160315              -0.000719206               0.002148725               0.001429520               0.000000000               0.000000000               0.000000000               0.000000000              -0.000007835               0.005649116              -0.000089128              -0.000709076               0.002119379               0.001410303               0.000000000               0.000000000               0.000000000               0.000000000               0.002388750               0.014815440               0.003973404              -0.000956150               0.005257146               0.004300997               0.000000000               0.000000000               0.000000000               0.000000000               0.001259271               0.012558045               0.002132200              -0.001097528               0.004551815               0.003454288               0.000000000               0.000000000               0.000000000               0.000000000               0.000644933               0.011099554               0.000359574              -0.001145591               0.004081678               0.002936087               0.000000000               0.000000000               0.000000000               0.000000000               0.000225918               0.010122506              -0.000293766              -0.001180591               0.003767665               0.002587074               0.000000000               0.000000000               0.000000000               0.000000000              -0.000034935               0.009393975              -0.000534146              -0.001187345               0.003527075               0.002339731               0.000000000               0.000000000               0.000000000               0.000000000              -0.000188839               0.008814536              -0.000611120              -0.001172629               0.003329026               0.002156397               0.000000000               0.000000000               0.000000000               0.000000000              -0.000269219               0.008331770              -0.000623031              -0.001142426               0.003158037               0.002015612               0.000000000               0.000000000               0.000000000               0.000000000              -0.000300152               0.007914635              -0.000604115              -0.001101884               0.003005480               0.001903596               0.000000000               0.000000000               0.000000000               0.000000000              -0.000304789               0.007545955              -0.000569515              -0.001057538               0.002867806               0.001810268               0.000000000               0.000000000               0.000000000               0.000000000              -0.000288090               0.007215231              -0.000527884              -0.001009935               0.002741698               0.001731763               0.000000000               0.000000000               0.000000000               0.000000000              -0.000252307               0.006916792              -0.000482646              -0.000959212               0.002625312               0.001666100               0.000000000               0.000000000               0.000000000               0.000000000              -0.000204893               0.006648830              -0.000432478              -0.000907936               0.002518900               0.001610964               0.000000000               0.000000000               0.000000000               0.000000000              -0.000149662               0.006417481              -0.000369547              -0.000858306               0.002425241               0.001566935               0.000000000               0.000000000               0.000000000               0.000000000              -0.000092802               0.006230005              -0.000294619              -0.000813549               0.002347831               0.001534281               0.000000000               0.000000000               0.000000000               0.000000000              -0.000045649               0.006095918              -0.000209134              -0.000779106               0.002291654               0.001512548               0.000000000               0.000000000               0.000000000               0.000000000              -0.000017046               0.006018909              -0.000109748              -0.000758754               0.002259201               0.001500447               0.000000000               0.000000000               0.000000000               0.000000000              -0.000005700               0.005996940              -0.000056161              -0.000751753               0.002249544               0.001497791               0.000000000               0.000000000               0.000000000               0.000000000               0.002304492               0.012466795               0.004050540              -0.000694167               0.004386945               0.003692778               0.000000000               0.000000000               0.000000000               0.000000000               0.000862728               0.011098130               0.002259488              -0.001063742               0.004053920               0.002990178               0.000000000               0.000000000               0.000000000               0.000000000              -0.000095426               0.010429412               0.000546522              -0.001339458               0.003922922               0.002583464               0.000000000               0.000000000               0.000000000               0.000000000              -0.000525532               0.009770757              -0.000058994              -0.001418415               0.003729691               0.002311276               0.000000000               0.000000000               0.000000000               0.000000000              -0.000701514               0.009184196              -0.000281718              -0.001411089               0.003531731               0.002120642               0.000000000               0.000000000               0.000000000               0.000000000              -0.000750305               0.008671719              -0.000362815              -0.001365326               0.003345653               0.001980327               0.000000000               0.000000000               0.000000000               0.000000000              -0.000728712               0.008226298              -0.000383430              -0.001301551               0.003175922               0.001874371               0.000000000               0.000000000               0.000000000               0.000000000              -0.000666614               0.007830986              -0.000375378              -0.001228850               0.003019920               0.001791069               0.000000000               0.000000000               0.000000000               0.000000000              -0.000582037               0.007478954              -0.000352320              -0.001153130               0.002877337               0.001724206               0.000000000               0.000000000               0.000000000               0.000000000              -0.000486054               0.007159905              -0.000320757              -0.001077256               0.002745696               0.001668441               0.000000000               0.000000000               0.000000000               0.000000000              -0.000384045               0.006876630              -0.000284165              -0.001003593               0.002626718               0.001623125               0.000000000               0.000000000               0.000000000               0.000000000              -0.000285450               0.006631562              -0.000245191              -0.000935987               0.002522494               0.001586507               0.000000000               0.000000000               0.000000000               0.000000000              -0.000195531               0.006428337              -0.000198654              -0.000876864               0.002435045               0.001558181               0.000000000               0.000000000               0.000000000               0.000000000              -0.000120939               0.006271487              -0.000148868              -0.000829286               0.002366903               0.001537617               0.000000000               0.000000000               0.000000000               0.000000000              -0.000063844               0.006161104              -0.000101452              -0.000794078               0.002318373               0.001524296               0.000000000               0.000000000               0.000000000               0.000000000              -0.000023886               0.006085513              -0.000050272              -0.000769645               0.002285032               0.001515388               0.000000000               0.000000000               0.000000000               0.000000000              -0.000016274               0.006041658              -0.000027921              -0.000761308               0.002267635               0.001506327               0.000000000               0.000000000               0.000000000               0.000000000               0.001974942               0.010141394               0.003797924              -0.000527073               0.003556121               0.003029048               0.000000000               0.000000000               0.000000000               0.000000000               0.000378847               0.009669448               0.002266155              -0.001066612               0.003578654               0.002512042               0.000000000               0.000000000               0.000000000               0.000000000              -0.000786917               0.009731469               0.000788990              -0.001511524               0.003747632               0.002236108               0.000000000               0.000000000               0.000000000               0.000000000              -0.001144838               0.009341176               0.000267124              -0.001596957               0.003646013               0.002049056               0.000000000               0.000000000               0.000000000               0.000000000              -0.001198631               0.008873980               0.000056568              -0.001558730               0.003477540               0.001918810               0.000000000               0.000000000               0.000000000               0.000000000              -0.001130202               0.008428774              -0.000039061              -0.001477419               0.003302036               0.001824618               0.000000000               0.000000000               0.000000000               0.000000000              -0.001008790               0.008028081              -0.000079507              -0.001381803               0.003136601               0.001754798               0.000000000               0.000000000               0.000000000               0.000000000              -0.000865050               0.007664529              -0.000091234              -0.001282457               0.002982303               0.001699846               0.000000000               0.000000000               0.000000000               0.000000000              -0.000710958               0.007335896              -0.000086764              -0.001183593               0.002839805               0.001656212               0.000000000               0.000000000               0.000000000               0.000000000              -0.000558411               0.007039579              -0.000073522              -0.001089349               0.002709619               0.001620270               0.000000000               0.000000000               0.000000000               0.000000000              -0.000415992               0.006773760              -0.000061105              -0.001002714               0.002592135               0.001589421               0.000000000               0.000000000               0.000000000               0.000000000              -0.000295965               0.006537821              -0.000050667              -0.000928212               0.002488656               0.001560444               0.000000000               0.000000000               0.000000000               0.000000000              -0.000203277               0.006336177              -0.000040767              -0.000868249               0.002401454               0.001533206               0.000000000               0.000000000               0.000000000               0.000000000              -0.000134548               0.006172686              -0.000036616              -0.000822039               0.002331555               0.001509515               0.000000000               0.000000000               0.000000000               0.000000000              -0.000083245               0.006039468              -0.000035558              -0.000786149               0.002275185               0.001489037               0.000000000               0.000000000               0.000000000               0.000000000              -0.000040375               0.005920039              -0.000023568              -0.000755144               0.002225041               0.001469897               0.000000000               0.000000000               0.000000000               0.000000000              -0.000039686               0.005834156              -0.000024338              -0.000744150               0.002192749               0.001448599               0.000000000               0.000000000               0.000000000               0.000000000               0.001411094               0.007984392               0.003292072              -0.000468891               0.002817733               0.002348842               0.000000000               0.000000000               0.000000000               0.000000000              -0.000171496               0.008353343               0.002189921              -0.001108478               0.003153912               0.002045434               0.000000000               0.000000000               0.000000000               0.000000000              -0.001367353               0.009015678               0.001078283              -0.001639713               0.003551767               0.001912054               0.000000000               0.000000000               0.000000000               0.000000000              -0.001577568               0.008840257               0.000635774              -0.001696616               0.003512261               0.001815646               0.000000000               0.000000000               0.000000000               0.000000000              -0.001492191               0.008483987               0.000417889              -0.001620066               0.003367989               0.001747923               0.000000000               0.000000000               0.000000000               0.000000000              -0.001313917               0.008113201               0.000297615              -0.001506865               0.003206662               0.001699797               0.000000000               0.000000000               0.000000000               0.000000000              -0.001106815               0.007759845               0.000228096              -0.001385033               0.003048267               0.001663234               0.000000000               0.000000000               0.000000000               0.000000000              -0.000895904               0.007432506               0.000187682              -0.001265024               0.002899152               0.001634128               0.000000000               0.000000000               0.000000000               0.000000000              -0.000695014               0.007129721               0.000160695              -0.001151842               0.002760497               0.001608655               0.000000000               0.000000000               0.000000000               0.000000000              -0.000512979               0.006842357               0.000139743              -0.001047659               0.002629983               0.001582324               0.000000000               0.000000000               0.000000000               0.000000000              -0.000369262               0.006569967               0.000117243              -0.000959717               0.002509873               0.001550156               0.000000000               0.000000000               0.000000000               0.000000000              -0.000267267               0.006322163               0.000087863              -0.000890493               0.002404198               0.001513704               0.000000000               0.000000000               0.000000000               0.000000000              -0.000197737               0.006107761               0.000053571              -0.000837619               0.002315107               0.001477487               0.000000000               0.000000000               0.000000000               0.000000000              -0.000149652               0.005922974               0.000016892              -0.000796489               0.002239801               0.001443312               0.000000000               0.000000000               0.000000000               0.000000000              -0.000106815               0.005755263              -0.000014608              -0.000759462               0.002171556               0.001412094               0.000000000               0.000000000               0.000000000               0.000000000              -0.000058890               0.005603661              -0.000021442              -0.000722539               0.002108715               0.001386175               0.000000000               0.000000000               0.000000000               0.000000000              -0.000049624               0.005506969              -0.000026495              -0.000706978               0.002071298               0.001364319               0.000000000               0.000000000               0.000000000               0.000000000               0.000706089               0.006148053               0.002635090              -0.000503725               0.002217238               0.001713513               0.000000000               0.000000000               0.000000000               0.000000000              -0.000702879               0.007175764               0.002081209              -0.001160548               0.002778746               0.001618198               0.000000000               0.000000000               0.000000000               0.000000000              -0.001795509               0.008319377               0.001416034              -0.001713234               0.003344176               0.001630942               0.000000000               0.000000000               0.000000000               0.000000000              -0.001845121               0.008365054               0.001024030              -0.001737548               0.003367506               0.001629958               0.000000000               0.000000000               0.000000000               0.000000000              -0.001645379               0.008138384               0.000782265              -0.001634311               0.003257538               0.001623226               0.000000000               0.000000000               0.000000000               0.000000000              -0.001385228               0.007849501               0.000626462              -0.001500644               0.003116689               0.001616044               0.000000000               0.000000000               0.000000000               0.000000000              -0.001118982               0.007550575               0.000517950              -0.001363437               0.002971312               0.001607875               0.000000000               0.000000000               0.000000000               0.000000000              -0.000858054               0.007265791               0.000440315              -0.001229991               0.002831903               0.001601912               0.000000000               0.000000000               0.000000000               0.000000000              -0.000623436               0.006974477               0.000378866              -0.001105595               0.002693334               0.001587739               0.000000000               0.000000000               0.000000000               0.000000000              -0.000431774               0.006674267               0.000323162              -0.000996196               0.002556799               0.001560603               0.000000000               0.000000000               0.000000000               0.000000000              -0.000289829               0.006388130               0.000264105              -0.000907200               0.002431755               0.001524555               0.000000000               0.000000000               0.000000000               0.000000000              -0.000202523               0.006127991               0.000196314              -0.000841943               0.002323291               0.001481348               0.000000000               0.000000000               0.000000000               0.000000000              -0.000158799               0.005898719               0.000124815              -0.000796887               0.002231849               0.001434962               0.000000000               0.000000000               0.000000000               0.000000000              -0.000142260               0.005689844               0.000058802              -0.000764576               0.002151454               0.001386878               0.000000000               0.000000000               0.000000000               0.000000000              -0.000139455               0.005487937               0.000010405              -0.000738286               0.002075389               0.001337103               0.000000000               0.000000000               0.000000000               0.000000000              -0.000128125               0.005303428              -0.000009951              -0.000710973               0.002004783               0.001293809               0.000000000               0.000000000               0.000000000               0.000000000              -0.000113336               0.005211218              -0.000014080              -0.000693901               0.001968356               0.001274454               0.000000000               0.000000000               0.000000000               0.000000000              -0.000153920               0.004431059               0.001928031              -0.000611602               0.001680872               0.001069269               0.000000000               0.000000000               0.000000000               0.000000000              -0.001135977               0.005821342               0.001954405              -0.001153657               0.002324980               0.001171323               0.000000000               0.000000000               0.000000000               0.000000000              -0.002014280               0.007313443               0.001782081              -0.001669532               0.002994300               0.001324768               0.000000000               0.000000000               0.000000000               0.000000000              -0.001981163               0.007673633               0.001454219              -0.001702137               0.003125231               0.001423094               0.000000000               0.000000000               0.000000000               0.000000000              -0.001729686               0.007663740               0.001186512              -0.001606596               0.003090086               0.001483490               0.000000000               0.000000000               0.000000000               0.000000000              -0.001440411               0.007523806               0.000986831              -0.001480626               0.003001452               0.001520826               0.000000000               0.000000000               0.000000000               0.000000000              -0.001155856               0.007340985               0.000833877              -0.001351066               0.002897326               0.001546260               0.000000000               0.000000000               0.000000000               0.000000000              -0.000889146               0.007136406               0.000716318              -0.001225478               0.002787271               0.001561793               0.000000000               0.000000000               0.000000000               0.000000000              -0.000650845               0.006890262               0.000616918              -0.001105347               0.002665180               0.001559833               0.000000000               0.000000000               0.000000000               0.000000000              -0.000451270               0.006614394               0.000523881              -0.000996023               0.002536784               0.001540760               0.000000000               0.000000000               0.000000000               0.000000000              -0.000303109               0.006326404               0.000430832              -0.000904464               0.002410268               0.001505804               0.000000000               0.000000000               0.000000000               0.000000000              -0.000210835               0.006050192               0.000331310              -0.000835335               0.002295155               0.001459820               0.000000000               0.000000000               0.000000000               0.000000000              -0.000171095               0.005801887               0.000230368              -0.000789394               0.002197074               0.001407680               0.000000000               0.000000000               0.000000000               0.000000000              -0.000168247               0.005579588               0.000136372              -0.000760539               0.002113357               0.001352818               0.000000000               0.000000000               0.000000000               0.000000000              -0.000190763               0.005370446               0.000063557              -0.000742840               0.002037744               0.001294904               0.000000000               0.000000000               0.000000000               0.000000000              -0.000226759               0.005172138               0.000021127              -0.000731550               0.001967879               0.001236329               0.000000000               0.000000000               0.000000000               0.000000000              -0.000240100               0.005078710               0.000007746              -0.000724874               0.001934511               0.001209637               0.000000000               0.000000000               0.000000000               0.000000000              -0.001285635               0.002871674               0.001212336              -0.000841071               0.001237572               0.000396501               0.000000000               0.000000000               0.000000000               0.000000000              -0.001630278               0.004467854               0.001760414              -0.001169834               0.001879214               0.000709380               0.000000000               0.000000000               0.000000000               0.000000000              -0.002148917               0.006159312               0.002068622              -0.001575755               0.002578334               0.001002579               0.000000000               0.000000000               0.000000000               0.000000000              -0.002044044               0.006818816               0.001866724              -0.001618865               0.002812537               0.001193672               0.000000000               0.000000000               0.000000000               0.000000000              -0.001770446               0.007053419               0.001601709              -0.001545591               0.002866313               0.001320722               0.000000000               0.000000000               0.000000000               0.000000000              -0.001475858               0.007095535               0.001369425              -0.001440385               0.002845283               0.001404897               0.000000000               0.000000000               0.000000000               0.000000000              -0.001187068               0.007055776               0.001178884              -0.001327119               0.002794275               0.001467155               0.000000000               0.000000000               0.000000000               0.000000000              -0.000919195               0.006960223               0.001024731              -0.001214723               0.002724959               0.001510235               0.000000000               0.000000000               0.000000000               0.000000000              -0.000684296               0.006792449               0.000894979              -0.001105665               0.002632682               0.001527017               0.000000000               0.000000000               0.000000000               0.000000000              -0.000476775               0.006574234               0.000774096              -0.001000567               0.002524912               0.001524344               0.000000000               0.000000000               0.000000000               0.000000000              -0.000309517               0.006325633               0.000652492              -0.000906771               0.002410780               0.001504009               0.000000000               0.000000000               0.000000000               0.000000000              -0.000189524               0.006064879               0.000527533              -0.000829179               0.002297999               0.001468820               0.000000000               0.000000000               0.000000000               0.000000000              -0.000123140               0.005808868               0.000403479              -0.000772284               0.002193698               0.001421414               0.000000000               0.000000000               0.000000000               0.000000000              -0.000110767               0.005571375               0.000282984              -0.000737957               0.002103092               0.001365135               0.000000000               0.000000000               0.000000000               0.000000000              -0.000147159               0.005356442               0.000169214              -0.000724738               0.002027042               0.001302304               0.000000000               0.000000000               0.000000000               0.000000000              -0.000229545               0.005165104               0.000074538              -0.000731716               0.001965589               0.001233874               0.000000000               0.000000000               0.000000000               0.000000000              -0.000297572               0.005066276               0.000026913              -0.000744872               0.001937032               0.001192160               0.000000000               0.000000000               0.000000000               0.000000000              -0.002611420               0.001580910               0.000541294              -0.001176894               0.000919262              -0.000257633               0.000000000               0.000000000               0.000000000               0.000000000              -0.002230264               0.003193657               0.001476378              -0.001235554               0.001476392               0.000240838               0.000000000               0.000000000               0.000000000               0.000000000              -0.002239536               0.004872174               0.002173014              -0.001448845               0.002106989               0.000658144               0.000000000               0.000000000               0.000000000               0.000000000              -0.002002823               0.005744302               0.002134442              -0.001469094               0.002404445               0.000935352               0.000000000               0.000000000               0.000000000               0.000000000              -0.001702136               0.006205977               0.001916968              -0.001414045               0.002539986               0.001125941               0.000000000               0.000000000               0.000000000               0.000000000              -0.001407354               0.006445789               0.001683727              -0.001333479               0.002593067               0.001259589               0.000000000               0.000000000               0.000000000               0.000000000              -0.001126265               0.006567661               0.001478645              -0.001243305               0.002603633               0.001360329               0.000000000               0.000000000               0.000000000               0.000000000              -0.000865126               0.006601047               0.001304754              -0.001149551               0.002583510               0.001433960               0.000000000               0.000000000               0.000000000               0.000000000              -0.000633056               0.006541832               0.001155307              -0.001055123               0.002532296               0.001477173               0.000000000               0.000000000               0.000000000               0.000000000              -0.000427112               0.006414167               0.001014144              -0.000961936               0.002458680               0.001496744               0.000000000               0.000000000               0.000000000               0.000000000              -0.000252798               0.006236747               0.000873062              -0.000874391               0.002370358               0.001495968               0.000000000               0.000000000               0.000000000               0.000000000              -0.000109124               0.006028409               0.000734216              -0.000794471               0.002274273               0.001479802               0.000000000               0.000000000               0.000000000               0.000000000              -0.000003481               0.005797364               0.000594941              -0.000725974               0.002174427               0.001448452               0.000000000               0.000000000               0.000000000               0.000000000               0.000046593               0.005563012               0.000450904              -0.000677903               0.002080286               0.001402384               0.000000000               0.000000000               0.000000000               0.000000000               0.000034024               0.005349237               0.000299981              -0.000655894               0.002001692               0.001345798               0.000000000               0.000000000               0.000000000               0.000000000              -0.000045046               0.005165799               0.000148144              -0.000662615               0.001942788               0.001280172               0.000000000               0.000000000               0.000000000               0.000000000              -0.000130583               0.005065287               0.000063111              -0.000682128               0.001915788               0.001233660               0.000000000               0.000000000               0.000000000               0.000000000              -0.004039020               0.000620170               0.000002864              -0.001592152               0.000737436              -0.000854716               0.000000000               0.000000000               0.000000000               0.000000000              -0.002899246               0.002065880               0.001138262              -0.001345450               0.001137102              -0.000208348               0.000000000               0.000000000               0.000000000               0.000000000              -0.002308582               0.003557642               0.002071130              -0.001310421               0.001622675               0.000312254               0.000000000               0.000000000               0.000000000               0.000000000              -0.001879737               0.004538477               0.002181611              -0.001272209               0.001936879               0.000664670               0.000000000               0.000000000               0.000000000               0.000000000              -0.001527414               0.005178055               0.002041580              -0.001220035               0.002132679               0.000912644               0.000000000               0.000000000               0.000000000               0.000000000              -0.001224184               0.005599591               0.001842411              -0.001159016               0.002252850               0.001093834               0.000000000               0.000000000               0.000000000               0.000000000              -0.000951388               0.005886786               0.001649428              -0.001092617               0.002326447               0.001233831               0.000000000               0.000000000               0.000000000               0.000000000              -0.000704493               0.006056340               0.001478600              -0.001021226               0.002359168               0.001337942               0.000000000               0.000000000               0.000000000               0.000000000              -0.000484397               0.006117271               0.001326566              -0.000946306               0.002354505               0.001408199               0.000000000               0.000000000               0.000000000               0.000000000              -0.000285652               0.006102391               0.001177232              -0.000869917               0.002324082               0.001454165               0.000000000               0.000000000               0.000000000               0.000000000              -0.000104400               0.006023098               0.001031043              -0.000792036               0.002271691               0.001479655               0.000000000               0.000000000               0.000000000               0.000000000               0.000059429               0.005893297               0.000892350              -0.000714375               0.002202537               0.001488163               0.000000000               0.000000000               0.000000000               0.000000000               0.000201724               0.005725248               0.000749768              -0.000640008               0.002121733               0.001481725               0.000000000               0.000000000               0.000000000               0.000000000               0.000309228               0.005533614               0.000593254              -0.000575740               0.002036433               0.001460693               0.000000000               0.000000000               0.000000000               0.000000000               0.000365502               0.005340834               0.000417451              -0.000530540               0.001957107               0.001426567               0.000000000               0.000000000               0.000000000               0.000000000               0.000353052               0.005166150               0.000219625              -0.000513373               0.001893157               0.001379784               0.000000000               0.000000000               0.000000000               0.000000000               0.000308861               0.005074556               0.000109265              -0.000518495               0.001864333               0.001345838               0.000000000               0.000000000               0.000000000               0.000000000              -0.005423704              -0.000016918              -0.000324009              -0.002031772               0.000671614              -0.001360159               0.000000000               0.000000000               0.000000000               0.000000000              -0.003576534               0.001148103               0.000793195              -0.001484711               0.000877598              -0.000607113               0.000000000               0.000000000               0.000000000               0.000000000              -0.002370064               0.002343572               0.001764192              -0.001181719               0.001175088              -0.000006631               0.000000000               0.000000000               0.000000000               0.000000000              -0.001711002               0.003338378               0.001966936              -0.001058921               0.001465754               0.000406833               0.000000000               0.000000000               0.000000000               0.000000000              -0.001279134               0.004090532               0.001903696              -0.000990990               0.001693826               0.000702836               0.000000000               0.000000000               0.000000000               0.000000000              -0.000954665               0.004652295               0.001759104              -0.000939535               0.001863927               0.000924392               0.000000000               0.000000000               0.000000000               0.000000000              -0.000683657               0.005079173               0.001603594              -0.000891267               0.001990129               0.001098862               0.000000000               0.000000000               0.000000000               0.000000000              -0.000449460               0.005376469               0.001457089              -0.000840605               0.002072340               0.001231735               0.000000000               0.000000000               0.000000000               0.000000000              -0.000245872               0.005560735               0.001318821              -0.000787293               0.002115990               0.001328698               0.000000000               0.000000000               0.000000000               0.000000000              -0.000058033               0.005657169               0.001183356              -0.000728907               0.002128673               0.001399766               0.000000000               0.000000000               0.000000000               0.000000000               0.000125984               0.005680063               0.001052698              -0.000662763               0.002114256               0.001451493               0.000000000               0.000000000               0.000000000               0.000000000               0.000307875               0.005647728               0.000927856              -0.000590512               0.002079394               0.001488883               0.000000000               0.000000000               0.000000000               0.000000000               0.000483501               0.005566552               0.000797642              -0.000514505               0.002027000               0.001512495               0.000000000               0.000000000               0.000000000               0.000000000               0.000651150               0.005449630               0.000649500              -0.000437021               0.001962199               0.001525177               0.000000000               0.000000000               0.000000000               0.000000000               0.000799607               0.005307397               0.000470728              -0.000363571               0.001890305               0.001526734               0.000000000               0.000000000               0.000000000               0.000000000               0.000911149               0.005155721               0.000253301              -0.000302784               0.001819484               0.001516701               0.000000000               0.000000000               0.000000000               0.000000000               0.000970008               0.005085799               0.000136930              -0.000271971               0.001785906               0.001513935               0.000000000               0.000000000               0.000000000               0.000000000              -0.006591192              -0.000383336              -0.000403740              -0.002423778               0.000680143              -0.001743635               0.000000000               0.000000000               0.000000000               0.000000000              -0.004171441               0.000482536               0.000482302              -0.001624606               0.000702376              -0.000922230               0.000000000               0.000000000               0.000000000               0.000000000              -0.002426200               0.001363914               0.001280791              -0.001080313               0.000814736              -0.000265577               0.000000000               0.000000000               0.000000000               0.000000000              -0.001538963               0.002307640               0.001491786              -0.000865565               0.001057726               0.000192162               0.000000000               0.000000000               0.000000000               0.000000000              -0.001016351               0.003110853               0.001480615              -0.000769987               0.001293602               0.000523615               0.000000000               0.000000000               0.000000000               0.000000000              -0.000659325               0.003763672               0.001393153              -0.000717705               0.001493779               0.000776075               0.000000000               0.000000000               0.000000000               0.000000000              -0.000383621               0.004294729               0.001287824              -0.000680698               0.001658461               0.000977763               0.000000000               0.000000000               0.000000000               0.000000000              -0.000161739               0.004695123               0.001181223              -0.000647542               0.001780872               0.001133331               0.000000000               0.000000000               0.000000000               0.000000000               0.000026732               0.004978917               0.001076331              -0.000612339               0.001863735               0.001251396               0.000000000               0.000000000               0.000000000               0.000000000               0.000205740               0.005172347               0.000974295              -0.000569390               0.001913895               0.001344505               0.000000000               0.000000000               0.000000000               0.000000000               0.000388537               0.005290491               0.000876219              -0.000515609               0.001935349               0.001419740               0.000000000               0.000000000               0.000000000               0.000000000               0.000580414               0.005351820               0.000781302              -0.000451321               0.001934362               0.001483041               0.000000000               0.000000000               0.000000000               0.000000000               0.000784212               0.005359944               0.000682258              -0.000375913               0.001911934               0.001536022               0.000000000               0.000000000               0.000000000               0.000000000               0.001004451               0.005323383               0.000566116              -0.000288753               0.001870694               0.001581941               0.000000000               0.000000000               0.000000000               0.000000000               0.001240994               0.005245286               0.000418255              -0.000190288               0.001811840               0.001621553               0.000000000               0.000000000               0.000000000               0.000000000               0.001496147               0.005131276               0.000229146              -0.000080355               0.001737193               0.001656839               0.000000000               0.000000000               0.000000000               0.000000000               0.001686906               0.005089446               0.000130726              -0.000003591               0.001697662               0.001694071               0.000000000               0.000000000               0.000000000               0.000000000              -0.007370959              -0.000556151              -0.000266404              -0.002694589               0.000712808              -0.001981781               0.000000000               0.000000000               0.000000000               0.000000000              -0.004583316               0.000085236               0.000223017              -0.001729396               0.000604873              -0.001124523               0.000000000               0.000000000               0.000000000               0.000000000              -0.002470989               0.000729364               0.000674063              -0.001017790               0.000582381              -0.000435410               0.000000000               0.000000000               0.000000000               0.000000000              -0.001411181               0.001607781               0.000806812              -0.000730164               0.000779309               0.000049145               0.000000000               0.000000000               0.000000000               0.000000000              -0.000812246               0.002423715               0.000812613              -0.000607555               0.001010415               0.000402860               0.000000000               0.000000000               0.000000000               0.000000000              -0.000426643               0.003125344               0.000772894              -0.000550658               0.001225323               0.000674665               0.000000000               0.000000000               0.000000000               0.000000000              -0.000146776               0.003719861               0.000720376              -0.000520023               0.001413282               0.000893259               0.000000000               0.000000000               0.000000000               0.000000000               0.000067854               0.004187512               0.000664479              -0.000497993               0.001561821               0.001063828               0.000000000               0.000000000               0.000000000               0.000000000               0.000248229               0.004534978               0.000608606              -0.000473785               0.001669573               0.001195787               0.000000000               0.000000000               0.000000000               0.000000000               0.000419453               0.004791011               0.000554405              -0.000441581               0.001744181               0.001302601               0.000000000               0.000000000               0.000000000               0.000000000               0.000599813               0.004978730               0.000500851              -0.000397411               0.001792030               0.001394619               0.000000000               0.000000000               0.000000000               0.000000000               0.000798863               0.005110828               0.000449026              -0.000339279               0.001816686               0.001477406               0.000000000               0.000000000               0.000000000               0.000000000               0.001022082               0.005186297               0.000396096              -0.000265006               0.001817084               0.001552078               0.000000000               0.000000000               0.000000000               0.000000000               0.001279806               0.005211325               0.000331190              -0.000171488               0.001794254               0.001622765               0.000000000               0.000000000               0.000000000               0.000000000               0.001584824               0.005185079               0.000248142              -0.000053826               0.001746284               0.001692458               0.000000000               0.000000000               0.000000000               0.000000000               0.001952120               0.005106568               0.000138996               0.000093723               0.001670931               0.001764654               0.000000000               0.000000000               0.000000000               0.000000000               0.002251039               0.005090598               0.000082170               0.000207813               0.001627578               0.001835391               0.000000000               0.000000000               0.000000000               0.000000000               0.000000000               0.000000000               0.000000000               0.000000000               0.000000000               0.000000000               0.000000000               0.000000000               0.000000000               0.000000000               0.000000000               0.000000000               0.000000000               0.000000000               0.000000000               0.000000000               0.000000000               0.000000000               0.000000000               0.000000000               0.000000000               0.000000000               0.000000000               0.000000000               0.000000000               0.000000000               0.000000000               0.000000000               0.000000000               0.000000000               0.000000000               0.000000000               0.000000000               0.000000000               0.000000000               0.000000000               0.000000000               0.000000000               0.000000000               0.000000000               0.000000000               0.000000000               0.000000000               0.000000000               0.000000000               0.000000000               0.000000000               0.000000000               0.000000000               0.000000000               0.000000000               0.000000000               0.000000000               0.000000000               0.000000000               0.000000000               0.000000000               0.000000000               0.000000000               0.000000000               0.000000000               0.000000000               0.000000000               0.000000000               0.000000000               0.000000000               0.000000000               0.000000000               0.000000000               0.000000000               0.000000000               0.000000000               0.000000000               0.000000000               0.000000000               0.000000000               0.000000000               0.000000000               0.000000000               0.000000000               0.000000000               0.000000000               0.000000000               0.000000000               0.000000000               0.000000000               0.000000000               0.000000000               0.000000000               0.000000000               0.000000000               0.000000000               0.000000000               0.000000000               0.000000000               0.000000000               0.000000000               0.000000000               0.000000000               0.000000000               0.000000000               0.000000000               0.000000000               0.000000000               0.000000000               0.000000000               0.000000000               0.000000000               0.000000000               0.000000000               0.000000000               0.000000000               0.000000000               0.000000000               0.000000000               0.000000000               0.000000000               0.000000000               0.000000000               0.000000000               0.000000000               0.000000000               0.000000000               0.000000000               0.000000000               0.000000000               0.000000000               0.000000000               0.000000000               0.000000000               0.000000000               0.000000000               0.000000000               0.000000000               0.000000000               0.000000000               0.000000000               0.000000000               0.000000000               0.000000000               0.000000000               0.000000000               0.000000000               0.000000000               0.000000000               0.000000000               0.000000000               0.000000000               0.000000000               0.000000000               0.000000000               0.000000000               0.000000000               0.000000000               0.000000000               0.000000000               0.000000000               0.000000000               0.000000000               0.000000000               0.000000000               0.000000000               0.000000000               0.000000000               0.000000000               0.000000000               0.000000000               0.000000000               0.000000000               0.000000000 </DataArray>
</PointData>
</Piece>
</UnstructuredGrid> </VTKFile>
