<?xml version="1.0"?>
<VTKFile type="UnstructuredGrid" version="0.1">
<UnstructuredGrid>
<Piece NumberOfPoints="      1156" NumberOfCells="      1024">
<Points>
<DataArray type="Float64"                                    Name="coordinates"                                                      NumberOfComponents=" 3" format="ascii">
              0.133000000               0.000000000               0.000000000               0.155937500               0.000000000               0.000000000               0.178875000               0.000000000               0.000000000               0.201812500               0.000000000               0.000000000               0.224750000               0.000000000               0.000000000               0.247687500               0.000000000               0.000000000               0.270625000               0.000000000               0.000000000               0.293562500               0.000000000               0.000000000               0.316500000               0.000000000               0.000000000               0.339437500               0.000000000               0.000000000               0.362375000               0.000000000               0.000000000               0.385312500               0.000000000               0.000000000               0.408250000               0.000000000               0.000000000               0.431187500               0.000000000               0.000000000               0.454125000               0.000000000               0.000000000               0.477062500               0.000000000               0.000000000               0.500000000               0.000000000               0.000000000               0.132359569               0.013036280               0.000000000               0.155337096               0.016127762               0.000000000               0.178314623               0.019219245               0.000000000               0.201292150               0.022310727               0.000000000               0.224269676               0.025402210               0.000000000               0.247247203               0.028493692               0.000000000               0.270224730               0.031585175               0.000000000               0.293202257               0.034676657               0.000000000               0.316179784               0.037768140               0.000000000               0.339157311               0.040859622               0.000000000               0.362134838               0.043951105               0.000000000               0.385112365               0.047042587               0.000000000               0.408089892               0.050134070               0.000000000               0.431067419               0.053225552               0.000000000               0.454044946               0.056317035               0.000000000               0.477022473               0.059408517               0.000000000               0.500000000               0.062500000               0.000000000               0.130444442               0.025947013               0.000000000               0.153541665               0.032137825               0.000000000               0.176638887               0.038328636               0.000000000               0.199736109               0.044519448               0.000000000               0.222833332               0.050710260               0.000000000               0.245930554               0.056901071               0.000000000               0.269027776               0.063091883               0.000000000               0.292124999               0.069282695               0.000000000               0.315222221               0.075473506               0.000000000               0.338319444               0.081664318               0.000000000               0.361416666               0.087855130               0.000000000               0.384513888               0.094045942               0.000000000               0.407611111               0.100236753               0.000000000               0.430708333               0.106427565               0.000000000               0.453805555               0.112618377               0.000000000               0.476902778               0.118809188               0.000000000               0.500000000               0.125000000               0.000000000               0.127273065               0.038607862               0.000000000               0.150568498               0.047913621               0.000000000               0.173863932               0.057219379               0.000000000               0.197159365               0.066525138               0.000000000               0.220454798               0.075830897               0.000000000               0.243750232               0.085136655               0.000000000               0.267045665               0.094442414               0.000000000               0.290341099               0.103748172               0.000000000               0.313636532               0.113053931               0.000000000               0.336931966               0.122359690               0.000000000               0.360227399               0.131665448               0.000000000               0.383522833               0.140971207               0.000000000               0.406818266               0.150276966               0.000000000               0.430113700               0.159582724               0.000000000               0.453409133               0.168888483               0.000000000               0.476704567               0.178194241               0.000000000               0.500000000               0.187500000               0.000000000               0.122875978               0.050896897               0.000000000               0.146446229               0.063340840               0.000000000               0.170016481               0.075784784               0.000000000               0.193586732               0.088228728               0.000000000               0.217156983               0.100672672               0.000000000               0.240727235               0.113116616               0.000000000               0.264297486               0.125560560               0.000000000               0.287867738               0.138004504               0.000000000               0.311437989               0.150448448               0.000000000               0.335008240               0.162892392               0.000000000               0.358578492               0.175336336               0.000000000               0.382148743               0.187780280               0.000000000               0.405718994               0.200224224               0.000000000               0.429289246               0.212668168               0.000000000               0.452859497               0.225112112               0.000000000               0.476429749               0.237556056               0.000000000               0.500000000               0.250000000               0.000000000               0.117295528               0.062695766               0.000000000               0.141214558               0.078308531               0.000000000               0.165133587               0.093921295               0.000000000               0.189052617               0.109534060               0.000000000               0.212971646               0.125146824               0.000000000               0.236890676               0.140759589               0.000000000               0.260809705               0.156372354               0.000000000               0.284728735               0.171985118               0.000000000               0.308647764               0.187597883               0.000000000               0.332566794               0.203210648               0.000000000               0.356485823               0.218823412               0.000000000               0.380404853               0.234436177               0.000000000               0.404323882               0.250048941               0.000000000               0.428242912               0.265661706               0.000000000               0.452161941               0.281274471               0.000000000               0.476080971               0.296887235               0.000000000               0.500000000               0.312500000               0.000000000               0.110585458               0.073890841               0.000000000               0.134923867               0.092710163               0.000000000               0.159262276               0.111529486               0.000000000               0.183600685               0.130348808               0.000000000               0.207939094               0.149168131               0.000000000               0.232277503               0.167987453               0.000000000               0.256615912               0.186806776               0.000000000               0.280954320               0.205626098               0.000000000               0.305292729               0.224445420               0.000000000               0.329631138               0.243264743               0.000000000               0.353969547               0.262084065               0.000000000               0.378307956               0.280903388               0.000000000               0.402646365               0.299722710               0.000000000               0.426984773               0.318542033               0.000000000               0.451323182               0.337361355               0.000000000               0.475661591               0.356180678               0.000000000               0.500000000               0.375000000               0.000000000               0.102810390               0.084374307               0.000000000               0.127634741               0.106444663               0.000000000               0.152459092               0.128515018               0.000000000               0.177283442               0.150585374               0.000000000               0.202107793               0.172655730               0.000000000               0.226932143               0.194726086               0.000000000               0.251756494               0.216796442               0.000000000               0.276580845               0.238866798               0.000000000               0.301405195               0.260937153               0.000000000               0.326229546               0.283007509               0.000000000               0.351053896               0.305077865               0.000000000               0.375878247               0.327148221               0.000000000               0.400702598               0.349218577               0.000000000               0.425526948               0.371288933               0.000000000               0.450351299               0.393359288               0.000000000               0.475175649               0.415429644               0.000000000               0.500000000               0.437500000               0.000000000               0.094045202               0.094045202               0.000000000               0.119417377               0.119417377               0.000000000               0.144789552               0.144789552               0.000000000               0.170161727               0.170161727               0.000000000               0.195533901               0.195533901               0.000000000               0.220906076               0.220906076               0.000000000               0.246278251               0.246278251               0.000000000               0.271650426               0.271650426               0.000000000               0.297022601               0.297022601               0.000000000               0.322394776               0.322394776               0.000000000               0.347766951               0.347766951               0.000000000               0.373139126               0.373139126               0.000000000               0.398511300               0.398511300               0.000000000               0.423883475               0.423883475               0.000000000               0.449255650               0.449255650               0.000000000               0.474627825               0.474627825               0.000000000               0.500000000               0.500000000               0.000000000               0.084374307               0.102810390               0.000000000               0.106444663               0.127634741               0.000000000               0.128515018               0.152459092               0.000000000               0.150585374               0.177283442               0.000000000               0.172655730               0.202107793               0.000000000               0.194726086               0.226932143               0.000000000               0.216796442               0.251756494               0.000000000               0.238866798               0.276580845               0.000000000               0.260937153               0.301405195               0.000000000               0.283007509               0.326229546               0.000000000               0.305077865               0.351053896               0.000000000               0.327148221               0.375878247               0.000000000               0.349218577               0.400702598               0.000000000               0.371288933               0.425526948               0.000000000               0.393359288               0.450351299               0.000000000               0.415429644               0.475175649               0.000000000               0.437500000               0.500000000               0.000000000               0.073890841               0.110585458               0.000000000               0.092710163               0.134923867               0.000000000               0.111529486               0.159262276               0.000000000               0.130348808               0.183600685               0.000000000               0.149168131               0.207939094               0.000000000               0.167987453               0.232277503               0.000000000               0.186806776               0.256615912               0.000000000               0.205626098               0.280954320               0.000000000               0.224445420               0.305292729               0.000000000               0.243264743               0.329631138               0.000000000               0.262084065               0.353969547               0.000000000               0.280903388               0.378307956               0.000000000               0.299722710               0.402646365               0.000000000               0.318542033               0.426984773               0.000000000               0.337361355               0.451323182               0.000000000               0.356180678               0.475661591               0.000000000               0.375000000               0.500000000               0.000000000               0.062695766               0.117295528               0.000000000               0.078308531               0.141214558               0.000000000               0.093921295               0.165133587               0.000000000               0.109534060               0.189052617               0.000000000               0.125146824               0.212971646               0.000000000               0.140759589               0.236890676               0.000000000               0.156372354               0.260809705               0.000000000               0.171985118               0.284728735               0.000000000               0.187597883               0.308647764               0.000000000               0.203210648               0.332566794               0.000000000               0.218823412               0.356485823               0.000000000               0.234436177               0.380404853               0.000000000               0.250048941               0.404323882               0.000000000               0.265661706               0.428242912               0.000000000               0.281274471               0.452161941               0.000000000               0.296887235               0.476080971               0.000000000               0.312500000               0.500000000               0.000000000               0.050896897               0.122875978               0.000000000               0.063340840               0.146446229               0.000000000               0.075784784               0.170016481               0.000000000               0.088228728               0.193586732               0.000000000               0.100672672               0.217156983               0.000000000               0.113116616               0.240727235               0.000000000               0.125560560               0.264297486               0.000000000               0.138004504               0.287867738               0.000000000               0.150448448               0.311437989               0.000000000               0.162892392               0.335008240               0.000000000               0.175336336               0.358578492               0.000000000               0.187780280               0.382148743               0.000000000               0.200224224               0.405718994               0.000000000               0.212668168               0.429289246               0.000000000               0.225112112               0.452859497               0.000000000               0.237556056               0.476429749               0.000000000               0.250000000               0.500000000               0.000000000               0.038607862               0.127273065               0.000000000               0.047913621               0.150568498               0.000000000               0.057219379               0.173863932               0.000000000               0.066525138               0.197159365               0.000000000               0.075830897               0.220454798               0.000000000               0.085136655               0.243750232               0.000000000               0.094442414               0.267045665               0.000000000               0.103748172               0.290341099               0.000000000               0.113053931               0.313636532               0.000000000               0.122359690               0.336931966               0.000000000               0.131665448               0.360227399               0.000000000               0.140971207               0.383522833               0.000000000               0.150276966               0.406818266               0.000000000               0.159582724               0.430113700               0.000000000               0.168888483               0.453409133               0.000000000               0.178194241               0.476704567               0.000000000               0.187500000               0.500000000               0.000000000               0.025947013               0.130444442               0.000000000               0.032137825               0.153541665               0.000000000               0.038328636               0.176638887               0.000000000               0.044519448               0.199736109               0.000000000               0.050710260               0.222833332               0.000000000               0.056901071               0.245930554               0.000000000               0.063091883               0.269027776               0.000000000               0.069282695               0.292124999               0.000000000               0.075473506               0.315222221               0.000000000               0.081664318               0.338319444               0.000000000               0.087855130               0.361416666               0.000000000               0.094045942               0.384513888               0.000000000               0.100236753               0.407611111               0.000000000               0.106427565               0.430708333               0.000000000               0.112618377               0.453805555               0.000000000               0.118809188               0.476902778               0.000000000               0.125000000               0.500000000               0.000000000               0.013036280               0.132359569               0.000000000               0.016127762               0.155337096               0.000000000               0.019219245               0.178314623               0.000000000               0.022310727               0.201292150               0.000000000               0.025402210               0.224269676               0.000000000               0.028493692               0.247247203               0.000000000               0.031585175               0.270224730               0.000000000               0.034676657               0.293202257               0.000000000               0.037768140               0.316179784               0.000000000               0.040859622               0.339157311               0.000000000               0.043951105               0.362134838               0.000000000               0.047042587               0.385112365               0.000000000               0.050134070               0.408089892               0.000000000               0.053225552               0.431067419               0.000000000               0.056317035               0.454044946               0.000000000               0.059408517               0.477022473               0.000000000               0.062500000               0.500000000               0.000000000               0.000000000               0.133000000               0.000000000               0.000000000               0.155937500               0.000000000               0.000000000               0.178875000               0.000000000               0.000000000               0.201812500               0.000000000               0.000000000               0.224750000               0.000000000               0.000000000               0.247687500               0.000000000               0.000000000               0.270625000               0.000000000               0.000000000               0.293562500               0.000000000               0.000000000               0.316500000               0.000000000               0.000000000               0.339437500               0.000000000               0.000000000               0.362375000               0.000000000               0.000000000               0.385312500               0.000000000               0.000000000               0.408250000               0.000000000               0.000000000               0.431187500               0.000000000               0.000000000               0.454125000               0.000000000               0.000000000               0.477062500               0.000000000               0.000000000               0.500000000               0.000000000               0.133000000               0.000000000               0.000000000               0.155937500               0.000000000               0.000000000               0.178875000               0.000000000               0.000000000               0.201812500               0.000000000               0.000000000               0.224750000               0.000000000               0.000000000               0.247687500               0.000000000               0.000000000               0.270625000               0.000000000               0.000000000               0.293562500               0.000000000               0.000000000               0.316500000               0.000000000               0.000000000               0.339437500               0.000000000               0.000000000               0.362375000               0.000000000               0.000000000               0.385312500               0.000000000               0.000000000               0.408250000               0.000000000               0.000000000               0.431187500               0.000000000               0.000000000               0.454125000               0.000000000               0.000000000               0.477062500               0.000000000               0.000000000               0.500000000               0.000000000               0.000000000               0.132359569              -0.013036280               0.000000000               0.155337096              -0.016127762               0.000000000               0.178314623              -0.019219245               0.000000000               0.201292150              -0.022310727               0.000000000               0.224269676              -0.025402210               0.000000000               0.247247203              -0.028493692               0.000000000               0.270224730              -0.031585175               0.000000000               0.293202257              -0.034676657               0.000000000               0.316179784              -0.037768140               0.000000000               0.339157311              -0.040859622               0.000000000               0.362134838              -0.043951105               0.000000000               0.385112365              -0.047042587               0.000000000               0.408089892              -0.050134070               0.000000000               0.431067419              -0.053225552               0.000000000               0.454044946              -0.056317035               0.000000000               0.477022473              -0.059408517               0.000000000               0.500000000              -0.062500000               0.000000000               0.130444442              -0.025947013               0.000000000               0.153541665              -0.032137825               0.000000000               0.176638887              -0.038328636               0.000000000               0.199736109              -0.044519448               0.000000000               0.222833332              -0.050710260               0.000000000               0.245930554              -0.056901071               0.000000000               0.269027776              -0.063091883               0.000000000               0.292124999              -0.069282695               0.000000000               0.315222221              -0.075473506               0.000000000               0.338319444              -0.081664318               0.000000000               0.361416666              -0.087855130               0.000000000               0.384513888              -0.094045942               0.000000000               0.407611111              -0.100236753               0.000000000               0.430708333              -0.106427565               0.000000000               0.453805555              -0.112618377               0.000000000               0.476902778              -0.118809188               0.000000000               0.500000000              -0.125000000               0.000000000               0.127273065              -0.038607862               0.000000000               0.150568498              -0.047913621               0.000000000               0.173863932              -0.057219379               0.000000000               0.197159365              -0.066525138               0.000000000               0.220454798              -0.075830897               0.000000000               0.243750232              -0.085136655               0.000000000               0.267045665              -0.094442414               0.000000000               0.290341099              -0.103748172               0.000000000               0.313636532              -0.113053931               0.000000000               0.336931966              -0.122359690               0.000000000               0.360227399              -0.131665448               0.000000000               0.383522833              -0.140971207               0.000000000               0.406818266              -0.150276966               0.000000000               0.430113700              -0.159582724               0.000000000               0.453409133              -0.168888483               0.000000000               0.476704567              -0.178194241               0.000000000               0.500000000              -0.187500000               0.000000000               0.122875978              -0.050896897               0.000000000               0.146446229              -0.063340840               0.000000000               0.170016481              -0.075784784               0.000000000               0.193586732              -0.088228728               0.000000000               0.217156983              -0.100672672               0.000000000               0.240727235              -0.113116616               0.000000000               0.264297486              -0.125560560               0.000000000               0.287867738              -0.138004504               0.000000000               0.311437989              -0.150448448               0.000000000               0.335008240              -0.162892392               0.000000000               0.358578492              -0.175336336               0.000000000               0.382148743              -0.187780280               0.000000000               0.405718994              -0.200224224               0.000000000               0.429289246              -0.212668168               0.000000000               0.452859497              -0.225112112               0.000000000               0.476429749              -0.237556056               0.000000000               0.500000000              -0.250000000               0.000000000               0.117295528              -0.062695766               0.000000000               0.141214558              -0.078308531               0.000000000               0.165133587              -0.093921295               0.000000000               0.189052617              -0.109534060               0.000000000               0.212971646              -0.125146824               0.000000000               0.236890676              -0.140759589               0.000000000               0.260809705              -0.156372354               0.000000000               0.284728735              -0.171985118               0.000000000               0.308647764              -0.187597883               0.000000000               0.332566794              -0.203210648               0.000000000               0.356485823              -0.218823412               0.000000000               0.380404853              -0.234436177               0.000000000               0.404323882              -0.250048941               0.000000000               0.428242912              -0.265661706               0.000000000               0.452161941              -0.281274471               0.000000000               0.476080971              -0.296887235               0.000000000               0.500000000              -0.312500000               0.000000000               0.110585458              -0.073890841               0.000000000               0.134923867              -0.092710163               0.000000000               0.159262276              -0.111529486               0.000000000               0.183600685              -0.130348808               0.000000000               0.207939094              -0.149168131               0.000000000               0.232277503              -0.167987453               0.000000000               0.256615912              -0.186806776               0.000000000               0.280954320              -0.205626098               0.000000000               0.305292729              -0.224445420               0.000000000               0.329631138              -0.243264743               0.000000000               0.353969547              -0.262084065               0.000000000               0.378307956              -0.280903388               0.000000000               0.402646365              -0.299722710               0.000000000               0.426984773              -0.318542033               0.000000000               0.451323182              -0.337361355               0.000000000               0.475661591              -0.356180678               0.000000000               0.500000000              -0.375000000               0.000000000               0.102810390              -0.084374307               0.000000000               0.127634741              -0.106444663               0.000000000               0.152459092              -0.128515018               0.000000000               0.177283442              -0.150585374               0.000000000               0.202107793              -0.172655730               0.000000000               0.226932143              -0.194726086               0.000000000               0.251756494              -0.216796442               0.000000000               0.276580845              -0.238866798               0.000000000               0.301405195              -0.260937153               0.000000000               0.326229546              -0.283007509               0.000000000               0.351053896              -0.305077865               0.000000000               0.375878247              -0.327148221               0.000000000               0.400702598              -0.349218577               0.000000000               0.425526948              -0.371288933               0.000000000               0.450351299              -0.393359288               0.000000000               0.475175649              -0.415429644               0.000000000               0.500000000              -0.437500000               0.000000000               0.094045202              -0.094045202               0.000000000               0.119417377              -0.119417377               0.000000000               0.144789552              -0.144789552               0.000000000               0.170161727              -0.170161727               0.000000000               0.195533901              -0.195533901               0.000000000               0.220906076              -0.220906076               0.000000000               0.246278251              -0.246278251               0.000000000               0.271650426              -0.271650426               0.000000000               0.297022601              -0.297022601               0.000000000               0.322394776              -0.322394776               0.000000000               0.347766951              -0.347766951               0.000000000               0.373139126              -0.373139126               0.000000000               0.398511300              -0.398511300               0.000000000               0.423883475              -0.423883475               0.000000000               0.449255650              -0.449255650               0.000000000               0.474627825              -0.474627825               0.000000000               0.500000000              -0.500000000               0.000000000               0.084374307              -0.102810390               0.000000000               0.106444663              -0.127634741               0.000000000               0.128515018              -0.152459092               0.000000000               0.150585374              -0.177283442               0.000000000               0.172655730              -0.202107793               0.000000000               0.194726086              -0.226932143               0.000000000               0.216796442              -0.251756494               0.000000000               0.238866798              -0.276580845               0.000000000               0.260937153              -0.301405195               0.000000000               0.283007509              -0.326229546               0.000000000               0.305077865              -0.351053896               0.000000000               0.327148221              -0.375878247               0.000000000               0.349218577              -0.400702598               0.000000000               0.371288933              -0.425526948               0.000000000               0.393359288              -0.450351299               0.000000000               0.415429644              -0.475175649               0.000000000               0.437500000              -0.500000000               0.000000000               0.073890841              -0.110585458               0.000000000               0.092710163              -0.134923867               0.000000000               0.111529486              -0.159262276               0.000000000               0.130348808              -0.183600685               0.000000000               0.149168131              -0.207939094               0.000000000               0.167987453              -0.232277503               0.000000000               0.186806776              -0.256615912               0.000000000               0.205626098              -0.280954320               0.000000000               0.224445420              -0.305292729               0.000000000               0.243264743              -0.329631138               0.000000000               0.262084065              -0.353969547               0.000000000               0.280903388              -0.378307956               0.000000000               0.299722710              -0.402646365               0.000000000               0.318542033              -0.426984773               0.000000000               0.337361355              -0.451323182               0.000000000               0.356180678              -0.475661591               0.000000000               0.375000000              -0.500000000               0.000000000               0.062695766              -0.117295528               0.000000000               0.078308531              -0.141214558               0.000000000               0.093921295              -0.165133587               0.000000000               0.109534060              -0.189052617               0.000000000               0.125146824              -0.212971646               0.000000000               0.140759589              -0.236890676               0.000000000               0.156372354              -0.260809705               0.000000000               0.171985118              -0.284728735               0.000000000               0.187597883              -0.308647764               0.000000000               0.203210648              -0.332566794               0.000000000               0.218823412              -0.356485823               0.000000000               0.234436177              -0.380404853               0.000000000               0.250048941              -0.404323882               0.000000000               0.265661706              -0.428242912               0.000000000               0.281274471              -0.452161941               0.000000000               0.296887235              -0.476080971               0.000000000               0.312500000              -0.500000000               0.000000000               0.050896897              -0.122875978               0.000000000               0.063340840              -0.146446229               0.000000000               0.075784784              -0.170016481               0.000000000               0.088228728              -0.193586732               0.000000000               0.100672672              -0.217156983               0.000000000               0.113116616              -0.240727235               0.000000000               0.125560560              -0.264297486               0.000000000               0.138004504              -0.287867738               0.000000000               0.150448448              -0.311437989               0.000000000               0.162892392              -0.335008240               0.000000000               0.175336336              -0.358578492               0.000000000               0.187780280              -0.382148743               0.000000000               0.200224224              -0.405718994               0.000000000               0.212668168              -0.429289246               0.000000000               0.225112112              -0.452859497               0.000000000               0.237556056              -0.476429749               0.000000000               0.250000000              -0.500000000               0.000000000               0.038607862              -0.127273065               0.000000000               0.047913621              -0.150568498               0.000000000               0.057219379              -0.173863932               0.000000000               0.066525138              -0.197159365               0.000000000               0.075830897              -0.220454798               0.000000000               0.085136655              -0.243750232               0.000000000               0.094442414              -0.267045665               0.000000000               0.103748172              -0.290341099               0.000000000               0.113053931              -0.313636532               0.000000000               0.122359690              -0.336931966               0.000000000               0.131665448              -0.360227399               0.000000000               0.140971207              -0.383522833               0.000000000               0.150276966              -0.406818266               0.000000000               0.159582724              -0.430113700               0.000000000               0.168888483              -0.453409133               0.000000000               0.178194241              -0.476704567               0.000000000               0.187500000              -0.500000000               0.000000000               0.025947013              -0.130444442               0.000000000               0.032137825              -0.153541665               0.000000000               0.038328636              -0.176638887               0.000000000               0.044519448              -0.199736109               0.000000000               0.050710260              -0.222833332               0.000000000               0.056901071              -0.245930554               0.000000000               0.063091883              -0.269027776               0.000000000               0.069282695              -0.292124999               0.000000000               0.075473506              -0.315222221               0.000000000               0.081664318              -0.338319444               0.000000000               0.087855130              -0.361416666               0.000000000               0.094045942              -0.384513888               0.000000000               0.100236753              -0.407611111               0.000000000               0.106427565              -0.430708333               0.000000000               0.112618377              -0.453805555               0.000000000               0.118809188              -0.476902778               0.000000000               0.125000000              -0.500000000               0.000000000               0.013036280              -0.132359569               0.000000000               0.016127762              -0.155337096               0.000000000               0.019219245              -0.178314623               0.000000000               0.022310727              -0.201292150               0.000000000               0.025402210              -0.224269676               0.000000000               0.028493692              -0.247247203               0.000000000               0.031585175              -0.270224730               0.000000000               0.034676657              -0.293202257               0.000000000               0.037768140              -0.316179784               0.000000000               0.040859622              -0.339157311               0.000000000               0.043951105              -0.362134838               0.000000000               0.047042587              -0.385112365               0.000000000               0.050134070              -0.408089892               0.000000000               0.053225552              -0.431067419               0.000000000               0.056317035              -0.454044946               0.000000000               0.059408517              -0.477022473               0.000000000               0.062500000              -0.500000000               0.000000000               0.000000000              -0.133000000               0.000000000               0.000000000              -0.155937500               0.000000000               0.000000000              -0.178875000               0.000000000               0.000000000              -0.201812500               0.000000000               0.000000000              -0.224750000               0.000000000               0.000000000              -0.247687500               0.000000000               0.000000000              -0.270625000               0.000000000               0.000000000              -0.293562500               0.000000000               0.000000000              -0.316500000               0.000000000               0.000000000              -0.339437500               0.000000000               0.000000000              -0.362375000               0.000000000               0.000000000              -0.385312500               0.000000000               0.000000000              -0.408250000               0.000000000               0.000000000              -0.431187500               0.000000000               0.000000000              -0.454125000               0.000000000               0.000000000              -0.477062500               0.000000000               0.000000000              -0.500000000               0.000000000              -0.133000000               0.000000000               0.000000000              -0.155937500               0.000000000               0.000000000              -0.178875000               0.000000000               0.000000000              -0.201812500               0.000000000               0.000000000              -0.224750000               0.000000000               0.000000000              -0.247687500               0.000000000               0.000000000              -0.270625000               0.000000000               0.000000000              -0.293562500               0.000000000               0.000000000              -0.316500000               0.000000000               0.000000000              -0.339437500               0.000000000               0.000000000              -0.362375000               0.000000000               0.000000000              -0.385312500               0.000000000               0.000000000              -0.408250000               0.000000000               0.000000000              -0.431187500               0.000000000               0.000000000              -0.454125000               0.000000000               0.000000000              -0.477062500               0.000000000               0.000000000              -0.500000000               0.000000000               0.000000000              -0.132359569              -0.013036280               0.000000000              -0.155337096              -0.016127762               0.000000000              -0.178314623              -0.019219245               0.000000000              -0.201292150              -0.022310727               0.000000000              -0.224269676              -0.025402210               0.000000000              -0.247247203              -0.028493692               0.000000000              -0.270224730              -0.031585175               0.000000000              -0.293202257              -0.034676657               0.000000000              -0.316179784              -0.037768140               0.000000000              -0.339157311              -0.040859622               0.000000000              -0.362134838              -0.043951105               0.000000000              -0.385112365              -0.047042587               0.000000000              -0.408089892              -0.050134070               0.000000000              -0.431067419              -0.053225552               0.000000000              -0.454044946              -0.056317035               0.000000000              -0.477022473              -0.059408517               0.000000000              -0.500000000              -0.062500000               0.000000000              -0.130444442              -0.025947013               0.000000000              -0.153541665              -0.032137825               0.000000000              -0.176638887              -0.038328636               0.000000000              -0.199736109              -0.044519448               0.000000000              -0.222833332              -0.050710260               0.000000000              -0.245930554              -0.056901071               0.000000000              -0.269027776              -0.063091883               0.000000000              -0.292124999              -0.069282695               0.000000000              -0.315222221              -0.075473506               0.000000000              -0.338319444              -0.081664318               0.000000000              -0.361416666              -0.087855130               0.000000000              -0.384513888              -0.094045942               0.000000000              -0.407611111              -0.100236753               0.000000000              -0.430708333              -0.106427565               0.000000000              -0.453805555              -0.112618377               0.000000000              -0.476902778              -0.118809188               0.000000000              -0.500000000              -0.125000000               0.000000000              -0.127273065              -0.038607862               0.000000000              -0.150568498              -0.047913621               0.000000000              -0.173863932              -0.057219379               0.000000000              -0.197159365              -0.066525138               0.000000000              -0.220454798              -0.075830897               0.000000000              -0.243750232              -0.085136655               0.000000000              -0.267045665              -0.094442414               0.000000000              -0.290341099              -0.103748172               0.000000000              -0.313636532              -0.113053931               0.000000000              -0.336931966              -0.122359690               0.000000000              -0.360227399              -0.131665448               0.000000000              -0.383522833              -0.140971207               0.000000000              -0.406818266              -0.150276966               0.000000000              -0.430113700              -0.159582724               0.000000000              -0.453409133              -0.168888483               0.000000000              -0.476704567              -0.178194241               0.000000000              -0.500000000              -0.187500000               0.000000000              -0.122875978              -0.050896897               0.000000000              -0.146446229              -0.063340840               0.000000000              -0.170016481              -0.075784784               0.000000000              -0.193586732              -0.088228728               0.000000000              -0.217156983              -0.100672672               0.000000000              -0.240727235              -0.113116616               0.000000000              -0.264297486              -0.125560560               0.000000000              -0.287867738              -0.138004504               0.000000000              -0.311437989              -0.150448448               0.000000000              -0.335008240              -0.162892392               0.000000000              -0.358578492              -0.175336336               0.000000000              -0.382148743              -0.187780280               0.000000000              -0.405718994              -0.200224224               0.000000000              -0.429289246              -0.212668168               0.000000000              -0.452859497              -0.225112112               0.000000000              -0.476429749              -0.237556056               0.000000000              -0.500000000              -0.250000000               0.000000000              -0.117295528              -0.062695766               0.000000000              -0.141214558              -0.078308531               0.000000000              -0.165133587              -0.093921295               0.000000000              -0.189052617              -0.109534060               0.000000000              -0.212971646              -0.125146824               0.000000000              -0.236890676              -0.140759589               0.000000000              -0.260809705              -0.156372354               0.000000000              -0.284728735              -0.171985118               0.000000000              -0.308647764              -0.187597883               0.000000000              -0.332566794              -0.203210648               0.000000000              -0.356485823              -0.218823412               0.000000000              -0.380404853              -0.234436177               0.000000000              -0.404323882              -0.250048941               0.000000000              -0.428242912              -0.265661706               0.000000000              -0.452161941              -0.281274471               0.000000000              -0.476080971              -0.296887235               0.000000000              -0.500000000              -0.312500000               0.000000000              -0.110585458              -0.073890841               0.000000000              -0.134923867              -0.092710163               0.000000000              -0.159262276              -0.111529486               0.000000000              -0.183600685              -0.130348808               0.000000000              -0.207939094              -0.149168131               0.000000000              -0.232277503              -0.167987453               0.000000000              -0.256615912              -0.186806776               0.000000000              -0.280954320              -0.205626098               0.000000000              -0.305292729              -0.224445420               0.000000000              -0.329631138              -0.243264743               0.000000000              -0.353969547              -0.262084065               0.000000000              -0.378307956              -0.280903388               0.000000000              -0.402646365              -0.299722710               0.000000000              -0.426984773              -0.318542033               0.000000000              -0.451323182              -0.337361355               0.000000000              -0.475661591              -0.356180678               0.000000000              -0.500000000              -0.375000000               0.000000000              -0.102810390              -0.084374307               0.000000000              -0.127634741              -0.106444663               0.000000000              -0.152459092              -0.128515018               0.000000000              -0.177283442              -0.150585374               0.000000000              -0.202107793              -0.172655730               0.000000000              -0.226932143              -0.194726086               0.000000000              -0.251756494              -0.216796442               0.000000000              -0.276580845              -0.238866798               0.000000000              -0.301405195              -0.260937153               0.000000000              -0.326229546              -0.283007509               0.000000000              -0.351053896              -0.305077865               0.000000000              -0.375878247              -0.327148221               0.000000000              -0.400702598              -0.349218577               0.000000000              -0.425526948              -0.371288933               0.000000000              -0.450351299              -0.393359288               0.000000000              -0.475175649              -0.415429644               0.000000000              -0.500000000              -0.437500000               0.000000000              -0.094045202              -0.094045202               0.000000000              -0.119417377              -0.119417377               0.000000000              -0.144789552              -0.144789552               0.000000000              -0.170161727              -0.170161727               0.000000000              -0.195533901              -0.195533901               0.000000000              -0.220906076              -0.220906076               0.000000000              -0.246278251              -0.246278251               0.000000000              -0.271650426              -0.271650426               0.000000000              -0.297022601              -0.297022601               0.000000000              -0.322394776              -0.322394776               0.000000000              -0.347766951              -0.347766951               0.000000000              -0.373139126              -0.373139126               0.000000000              -0.398511300              -0.398511300               0.000000000              -0.423883475              -0.423883475               0.000000000              -0.449255650              -0.449255650               0.000000000              -0.474627825              -0.474627825               0.000000000              -0.500000000              -0.500000000               0.000000000              -0.084374307              -0.102810390               0.000000000              -0.106444663              -0.127634741               0.000000000              -0.128515018              -0.152459092               0.000000000              -0.150585374              -0.177283442               0.000000000              -0.172655730              -0.202107793               0.000000000              -0.194726086              -0.226932143               0.000000000              -0.216796442              -0.251756494               0.000000000              -0.238866798              -0.276580845               0.000000000              -0.260937153              -0.301405195               0.000000000              -0.283007509              -0.326229546               0.000000000              -0.305077865              -0.351053896               0.000000000              -0.327148221              -0.375878247               0.000000000              -0.349218577              -0.400702598               0.000000000              -0.371288933              -0.425526948               0.000000000              -0.393359288              -0.450351299               0.000000000              -0.415429644              -0.475175649               0.000000000              -0.437500000              -0.500000000               0.000000000              -0.073890841              -0.110585458               0.000000000              -0.092710163              -0.134923867               0.000000000              -0.111529486              -0.159262276               0.000000000              -0.130348808              -0.183600685               0.000000000              -0.149168131              -0.207939094               0.000000000              -0.167987453              -0.232277503               0.000000000              -0.186806776              -0.256615912               0.000000000              -0.205626098              -0.280954320               0.000000000              -0.224445420              -0.305292729               0.000000000              -0.243264743              -0.329631138               0.000000000              -0.262084065              -0.353969547               0.000000000              -0.280903388              -0.378307956               0.000000000              -0.299722710              -0.402646365               0.000000000              -0.318542033              -0.426984773               0.000000000              -0.337361355              -0.451323182               0.000000000              -0.356180678              -0.475661591               0.000000000              -0.375000000              -0.500000000               0.000000000              -0.062695766              -0.117295528               0.000000000              -0.078308531              -0.141214558               0.000000000              -0.093921295              -0.165133587               0.000000000              -0.109534060              -0.189052617               0.000000000              -0.125146824              -0.212971646               0.000000000              -0.140759589              -0.236890676               0.000000000              -0.156372354              -0.260809705               0.000000000              -0.171985118              -0.284728735               0.000000000              -0.187597883              -0.308647764               0.000000000              -0.203210648              -0.332566794               0.000000000              -0.218823412              -0.356485823               0.000000000              -0.234436177              -0.380404853               0.000000000              -0.250048941              -0.404323882               0.000000000              -0.265661706              -0.428242912               0.000000000              -0.281274471              -0.452161941               0.000000000              -0.296887235              -0.476080971               0.000000000              -0.312500000              -0.500000000               0.000000000              -0.050896897              -0.122875978               0.000000000              -0.063340840              -0.146446229               0.000000000              -0.075784784              -0.170016481               0.000000000              -0.088228728              -0.193586732               0.000000000              -0.100672672              -0.217156983               0.000000000              -0.113116616              -0.240727235               0.000000000              -0.125560560              -0.264297486               0.000000000              -0.138004504              -0.287867738               0.000000000              -0.150448448              -0.311437989               0.000000000              -0.162892392              -0.335008240               0.000000000              -0.175336336              -0.358578492               0.000000000              -0.187780280              -0.382148743               0.000000000              -0.200224224              -0.405718994               0.000000000              -0.212668168              -0.429289246               0.000000000              -0.225112112              -0.452859497               0.000000000              -0.237556056              -0.476429749               0.000000000              -0.250000000              -0.500000000               0.000000000              -0.038607862              -0.127273065               0.000000000              -0.047913621              -0.150568498               0.000000000              -0.057219379              -0.173863932               0.000000000              -0.066525138              -0.197159365               0.000000000              -0.075830897              -0.220454798               0.000000000              -0.085136655              -0.243750232               0.000000000              -0.094442414              -0.267045665               0.000000000              -0.103748172              -0.290341099               0.000000000              -0.113053931              -0.313636532               0.000000000              -0.122359690              -0.336931966               0.000000000              -0.131665448              -0.360227399               0.000000000              -0.140971207              -0.383522833               0.000000000              -0.150276966              -0.406818266               0.000000000              -0.159582724              -0.430113700               0.000000000              -0.168888483              -0.453409133               0.000000000              -0.178194241              -0.476704567               0.000000000              -0.187500000              -0.500000000               0.000000000              -0.025947013              -0.130444442               0.000000000              -0.032137825              -0.153541665               0.000000000              -0.038328636              -0.176638887               0.000000000              -0.044519448              -0.199736109               0.000000000              -0.050710260              -0.222833332               0.000000000              -0.056901071              -0.245930554               0.000000000              -0.063091883              -0.269027776               0.000000000              -0.069282695              -0.292124999               0.000000000              -0.075473506              -0.315222221               0.000000000              -0.081664318              -0.338319444               0.000000000              -0.087855130              -0.361416666               0.000000000              -0.094045942              -0.384513888               0.000000000              -0.100236753              -0.407611111               0.000000000              -0.106427565              -0.430708333               0.000000000              -0.112618377              -0.453805555               0.000000000              -0.118809188              -0.476902778               0.000000000              -0.125000000              -0.500000000               0.000000000              -0.013036280              -0.132359569               0.000000000              -0.016127762              -0.155337096               0.000000000              -0.019219245              -0.178314623               0.000000000              -0.022310727              -0.201292150               0.000000000              -0.025402210              -0.224269676               0.000000000              -0.028493692              -0.247247203               0.000000000              -0.031585175              -0.270224730               0.000000000              -0.034676657              -0.293202257               0.000000000              -0.037768140              -0.316179784               0.000000000              -0.040859622              -0.339157311               0.000000000              -0.043951105              -0.362134838               0.000000000              -0.047042587              -0.385112365               0.000000000              -0.050134070              -0.408089892               0.000000000              -0.053225552              -0.431067419               0.000000000              -0.056317035              -0.454044946               0.000000000              -0.059408517              -0.477022473               0.000000000              -0.062500000              -0.500000000               0.000000000               0.000000000              -0.133000000               0.000000000               0.000000000              -0.155937500               0.000000000               0.000000000              -0.178875000               0.000000000               0.000000000              -0.201812500               0.000000000               0.000000000              -0.224750000               0.000000000               0.000000000              -0.247687500               0.000000000               0.000000000              -0.270625000               0.000000000               0.000000000              -0.293562500               0.000000000               0.000000000              -0.316500000               0.000000000               0.000000000              -0.339437500               0.000000000               0.000000000              -0.362375000               0.000000000               0.000000000              -0.385312500               0.000000000               0.000000000              -0.408250000               0.000000000               0.000000000              -0.431187500               0.000000000               0.000000000              -0.454125000               0.000000000               0.000000000              -0.477062500               0.000000000               0.000000000              -0.500000000               0.000000000              -0.133000000               0.000000000               0.000000000              -0.155937500               0.000000000               0.000000000              -0.178875000               0.000000000               0.000000000              -0.201812500               0.000000000               0.000000000              -0.224750000               0.000000000               0.000000000              -0.247687500               0.000000000               0.000000000              -0.270625000               0.000000000               0.000000000              -0.293562500               0.000000000               0.000000000              -0.316500000               0.000000000               0.000000000              -0.339437500               0.000000000               0.000000000              -0.362375000               0.000000000               0.000000000              -0.385312500               0.000000000               0.000000000              -0.408250000               0.000000000               0.000000000              -0.431187500               0.000000000               0.000000000              -0.454125000               0.000000000               0.000000000              -0.477062500               0.000000000               0.000000000              -0.500000000               0.000000000               0.000000000              -0.132359569               0.013036280               0.000000000              -0.155337096               0.016127762               0.000000000              -0.178314623               0.019219245               0.000000000              -0.201292150               0.022310727               0.000000000              -0.224269676               0.025402210               0.000000000              -0.247247203               0.028493692               0.000000000              -0.270224730               0.031585175               0.000000000              -0.293202257               0.034676657               0.000000000              -0.316179784               0.037768140               0.000000000              -0.339157311               0.040859622               0.000000000              -0.362134838               0.043951105               0.000000000              -0.385112365               0.047042587               0.000000000              -0.408089892               0.050134070               0.000000000              -0.431067419               0.053225552               0.000000000              -0.454044946               0.056317035               0.000000000              -0.477022473               0.059408517               0.000000000              -0.500000000               0.062500000               0.000000000              -0.130444442               0.025947013               0.000000000              -0.153541665               0.032137825               0.000000000              -0.176638887               0.038328636               0.000000000              -0.199736109               0.044519448               0.000000000              -0.222833332               0.050710260               0.000000000              -0.245930554               0.056901071               0.000000000              -0.269027776               0.063091883               0.000000000              -0.292124999               0.069282695               0.000000000              -0.315222221               0.075473506               0.000000000              -0.338319444               0.081664318               0.000000000              -0.361416666               0.087855130               0.000000000              -0.384513888               0.094045942               0.000000000              -0.407611111               0.100236753               0.000000000              -0.430708333               0.106427565               0.000000000              -0.453805555               0.112618377               0.000000000              -0.476902778               0.118809188               0.000000000              -0.500000000               0.125000000               0.000000000              -0.127273065               0.038607862               0.000000000              -0.150568498               0.047913621               0.000000000              -0.173863932               0.057219379               0.000000000              -0.197159365               0.066525138               0.000000000              -0.220454798               0.075830897               0.000000000              -0.243750232               0.085136655               0.000000000              -0.267045665               0.094442414               0.000000000              -0.290341099               0.103748172               0.000000000              -0.313636532               0.113053931               0.000000000              -0.336931966               0.122359690               0.000000000              -0.360227399               0.131665448               0.000000000              -0.383522833               0.140971207               0.000000000              -0.406818266               0.150276966               0.000000000              -0.430113700               0.159582724               0.000000000              -0.453409133               0.168888483               0.000000000              -0.476704567               0.178194241               0.000000000              -0.500000000               0.187500000               0.000000000              -0.122875978               0.050896897               0.000000000              -0.146446229               0.063340840               0.000000000              -0.170016481               0.075784784               0.000000000              -0.193586732               0.088228728               0.000000000              -0.217156983               0.100672672               0.000000000              -0.240727235               0.113116616               0.000000000              -0.264297486               0.125560560               0.000000000              -0.287867738               0.138004504               0.000000000              -0.311437989               0.150448448               0.000000000              -0.335008240               0.162892392               0.000000000              -0.358578492               0.175336336               0.000000000              -0.382148743               0.187780280               0.000000000              -0.405718994               0.200224224               0.000000000              -0.429289246               0.212668168               0.000000000              -0.452859497               0.225112112               0.000000000              -0.476429749               0.237556056               0.000000000              -0.500000000               0.250000000               0.000000000              -0.117295528               0.062695766               0.000000000              -0.141214558               0.078308531               0.000000000              -0.165133587               0.093921295               0.000000000              -0.189052617               0.109534060               0.000000000              -0.212971646               0.125146824               0.000000000              -0.236890676               0.140759589               0.000000000              -0.260809705               0.156372354               0.000000000              -0.284728735               0.171985118               0.000000000              -0.308647764               0.187597883               0.000000000              -0.332566794               0.203210648               0.000000000              -0.356485823               0.218823412               0.000000000              -0.380404853               0.234436177               0.000000000              -0.404323882               0.250048941               0.000000000              -0.428242912               0.265661706               0.000000000              -0.452161941               0.281274471               0.000000000              -0.476080971               0.296887235               0.000000000              -0.500000000               0.312500000               0.000000000              -0.110585458               0.073890841               0.000000000              -0.134923867               0.092710163               0.000000000              -0.159262276               0.111529486               0.000000000              -0.183600685               0.130348808               0.000000000              -0.207939094               0.149168131               0.000000000              -0.232277503               0.167987453               0.000000000              -0.256615912               0.186806776               0.000000000              -0.280954320               0.205626098               0.000000000              -0.305292729               0.224445420               0.000000000              -0.329631138               0.243264743               0.000000000              -0.353969547               0.262084065               0.000000000              -0.378307956               0.280903388               0.000000000              -0.402646365               0.299722710               0.000000000              -0.426984773               0.318542033               0.000000000              -0.451323182               0.337361355               0.000000000              -0.475661591               0.356180678               0.000000000              -0.500000000               0.375000000               0.000000000              -0.102810390               0.084374307               0.000000000              -0.127634741               0.106444663               0.000000000              -0.152459092               0.128515018               0.000000000              -0.177283442               0.150585374               0.000000000              -0.202107793               0.172655730               0.000000000              -0.226932143               0.194726086               0.000000000              -0.251756494               0.216796442               0.000000000              -0.276580845               0.238866798               0.000000000              -0.301405195               0.260937153               0.000000000              -0.326229546               0.283007509               0.000000000              -0.351053896               0.305077865               0.000000000              -0.375878247               0.327148221               0.000000000              -0.400702598               0.349218577               0.000000000              -0.425526948               0.371288933               0.000000000              -0.450351299               0.393359288               0.000000000              -0.475175649               0.415429644               0.000000000              -0.500000000               0.437500000               0.000000000              -0.094045202               0.094045202               0.000000000              -0.119417377               0.119417377               0.000000000              -0.144789552               0.144789552               0.000000000              -0.170161727               0.170161727               0.000000000              -0.195533901               0.195533901               0.000000000              -0.220906076               0.220906076               0.000000000              -0.246278251               0.246278251               0.000000000              -0.271650426               0.271650426               0.000000000              -0.297022601               0.297022601               0.000000000              -0.322394776               0.322394776               0.000000000              -0.347766951               0.347766951               0.000000000              -0.373139126               0.373139126               0.000000000              -0.398511300               0.398511300               0.000000000              -0.423883475               0.423883475               0.000000000              -0.449255650               0.449255650               0.000000000              -0.474627825               0.474627825               0.000000000              -0.500000000               0.500000000               0.000000000              -0.084374307               0.102810390               0.000000000              -0.106444663               0.127634741               0.000000000              -0.128515018               0.152459092               0.000000000              -0.150585374               0.177283442               0.000000000              -0.172655730               0.202107793               0.000000000              -0.194726086               0.226932143               0.000000000              -0.216796442               0.251756494               0.000000000              -0.238866798               0.276580845               0.000000000              -0.260937153               0.301405195               0.000000000              -0.283007509               0.326229546               0.000000000              -0.305077865               0.351053896               0.000000000              -0.327148221               0.375878247               0.000000000              -0.349218577               0.400702598               0.000000000              -0.371288933               0.425526948               0.000000000              -0.393359288               0.450351299               0.000000000              -0.415429644               0.475175649               0.000000000              -0.437500000               0.500000000               0.000000000              -0.073890841               0.110585458               0.000000000              -0.092710163               0.134923867               0.000000000              -0.111529486               0.159262276               0.000000000              -0.130348808               0.183600685               0.000000000              -0.149168131               0.207939094               0.000000000              -0.167987453               0.232277503               0.000000000              -0.186806776               0.256615912               0.000000000              -0.205626098               0.280954320               0.000000000              -0.224445420               0.305292729               0.000000000              -0.243264743               0.329631138               0.000000000              -0.262084065               0.353969547               0.000000000              -0.280903388               0.378307956               0.000000000              -0.299722710               0.402646365               0.000000000              -0.318542033               0.426984773               0.000000000              -0.337361355               0.451323182               0.000000000              -0.356180678               0.475661591               0.000000000              -0.375000000               0.500000000               0.000000000              -0.062695766               0.117295528               0.000000000              -0.078308531               0.141214558               0.000000000              -0.093921295               0.165133587               0.000000000              -0.109534060               0.189052617               0.000000000              -0.125146824               0.212971646               0.000000000              -0.140759589               0.236890676               0.000000000              -0.156372354               0.260809705               0.000000000              -0.171985118               0.284728735               0.000000000              -0.187597883               0.308647764               0.000000000              -0.203210648               0.332566794               0.000000000              -0.218823412               0.356485823               0.000000000              -0.234436177               0.380404853               0.000000000              -0.250048941               0.404323882               0.000000000              -0.265661706               0.428242912               0.000000000              -0.281274471               0.452161941               0.000000000              -0.296887235               0.476080971               0.000000000              -0.312500000               0.500000000               0.000000000              -0.050896897               0.122875978               0.000000000              -0.063340840               0.146446229               0.000000000              -0.075784784               0.170016481               0.000000000              -0.088228728               0.193586732               0.000000000              -0.100672672               0.217156983               0.000000000              -0.113116616               0.240727235               0.000000000              -0.125560560               0.264297486               0.000000000              -0.138004504               0.287867738               0.000000000              -0.150448448               0.311437989               0.000000000              -0.162892392               0.335008240               0.000000000              -0.175336336               0.358578492               0.000000000              -0.187780280               0.382148743               0.000000000              -0.200224224               0.405718994               0.000000000              -0.212668168               0.429289246               0.000000000              -0.225112112               0.452859497               0.000000000              -0.237556056               0.476429749               0.000000000              -0.250000000               0.500000000               0.000000000              -0.038607862               0.127273065               0.000000000              -0.047913621               0.150568498               0.000000000              -0.057219379               0.173863932               0.000000000              -0.066525138               0.197159365               0.000000000              -0.075830897               0.220454798               0.000000000              -0.085136655               0.243750232               0.000000000              -0.094442414               0.267045665               0.000000000              -0.103748172               0.290341099               0.000000000              -0.113053931               0.313636532               0.000000000              -0.122359690               0.336931966               0.000000000              -0.131665448               0.360227399               0.000000000              -0.140971207               0.383522833               0.000000000              -0.150276966               0.406818266               0.000000000              -0.159582724               0.430113700               0.000000000              -0.168888483               0.453409133               0.000000000              -0.178194241               0.476704567               0.000000000              -0.187500000               0.500000000               0.000000000              -0.025947013               0.130444442               0.000000000              -0.032137825               0.153541665               0.000000000              -0.038328636               0.176638887               0.000000000              -0.044519448               0.199736109               0.000000000              -0.050710260               0.222833332               0.000000000              -0.056901071               0.245930554               0.000000000              -0.063091883               0.269027776               0.000000000              -0.069282695               0.292124999               0.000000000              -0.075473506               0.315222221               0.000000000              -0.081664318               0.338319444               0.000000000              -0.087855130               0.361416666               0.000000000              -0.094045942               0.384513888               0.000000000              -0.100236753               0.407611111               0.000000000              -0.106427565               0.430708333               0.000000000              -0.112618377               0.453805555               0.000000000              -0.118809188               0.476902778               0.000000000              -0.125000000               0.500000000               0.000000000              -0.013036280               0.132359569               0.000000000              -0.016127762               0.155337096               0.000000000              -0.019219245               0.178314623               0.000000000              -0.022310727               0.201292150               0.000000000              -0.025402210               0.224269676               0.000000000              -0.028493692               0.247247203               0.000000000              -0.031585175               0.270224730               0.000000000              -0.034676657               0.293202257               0.000000000              -0.037768140               0.316179784               0.000000000              -0.040859622               0.339157311               0.000000000              -0.043951105               0.362134838               0.000000000              -0.047042587               0.385112365               0.000000000              -0.050134070               0.408089892               0.000000000              -0.053225552               0.431067419               0.000000000              -0.056317035               0.454044946               0.000000000              -0.059408517               0.477022473               0.000000000              -0.062500000               0.500000000               0.000000000               0.000000000               0.133000000               0.000000000               0.000000000               0.155937500               0.000000000               0.000000000               0.178875000               0.000000000               0.000000000               0.201812500               0.000000000               0.000000000               0.224750000               0.000000000               0.000000000               0.247687500               0.000000000               0.000000000               0.270625000               0.000000000               0.000000000               0.293562500               0.000000000               0.000000000               0.316500000               0.000000000               0.000000000               0.339437500               0.000000000               0.000000000               0.362375000               0.000000000               0.000000000               0.385312500               0.000000000               0.000000000               0.408250000               0.000000000               0.000000000               0.431187500               0.000000000               0.000000000               0.454125000               0.000000000               0.000000000               0.477062500               0.000000000               0.000000000               0.500000000               0.000000000 </DataArray>
</Points>
<Cells>
<DataArray type="Int32"                                    Name="connectivity"                                                      NumberOfComponents=" 1" format="ascii">
         0          1         18         17          1          2         19         18          2          3         20         19          3          4         21         20          4          5         22         21          5          6         23         22          6          7         24         23          7          8         25         24          8          9         26         25          9         10         27         26         10         11         28         27         11         12         29         28         12         13         30         29         13         14         31         30         14         15         32         31         15         16         33         32         17         18         35         34         18         19         36         35         19         20         37         36         20         21         38         37         21         22         39         38         22         23         40         39         23         24         41         40         24         25         42         41         25         26         43         42         26         27         44         43         27         28         45         44         28         29         46         45         29         30         47         46         30         31         48         47         31         32         49         48         32         33         50         49         34         35         52         51         35         36         53         52         36         37         54         53         37         38         55         54         38         39         56         55         39         40         57         56         40         41         58         57         41         42         59         58         42         43         60         59         43         44         61         60         44         45         62         61         45         46         63         62         46         47         64         63         47         48         65         64         48         49         66         65         49         50         67         66         51         52         69         68         52         53         70         69         53         54         71         70         54         55         72         71         55         56         73         72         56         57         74         73         57         58         75         74         58         59         76         75         59         60         77         76         60         61         78         77         61         62         79         78         62         63         80         79         63         64         81         80         64         65         82         81         65         66         83         82         66         67         84         83         68         69         86         85         69         70         87         86         70         71         88         87         71         72         89         88         72         73         90         89         73         74         91         90         74         75         92         91         75         76         93         92         76         77         94         93         77         78         95         94         78         79         96         95         79         80         97         96         80         81         98         97         81         82         99         98         82         83        100         99         83         84        101        100         85         86        103        102         86         87        104        103         87         88        105        104         88         89        106        105         89         90        107        106         90         91        108        107         91         92        109        108         92         93        110        109         93         94        111        110         94         95        112        111         95         96        113        112         96         97        114        113         97         98        115        114         98         99        116        115         99        100        117        116        100        101        118        117        102        103        120        119        103        104        121        120        104        105        122        121        105        106        123        122        106        107        124        123        107        108        125        124        108        109        126        125        109        110        127        126        110        111        128        127        111        112        129        128        112        113        130        129        113        114        131        130        114        115        132        131        115        116        133        132        116        117        134        133        117        118        135        134        119        120        137        136        120        121        138        137        121        122        139        138        122        123        140        139        123        124        141        140        124        125        142        141        125        126        143        142        126        127        144        143        127        128        145        144        128        129        146        145        129        130        147        146        130        131        148        147        131        132        149        148        132        133        150        149        133        134        151        150        134        135        152        151        136        137        154        153        137        138        155        154        138        139        156        155        139        140        157        156        140        141        158        157        141        142        159        158        142        143        160        159        143        144        161        160        144        145        162        161        145        146        163        162        146        147        164        163        147        148        165        164        148        149        166        165        149        150        167        166        150        151        168        167        151        152        169        168        153        154        171        170        154        155        172        171        155        156        173        172        156        157        174        173        157        158        175        174        158        159        176        175        159        160        177        176        160        161        178        177        161        162        179        178        162        163        180        179        163        164        181        180        164        165        182        181        165        166        183        182        166        167        184        183        167        168        185        184        168        169        186        185        170        171        188        187        171        172        189        188        172        173        190        189        173        174        191        190        174        175        192        191        175        176        193        192        176        177        194        193        177        178        195        194        178        179        196        195        179        180        197        196        180        181        198        197        181        182        199        198        182        183        200        199        183        184        201        200        184        185        202        201        185        186        203        202        187        188        205        204        188        189        206        205        189        190        207        206        190        191        208        207        191        192        209        208        192        193        210        209        193        194        211        210        194        195        212        211        195        196        213        212        196        197        214        213        197        198        215        214        198        199        216        215        199        200        217        216        200        201        218        217        201        202        219        218        202        203        220        219        204        205        222        221        205        206        223        222        206        207        224        223        207        208        225        224        208        209        226        225        209        210        227        226        210        211        228        227        211        212        229        228        212        213        230        229        213        214        231        230        214        215        232        231        215        216        233        232        216        217        234        233        217        218        235        234        218        219        236        235        219        220        237        236        221        222        239        238        222        223        240        239        223        224        241        240        224        225        242        241        225        226        243        242        226        227        244        243        227        228        245        244        228        229        246        245        229        230        247        246        230        231        248        247        231        232        249        248        232        233        250        249        233        234        251        250        234        235        252        251        235        236        253        252        236        237        254        253        238        239        256        255        239        240        257        256        240        241        258        257        241        242        259        258        242        243        260        259        243        244        261        260        244        245        262        261        245        246        263        262        246        247        264        263        247        248        265        264        248        249        266        265        249        250        267        266        250        251        268        267        251        252        269        268        252        253        270        269        253        254        271        270        255        256        273        272        256        257        274        273        257        258        275        274        258        259        276        275        259        260        277        276        260        261        278        277        261        262        279        278        262        263        280        279        263        264        281        280        264        265        282        281        265        266        283        282        266        267        284        283        267        268        285        284        268        269        286        285        269        270        287        286        270        271        288        287        306        307          1          0        307        308          2          1        308        309          3          2        309        310          4          3        310        311          5          4        311        312          6          5        312        313          7          6        313        314          8          7        314        315          9          8        315        316         10          9        316        317         11         10        317        318         12         11        318        319         13         12        319        320         14         13        320        321         15         14        321        322         16         15        323        324        307        306        324        325        308        307        325        326        309        308        326        327        310        309        327        328        311        310        328        329        312        311        329        330        313        312        330        331        314        313        331        332        315        314        332        333        316        315        333        334        317        316        334        335        318        317        335        336        319        318        336        337        320        319        337        338        321        320        338        339        322        321        340        341        324        323        341        342        325        324        342        343        326        325        343        344        327        326        344        345        328        327        345        346        329        328        346        347        330        329        347        348        331        330        348        349        332        331        349        350        333        332        350        351        334        333        351        352        335        334        352        353        336        335        353        354        337        336        354        355        338        337        355        356        339        338        357        358        341        340        358        359        342        341        359        360        343        342        360        361        344        343        361        362        345        344        362        363        346        345        363        364        347        346        364        365        348        347        365        366        349        348        366        367        350        349        367        368        351        350        368        369        352        351        369        370        353        352        370        371        354        353        371        372        355        354        372        373        356        355        374        375        358        357        375        376        359        358        376        377        360        359        377        378        361        360        378        379        362        361        379        380        363        362        380        381        364        363        381        382        365        364        382        383        366        365        383        384        367        366        384        385        368        367        385        386        369        368        386        387        370        369        387        388        371        370        388        389        372        371        389        390        373        372        391        392        375        374        392        393        376        375        393        394        377        376        394        395        378        377        395        396        379        378        396        397        380        379        397        398        381        380        398        399        382        381        399        400        383        382        400        401        384        383        401        402        385        384        402        403        386        385        403        404        387        386        404        405        388        387        405        406        389        388        406        407        390        389        408        409        392        391        409        410        393        392        410        411        394        393        411        412        395        394        412        413        396        395        413        414        397        396        414        415        398        397        415        416        399        398        416        417        400        399        417        418        401        400        418        419        402        401        419        420        403        402        420        421        404        403        421        422        405        404        422        423        406        405        423        424        407        406        425        426        409        408        426        427        410        409        427        428        411        410        428        429        412        411        429        430        413        412        430        431        414        413        431        432        415        414        432        433        416        415        433        434        417        416        434        435        418        417        435        436        419        418        436        437        420        419        437        438        421        420        438        439        422        421        439        440        423        422        440        441        424        423        442        443        426        425        443        444        427        426        444        445        428        427        445        446        429        428        446        447        430        429        447        448        431        430        448        449        432        431        449        450        433        432        450        451        434        433        451        452        435        434        452        453        436        435        453        454        437        436        454        455        438        437        455        456        439        438        456        457        440        439        457        458        441        440        459        460        443        442        460        461        444        443        461        462        445        444        462        463        446        445        463        464        447        446        464        465        448        447        465        466        449        448        466        467        450        449        467        468        451        450        468        469        452        451        469        470        453        452        470        471        454        453        471        472        455        454        472        473        456        455        473        474        457        456        474        475        458        457        476        477        460        459        477        478        461        460        478        479        462        461        479        480        463        462        480        481        464        463        481        482        465        464        482        483        466        465        483        484        467        466        484        485        468        467        485        486        469        468        486        487        470        469        487        488        471        470        488        489        472        471        489        490        473        472        490        491        474        473        491        492        475        474        493        494        477        476        494        495        478        477        495        496        479        478        496        497        480        479        497        498        481        480        498        499        482        481        499        500        483        482        500        501        484        483        501        502        485        484        502        503        486        485        503        504        487        486        504        505        488        487        505        506        489        488        506        507        490        489        507        508        491        490        508        509        492        491        510        511        494        493        511        512        495        494        512        513        496        495        513        514        497        496        514        515        498        497        515        516        499        498        516        517        500        499        517        518        501        500        518        519        502        501        519        520        503        502        520        521        504        503        521        522        505        504        522        523        506        505        523        524        507        506        524        525        508        507        525        526        509        508        527        528        511        510        528        529        512        511        529        530        513        512        530        531        514        513        531        532        515        514        532        533        516        515        533        534        517        516        534        535        518        517        535        536        519        518        536        537        520        519        537        538        521        520        538        539        522        521        539        540        523        522        540        541        524        523        541        542        525        524        542        543        526        525        544        545        528        527        545        546        529        528        546        547        530        529        547        548        531        530        548        549        532        531        549        550        533        532        550        551        534        533        551        552        535        534        552        553        536        535        553        554        537        536        554        555        538        537        555        556        539        538        556        557        540        539        557        558        541        540        558        559        542        541        559        560        543        542        561        562        545        544        562        563        546        545        563        564        547        546        564        565        548        547        565        566        549        548        566        567        550        549        567        568        551        550        568        569        552        551        569        570        553        552        570        571        554        553        571        572        555        554        572        573        556        555        573        574        557        556        574        575        558        557        575        576        559        558        576        577        560        559        578        579        596        595        579        580        597        596        580        581        598        597        581        582        599        598        582        583        600        599        583        584        601        600        584        585        602        601        585        586        603        602        586        587        604        603        587        588        605        604        588        589        606        605        589        590        607        606        590        591        608        607        591        592        609        608        592        593        610        609        593        594        611        610        595        596        613        612        596        597        614        613        597        598        615        614        598        599        616        615        599        600        617        616        600        601        618        617        601        602        619        618        602        603        620        619        603        604        621        620        604        605        622        621        605        606        623        622        606        607        624        623        607        608        625        624        608        609        626        625        609        610        627        626        610        611        628        627        612        613        630        629        613        614        631        630        614        615        632        631        615        616        633        632        616        617        634        633        617        618        635        634        618        619        636        635        619        620        637        636        620        621        638        637        621        622        639        638        622        623        640        639        623        624        641        640        624        625        642        641        625        626        643        642        626        627        644        643        627        628        645        644        629        630        647        646        630        631        648        647        631        632        649        648        632        633        650        649        633        634        651        650        634        635        652        651        635        636        653        652        636        637        654        653        637        638        655        654        638        639        656        655        639        640        657        656        640        641        658        657        641        642        659        658        642        643        660        659        643        644        661        660        644        645        662        661        646        647        664        663        647        648        665        664        648        649        666        665        649        650        667        666        650        651        668        667        651        652        669        668        652        653        670        669        653        654        671        670        654        655        672        671        655        656        673        672        656        657        674        673        657        658        675        674        658        659        676        675        659        660        677        676        660        661        678        677        661        662        679        678        663        664        681        680        664        665        682        681        665        666        683        682        666        667        684        683        667        668        685        684        668        669        686        685        669        670        687        686        670        671        688        687        671        672        689        688        672        673        690        689        673        674        691        690        674        675        692        691        675        676        693        692        676        677        694        693        677        678        695        694        678        679        696        695        680        681        698        697        681        682        699        698        682        683        700        699        683        684        701        700        684        685        702        701        685        686        703        702        686        687        704        703        687        688        705        704        688        689        706        705        689        690        707        706        690        691        708        707        691        692        709        708        692        693        710        709        693        694        711        710        694        695        712        711        695        696        713        712        697        698        715        714        698        699        716        715        699        700        717        716        700        701        718        717        701        702        719        718        702        703        720        719        703        704        721        720        704        705        722        721        705        706        723        722        706        707        724        723        707        708        725        724        708        709        726        725        709        710        727        726        710        711        728        727        711        712        729        728        712        713        730        729        714        715        732        731        715        716        733        732        716        717        734        733        717        718        735        734        718        719        736        735        719        720        737        736        720        721        738        737        721        722        739        738        722        723        740        739        723        724        741        740        724        725        742        741        725        726        743        742        726        727        744        743        727        728        745        744        728        729        746        745        729        730        747        746        731        732        749        748        732        733        750        749        733        734        751        750        734        735        752        751        735        736        753        752        736        737        754        753        737        738        755        754        738        739        756        755        739        740        757        756        740        741        758        757        741        742        759        758        742        743        760        759        743        744        761        760        744        745        762        761        745        746        763        762        746        747        764        763        748        749        766        765        749        750        767        766        750        751        768        767        751        752        769        768        752        753        770        769        753        754        771        770        754        755        772        771        755        756        773        772        756        757        774        773        757        758        775        774        758        759        776        775        759        760        777        776        760        761        778        777        761        762        779        778        762        763        780        779        763        764        781        780        765        766        783        782        766        767        784        783        767        768        785        784        768        769        786        785        769        770        787        786        770        771        788        787        771        772        789        788        772        773        790        789        773        774        791        790        774        775        792        791        775        776        793        792        776        777        794        793        777        778        795        794        778        779        796        795        779        780        797        796        780        781        798        797        782        783        800        799        783        784        801        800        784        785        802        801        785        786        803        802        786        787        804        803        787        788        805        804        788        789        806        805        789        790        807        806        790        791        808        807        791        792        809        808        792        793        810        809        793        794        811        810        794        795        812        811        795        796        813        812        796        797        814        813        797        798        815        814        799        800        817        816        800        801        818        817        801        802        819        818        802        803        820        819        803        804        821        820        804        805        822        821        805        806        823        822        806        807        824        823        807        808        825        824        808        809        826        825        809        810        827        826        810        811        828        827        811        812        829        828        812        813        830        829        813        814        831        830        814        815        832        831        816        817        834        833        817        818        835        834        818        819        836        835        819        820        837        836        820        821        838        837        821        822        839        838        822        823        840        839        823        824        841        840        824        825        842        841        825        826        843        842        826        827        844        843        827        828        845        844        828        829        846        845        829        830        847        846        830        831        848        847        831        832        849        848        833        834        562        561        834        835        563        562        835        836        564        563        836        837        565        564        837        838        566        565        838        839        567        566        839        840        568        567        840        841        569        568        841        842        570        569        842        843        571        570        843        844        572        571        844        845        573        572        845        846        574        573        846        847        575        574        847        848        576        575        848        849        577        576        884        885        579        578        885        886        580        579        886        887        581        580        887        888        582        581        888        889        583        582        889        890        584        583        890        891        585        584        891        892        586        585        892        893        587        586        893        894        588        587        894        895        589        588        895        896        590        589        896        897        591        590        897        898        592        591        898        899        593        592        899        900        594        593        901        902        885        884        902        903        886        885        903        904        887        886        904        905        888        887        905        906        889        888        906        907        890        889        907        908        891        890        908        909        892        891        909        910        893        892        910        911        894        893        911        912        895        894        912        913        896        895        913        914        897        896        914        915        898        897        915        916        899        898        916        917        900        899        918        919        902        901        919        920        903        902        920        921        904        903        921        922        905        904        922        923        906        905        923        924        907        906        924        925        908        907        925        926        909        908        926        927        910        909        927        928        911        910        928        929        912        911        929        930        913        912        930        931        914        913        931        932        915        914        932        933        916        915        933        934        917        916        935        936        919        918        936        937        920        919        937        938        921        920        938        939        922        921        939        940        923        922        940        941        924        923        941        942        925        924        942        943        926        925        943        944        927        926        944        945        928        927        945        946        929        928        946        947        930        929        947        948        931        930        948        949        932        931        949        950        933        932        950        951        934        933        952        953        936        935        953        954        937        936        954        955        938        937        955        956        939        938        956        957        940        939        957        958        941        940        958        959        942        941        959        960        943        942        960        961        944        943        961        962        945        944        962        963        946        945        963        964        947        946        964        965        948        947        965        966        949        948        966        967        950        949        967        968        951        950        969        970        953        952        970        971        954        953        971        972        955        954        972        973        956        955        973        974        957        956        974        975        958        957        975        976        959        958        976        977        960        959        977        978        961        960        978        979        962        961        979        980        963        962        980        981        964        963        981        982        965        964        982        983        966        965        983        984        967        966        984        985        968        967        986        987        970        969        987        988        971        970        988        989        972        971        989        990        973        972        990        991        974        973        991        992        975        974        992        993        976        975        993        994        977        976        994        995        978        977        995        996        979        978        996        997        980        979        997        998        981        980        998        999        982        981        999       1000        983        982       1000       1001        984        983       1001       1002        985        984       1003       1004        987        986       1004       1005        988        987       1005       1006        989        988       1006       1007        990        989       1007       1008        991        990       1008       1009        992        991       1009       1010        993        992       1010       1011        994        993       1011       1012        995        994       1012       1013        996        995       1013       1014        997        996       1014       1015        998        997       1015       1016        999        998       1016       1017       1000        999       1017       1018       1001       1000       1018       1019       1002       1001       1020       1021       1004       1003       1021       1022       1005       1004       1022       1023       1006       1005       1023       1024       1007       1006       1024       1025       1008       1007       1025       1026       1009       1008       1026       1027       1010       1009       1027       1028       1011       1010       1028       1029       1012       1011       1029       1030       1013       1012       1030       1031       1014       1013       1031       1032       1015       1014       1032       1033       1016       1015       1033       1034       1017       1016       1034       1035       1018       1017       1035       1036       1019       1018       1037       1038       1021       1020       1038       1039       1022       1021       1039       1040       1023       1022       1040       1041       1024       1023       1041       1042       1025       1024       1042       1043       1026       1025       1043       1044       1027       1026       1044       1045       1028       1027       1045       1046       1029       1028       1046       1047       1030       1029       1047       1048       1031       1030       1048       1049       1032       1031       1049       1050       1033       1032       1050       1051       1034       1033       1051       1052       1035       1034       1052       1053       1036       1035       1054       1055       1038       1037       1055       1056       1039       1038       1056       1057       1040       1039       1057       1058       1041       1040       1058       1059       1042       1041       1059       1060       1043       1042       1060       1061       1044       1043       1061       1062       1045       1044       1062       1063       1046       1045       1063       1064       1047       1046       1064       1065       1048       1047       1065       1066       1049       1048       1066       1067       1050       1049       1067       1068       1051       1050       1068       1069       1052       1051       1069       1070       1053       1052       1071       1072       1055       1054       1072       1073       1056       1055       1073       1074       1057       1056       1074       1075       1058       1057       1075       1076       1059       1058       1076       1077       1060       1059       1077       1078       1061       1060       1078       1079       1062       1061       1079       1080       1063       1062       1080       1081       1064       1063       1081       1082       1065       1064       1082       1083       1066       1065       1083       1084       1067       1066       1084       1085       1068       1067       1085       1086       1069       1068       1086       1087       1070       1069       1088       1089       1072       1071       1089       1090       1073       1072       1090       1091       1074       1073       1091       1092       1075       1074       1092       1093       1076       1075       1093       1094       1077       1076       1094       1095       1078       1077       1095       1096       1079       1078       1096       1097       1080       1079       1097       1098       1081       1080       1098       1099       1082       1081       1099       1100       1083       1082       1100       1101       1084       1083       1101       1102       1085       1084       1102       1103       1086       1085       1103       1104       1087       1086       1105       1106       1089       1088       1106       1107       1090       1089       1107       1108       1091       1090       1108       1109       1092       1091       1109       1110       1093       1092       1110       1111       1094       1093       1111       1112       1095       1094       1112       1113       1096       1095       1113       1114       1097       1096       1114       1115       1098       1097       1115       1116       1099       1098       1116       1117       1100       1099       1117       1118       1101       1100       1118       1119       1102       1101       1119       1120       1103       1102       1120       1121       1104       1103       1122       1123       1106       1105       1123       1124       1107       1106       1124       1125       1108       1107       1125       1126       1109       1108       1126       1127       1110       1109       1127       1128       1111       1110       1128       1129       1112       1111       1129       1130       1113       1112       1130       1131       1114       1113       1131       1132       1115       1114       1132       1133       1116       1115       1133       1134       1117       1116       1134       1135       1118       1117       1135       1136       1119       1118       1136       1137       1120       1119       1137       1138       1121       1120        272        273       1123       1122        273        274       1124       1123        274        275       1125       1124        275        276       1126       1125        276        277       1127       1126        277        278       1128       1127        278        279       1129       1128        279        280       1130       1129        280        281       1131       1130        281        282       1132       1131        282        283       1133       1132        283        284       1134       1133        284        285       1135       1134        285        286       1136       1135        286        287       1137       1136        287        288       1138       1137 </DataArray>
<DataArray type="Int32"                                    Name="offsets"                                                      NumberOfComponents=" 1" format="ascii">
         4          8         12         16         20         24         28         32         36         40         44         48         52         56         60         64         68         72         76         80         84         88         92         96        100        104        108        112        116        120        124        128        132        136        140        144        148        152        156        160        164        168        172        176        180        184        188        192        196        200        204        208        212        216        220        224        228        232        236        240        244        248        252        256        260        264        268        272        276        280        284        288        292        296        300        304        308        312        316        320        324        328        332        336        340        344        348        352        356        360        364        368        372        376        380        384        388        392        396        400        404        408        412        416        420        424        428        432        436        440        444        448        452        456        460        464        468        472        476        480        484        488        492        496        500        504        508        512        516        520        524        528        532        536        540        544        548        552        556        560        564        568        572        576        580        584        588        592        596        600        604        608        612        616        620        624        628        632        636        640        644        648        652        656        660        664        668        672        676        680        684        688        692        696        700        704        708        712        716        720        724        728        732        736        740        744        748        752        756        760        764        768        772        776        780        784        788        792        796        800        804        808        812        816        820        824        828        832        836        840        844        848        852        856        860        864        868        872        876        880        884        888        892        896        900        904        908        912        916        920        924        928        932        936        940        944        948        952        956        960        964        968        972        976        980        984        988        992        996       1000       1004       1008       1012       1016       1020       1024       1028       1032       1036       1040       1044       1048       1052       1056       1060       1064       1068       1072       1076       1080       1084       1088       1092       1096       1100       1104       1108       1112       1116       1120       1124       1128       1132       1136       1140       1144       1148       1152       1156       1160       1164       1168       1172       1176       1180       1184       1188       1192       1196       1200       1204       1208       1212       1216       1220       1224       1228       1232       1236       1240       1244       1248       1252       1256       1260       1264       1268       1272       1276       1280       1284       1288       1292       1296       1300       1304       1308       1312       1316       1320       1324       1328       1332       1336       1340       1344       1348       1352       1356       1360       1364       1368       1372       1376       1380       1384       1388       1392       1396       1400       1404       1408       1412       1416       1420       1424       1428       1432       1436       1440       1444       1448       1452       1456       1460       1464       1468       1472       1476       1480       1484       1488       1492       1496       1500       1504       1508       1512       1516       1520       1524       1528       1532       1536       1540       1544       1548       1552       1556       1560       1564       1568       1572       1576       1580       1584       1588       1592       1596       1600       1604       1608       1612       1616       1620       1624       1628       1632       1636       1640       1644       1648       1652       1656       1660       1664       1668       1672       1676       1680       1684       1688       1692       1696       1700       1704       1708       1712       1716       1720       1724       1728       1732       1736       1740       1744       1748       1752       1756       1760       1764       1768       1772       1776       1780       1784       1788       1792       1796       1800       1804       1808       1812       1816       1820       1824       1828       1832       1836       1840       1844       1848       1852       1856       1860       1864       1868       1872       1876       1880       1884       1888       1892       1896       1900       1904       1908       1912       1916       1920       1924       1928       1932       1936       1940       1944       1948       1952       1956       1960       1964       1968       1972       1976       1980       1984       1988       1992       1996       2000       2004       2008       2012       2016       2020       2024       2028       2032       2036       2040       2044       2048       2052       2056       2060       2064       2068       2072       2076       2080       2084       2088       2092       2096       2100       2104       2108       2112       2116       2120       2124       2128       2132       2136       2140       2144       2148       2152       2156       2160       2164       2168       2172       2176       2180       2184       2188       2192       2196       2200       2204       2208       2212       2216       2220       2224       2228       2232       2236       2240       2244       2248       2252       2256       2260       2264       2268       2272       2276       2280       2284       2288       2292       2296       2300       2304       2308       2312       2316       2320       2324       2328       2332       2336       2340       2344       2348       2352       2356       2360       2364       2368       2372       2376       2380       2384       2388       2392       2396       2400       2404       2408       2412       2416       2420       2424       2428       2432       2436       2440       2444       2448       2452       2456       2460       2464       2468       2472       2476       2480       2484       2488       2492       2496       2500       2504       2508       2512       2516       2520       2524       2528       2532       2536       2540       2544       2548       2552       2556       2560       2564       2568       2572       2576       2580       2584       2588       2592       2596       2600       2604       2608       2612       2616       2620       2624       2628       2632       2636       2640       2644       2648       2652       2656       2660       2664       2668       2672       2676       2680       2684       2688       2692       2696       2700       2704       2708       2712       2716       2720       2724       2728       2732       2736       2740       2744       2748       2752       2756       2760       2764       2768       2772       2776       2780       2784       2788       2792       2796       2800       2804       2808       2812       2816       2820       2824       2828       2832       2836       2840       2844       2848       2852       2856       2860       2864       2868       2872       2876       2880       2884       2888       2892       2896       2900       2904       2908       2912       2916       2920       2924       2928       2932       2936       2940       2944       2948       2952       2956       2960       2964       2968       2972       2976       2980       2984       2988       2992       2996       3000       3004       3008       3012       3016       3020       3024       3028       3032       3036       3040       3044       3048       3052       3056       3060       3064       3068       3072       3076       3080       3084       3088       3092       3096       3100       3104       3108       3112       3116       3120       3124       3128       3132       3136       3140       3144       3148       3152       3156       3160       3164       3168       3172       3176       3180       3184       3188       3192       3196       3200       3204       3208       3212       3216       3220       3224       3228       3232       3236       3240       3244       3248       3252       3256       3260       3264       3268       3272       3276       3280       3284       3288       3292       3296       3300       3304       3308       3312       3316       3320       3324       3328       3332       3336       3340       3344       3348       3352       3356       3360       3364       3368       3372       3376       3380       3384       3388       3392       3396       3400       3404       3408       3412       3416       3420       3424       3428       3432       3436       3440       3444       3448       3452       3456       3460       3464       3468       3472       3476       3480       3484       3488       3492       3496       3500       3504       3508       3512       3516       3520       3524       3528       3532       3536       3540       3544       3548       3552       3556       3560       3564       3568       3572       3576       3580       3584       3588       3592       3596       3600       3604       3608       3612       3616       3620       3624       3628       3632       3636       3640       3644       3648       3652       3656       3660       3664       3668       3672       3676       3680       3684       3688       3692       3696       3700       3704       3708       3712       3716       3720       3724       3728       3732       3736       3740       3744       3748       3752       3756       3760       3764       3768       3772       3776       3780       3784       3788       3792       3796       3800       3804       3808       3812       3816       3820       3824       3828       3832       3836       3840       3844       3848       3852       3856       3860       3864       3868       3872       3876       3880       3884       3888       3892       3896       3900       3904       3908       3912       3916       3920       3924       3928       3932       3936       3940       3944       3948       3952       3956       3960       3964       3968       3972       3976       3980       3984       3988       3992       3996       4000       4004       4008       4012       4016       4020       4024       4028       4032       4036       4040       4044       4048       4052       4056       4060       4064       4068       4072       4076       4080       4084       4088       4092       4096 </DataArray>
<DataArray type="UInt8"                                    Name="types"                                                      NumberOfComponents=" 1" format="ascii">
         9          9          9          9          9          9          9          9          9          9          9          9          9          9          9          9          9          9          9          9          9          9          9          9          9          9          9          9          9          9          9          9          9          9          9          9          9          9          9          9          9          9          9          9          9          9          9          9          9          9          9          9          9          9          9          9          9          9          9          9          9          9          9          9          9          9          9          9          9          9          9          9          9          9          9          9          9          9          9          9          9          9          9          9          9          9          9          9          9          9          9          9          9          9          9          9          9          9          9          9          9          9          9          9          9          9          9          9          9          9          9          9          9          9          9          9          9          9          9          9          9          9          9          9          9          9          9          9          9          9          9          9          9          9          9          9          9          9          9          9          9          9          9          9          9          9          9          9          9          9          9          9          9          9          9          9          9          9          9          9          9          9          9          9          9          9          9          9          9          9          9          9          9          9          9          9          9          9          9          9          9          9          9          9          9          9          9          9          9          9          9          9          9          9          9          9          9          9          9          9          9          9          9          9          9          9          9          9          9          9          9          9          9          9          9          9          9          9          9          9          9          9          9          9          9          9          9          9          9          9          9          9          9          9          9          9          9          9          9          9          9          9          9          9          9          9          9          9          9          9          9          9          9          9          9          9          9          9          9          9          9          9          9          9          9          9          9          9          9          9          9          9          9          9          9          9          9          9          9          9          9          9          9          9          9          9          9          9          9          9          9          9          9          9          9          9          9          9          9          9          9          9          9          9          9          9          9          9          9          9          9          9          9          9          9          9          9          9          9          9          9          9          9          9          9          9          9          9          9          9          9          9          9          9          9          9          9          9          9          9          9          9          9          9          9          9          9          9          9          9          9          9          9          9          9          9          9          9          9          9          9          9          9          9          9          9          9          9          9          9          9          9          9          9          9          9          9          9          9          9          9          9          9          9          9          9          9          9          9          9          9          9          9          9          9          9          9          9          9          9          9          9          9          9          9          9          9          9          9          9          9          9          9          9          9          9          9          9          9          9          9          9          9          9          9          9          9          9          9          9          9          9          9          9          9          9          9          9          9          9          9          9          9          9          9          9          9          9          9          9          9          9          9          9          9          9          9          9          9          9          9          9          9          9          9          9          9          9          9          9          9          9          9          9          9          9          9          9          9          9          9          9          9          9          9          9          9          9          9          9          9          9          9          9          9          9          9          9          9          9          9          9          9          9          9          9          9          9          9          9          9          9          9          9          9          9          9          9          9          9          9          9          9          9          9          9          9          9          9          9          9          9          9          9          9          9          9          9          9          9          9          9          9          9          9          9          9          9          9          9          9          9          9          9          9          9          9          9          9          9          9          9          9          9          9          9          9          9          9          9          9          9          9          9          9          9          9          9          9          9          9          9          9          9          9          9          9          9          9          9          9          9          9          9          9          9          9          9          9          9          9          9          9          9          9          9          9          9          9          9          9          9          9          9          9          9          9          9          9          9          9          9          9          9          9          9          9          9          9          9          9          9          9          9          9          9          9          9          9          9          9          9          9          9          9          9          9          9          9          9          9          9          9          9          9          9          9          9          9          9          9          9          9          9          9          9          9          9          9          9          9          9          9          9          9          9          9          9          9          9          9          9          9          9          9          9          9          9          9          9          9          9          9          9          9          9          9          9          9          9          9          9          9          9          9          9          9          9          9          9          9          9          9          9          9          9          9          9          9          9          9          9          9          9          9          9          9          9          9          9          9          9          9          9          9          9          9          9          9          9          9          9          9          9          9          9          9          9          9          9          9          9          9          9          9          9          9          9          9          9          9          9          9          9          9          9          9          9          9          9          9          9          9          9          9          9          9          9          9          9          9          9          9          9          9          9          9          9          9          9          9          9          9          9          9          9          9          9          9          9          9          9          9          9          9          9          9          9          9          9          9          9          9          9          9          9          9          9          9          9          9          9          9          9          9          9          9          9          9          9          9          9          9          9          9          9          9          9          9          9          9          9          9          9          9          9          9          9          9          9          9          9          9          9          9          9          9          9          9          9          9          9          9          9          9          9          9          9          9          9          9          9          9          9          9          9          9          9          9          9          9          9          9          9          9          9          9          9          9          9          9          9          9          9          9          9          9          9          9          9          9          9          9          9          9          9          9          9          9          9          9          9          9          9          9          9          9          9          9          9          9          9          9          9          9          9          9          9          9          9          9          9          9          9          9          9          9          9          9          9          9          9          9          9          9          9          9          9          9          9          9          9          9          9          9          9          9          9          9          9          9          9          9          9          9          9          9          9          9          9          9          9          9          9          9          9          9          9          9          9          9          9          9          9          9          9          9          9          9          9          9          9          9          9          9          9          9          9          9          9          9          9          9          9          9          9          9          9          9          9          9          9          9          9          9          9          9          9          9          9          9          9          9          9 </DataArray>
</Cells>
<CellData>
<DataArray type="Int32"                                    Name="material"                                                      NumberOfComponents=" 1" format="ascii">
         1          1          1          1          1          1          1          1          1          1          1          1          1          1          1          1          1          1          1          1          1          1          1          1          1          1          1          1          1          1          1          1          1          1          1          1          1          1          1          1          1          1          1          1          1          1          1          1          1          1          1          1          1          1          1          1          1          1          1          1          1          1          1          1          1          1          1          1          1          1          1          1          1          1          1          1          1          1          1          1          1          1          1          1          1          1          1          1          1          1          1          1          1          1          1          1          1          1          1          1          1          1          1          1          1          1          1          1          1          1          1          1          1          1          1          1          1          1          1          1          1          1          1          1          1          1          1          1          1          1          1          1          1          1          1          1          1          1          1          1          1          1          1          1          1          1          1          1          1          1          1          1          1          1          1          1          1          1          1          1          1          1          1          1          1          1          1          1          1          1          1          1          1          1          1          1          1          1          1          1          1          1          1          1          1          1          1          1          1          1          1          1          1          1          1          1          1          1          1          1          1          1          1          1          1          1          1          1          1          1          1          1          1          1          1          1          1          1          1          1          1          1          1          1          1          1          1          1          1          1          1          1          1          1          1          1          1          1          1          1          1          1          1          1          1          1          1          1          1          1          1          1          1          1          1          1          1          1          1          1          1          1          1          1          1          1          1          1          1          1          1          1          1          1          1          1          1          1          1          1          1          1          1          1          1          1          1          1          1          1          1          1          1          1          1          1          1          1          1          1          1          1          1          1          1          1          1          1          1          1          1          1          1          1          1          1          1          1          1          1          1          1          1          1          1          1          1          1          1          1          1          1          1          1          1          1          1          1          1          1          1          1          1          1          1          1          1          1          1          1          1          1          1          1          1          1          1          1          1          1          1          1          1          1          1          1          1          1          1          1          1          1          1          1          1          1          1          1          1          1          1          1          1          1          1          1          1          1          1          1          1          1          1          1          1          1          1          1          1          1          1          1          1          1          1          1          1          1          1          1          1          1          1          1          1          1          1          1          1          1          1          1          1          1          1          1          1          1          1          1          1          1          1          1          1          1          1          1          1          1          1          1          1          1          1          1          1          1          1          1          1          1          1          1          1          1          1          1          1          1          1          1          1          1          1          1          1          1          1          1          1          1          1          1          1          1          1          1          1          1          1          1          1          1          1          1          1          1          1          1          1          1          1          1          1          1          1          1          1          1          1          1          1          1          1          1          1          1          1          1          1          1          1          1          1          1          1          1          1          1          1          1          1          1          1          1          1          1          1          1          1          1          1          1          1          1          1          1          1          1          1          1          1          1          1          1          1          1          1          1          1          1          1          1          1          1          1          1          1          1          1          1          1          1          1          1          1          1          1          1          1          1          1          1          1          1          1          1          1          1          1          1          1          1          1          1          1          1          1          1          1          1          1          1          1          1          1          1          1          1          1          1          1          1          1          1          1          1          1          1          1          1          1          1          1          1          1          1          1          1          1          1          1          1          1          1          1          1          1          1          1          1          1          1          1          1          1          1          1          1          1          1          1          1          1          1          1          1          1          1          1          1          1          1          1          1          1          1          1          1          1          1          1          1          1          1          1          1          1          1          1          1          1          1          1          1          1          1          1          1          1          1          1          1          1          1          1          1          1          1          1          1          1          1          1          1          1          1          1          1          1          1          1          1          1          1          1          1          1          1          1          1          1          1          1          1          1          1          1          1          1          1          1          1          1          1          1          1          1          1          1          1          1          1          1          1          1          1          1          1          1          1          1          1          1          1          1          1          1          1          1          1          1          1          1          1          1          1          1          1          1          1          1          1          1          1          1          1          1          1          1          1          1          1          1          1          1          1          1          1          1          1          1          1          1          1          1          1          1          1          1          1          1          1          1          1          1          1          1          1          1          1          1          1          1          1          1          1          1          1          1          1          1          1          1          1          1          1          1          1          1          1          1          1          1          1          1          1          1          1          1          1          1          1          1          1          1          1          1          1          1          1          1          1          1          1          1          1          1          1          1          1          1          1          1          1          1          1          1          1          1          1          1          1          1          1          1          1          1          1          1          1          1          1          1          1          1          1          1          1          1          1          1          1          1          1          1          1          1          1          1          1          1          1          1          1          1          1          1          1          1          1          1          1          1          1          1          1          1          1          1          1          1          1          1          1          1          1          1          1          1          1          1          1          1          1          1          1          1          1          1          1          1          1          1          1          1          1          1          1          1          1          1          1          1          1          1          1          1          1          1          1          1          1          1          1          1          1          1          1          1          1          1          1          1          1          1          1          1          1          1          1          1          1          1          1          1          1          1          1          1          1          1          1          1          1          1          1          1          1          1          1          1          1          1          1          1          1          1          1          1          1          1          1          1          1          1          1          1          1          1          1          1          1          1          1          1          1          1          1          1          1          1          1 </DataArray>
</CellData>
<PointData>
<DataArray type="Float64"                                    Name="u"                                                      NumberOfComponents=" 3" format="ascii">
              0.000007588              -0.000000000               0.999999998              -0.000001506              -0.000000000               0.999999998              -0.000005898              -0.000000000               0.999999998              -0.000008351              -0.000000000               0.999999998              -0.000010108              -0.000000000               0.999999998              -0.000011769              -0.000000000               0.999999998              -0.000013623               0.000000000               0.999999998              -0.000015868              -0.000000000               0.999999998              -0.000018549              -0.000000000               0.999999998              -0.000021762              -0.000000000               0.999999998              -0.000025581              -0.000000000               0.999999998              -0.000029888              -0.000000000               0.999999998              -0.000034677              -0.000000000               0.999999998              -0.000039988              -0.000000000               0.999999998              -0.000045824              -0.000000000               0.999999998              -0.000052111              -0.000000000               0.999999998              -0.000058789               0.000000000               0.999999998               0.000007485               0.000022424               0.999999998              -0.000001301               0.000020235               0.999999998              -0.000005506               0.000019764               0.999999998              -0.000007905               0.000020287               0.999999998              -0.000009701               0.000021490               0.999999998              -0.000011407               0.000023152               0.999999998              -0.000013387               0.000025153               0.999999998              -0.000015755               0.000027503               0.999999998              -0.000018609               0.000029998               0.999999998              -0.000021998               0.000032732               0.999999998              -0.000025901               0.000035562               0.999999998              -0.000030348               0.000038622               0.999999998              -0.000035330               0.000041798               0.999999998              -0.000040835               0.000045304               0.999999998              -0.000046829               0.000048935               0.999999998              -0.000053277               0.000052592               0.999999998              -0.000060117               0.000056329               0.999999998               0.000007195               0.000044650               0.999999998              -0.000000686               0.000040252               0.999999998              -0.000004421               0.000039376               0.999999998              -0.000006663               0.000040538               0.999999998              -0.000008531               0.000042989               0.999999998              -0.000010497               0.000046379               0.999999998              -0.000012813               0.000050477               0.999999998              -0.000015590               0.000055049               0.999999998              -0.000018888               0.000060129               0.999999998              -0.000022735               0.000065508               0.999999998              -0.000027127               0.000071222               0.999999998              -0.000032101               0.000077245               0.999999998              -0.000037591               0.000083724               0.999999998              -0.000043593               0.000090651               0.999999998              -0.000050101               0.000097841               0.999999998              -0.000056998               0.000104989               0.999999998              -0.000064212               0.000112353               0.999999998               0.000006774               0.000066489               0.999999998               0.000000352               0.000059829               0.999999998              -0.000002704               0.000058683               0.999999998              -0.000004808               0.000060602               0.999999998              -0.000006920               0.000064430               0.999999998              -0.000009326               0.000069590               0.999999998              -0.000012224               0.000075730               0.999999998              -0.000015700               0.000082713               0.999999998              -0.000019717               0.000090263               0.999999998              -0.000024321               0.000098340               0.999999998              -0.000029511               0.000106884               0.999999998              -0.000035274               0.000116025               0.999999998              -0.000041622               0.000125653               0.999999998              -0.000048457               0.000135876               0.999999998              -0.000055665               0.000146334               0.999999998              -0.000063174               0.000156781               0.999999998              -0.000070988               0.000167542               0.999999998               0.000006246               0.000087726               0.999999998               0.000001786               0.000078776               0.999999998              -0.000000518               0.000077551               0.999999998              -0.000002632               0.000080419               0.999999998              -0.000005182               0.000085782               0.999999998              -0.000008297               0.000092815               0.999999998              -0.000012099               0.000101134               0.999999998              -0.000016489               0.000110404               0.999999998              -0.000021472               0.000120452               0.999999998              -0.000027057               0.000131155               0.999999998              -0.000033231               0.000142577               0.999999998              -0.000039999               0.000154696               0.999999998              -0.000047332               0.000167529               0.999999998              -0.000055075               0.000180824               0.999999998              -0.000063071               0.000194345               0.999999998              -0.000071334               0.000207922               0.999999998              -0.000079872               0.000221845               0.999999998               0.000005676               0.000108137               0.999999998               0.000003602               0.000097045               0.999999998               0.000001923               0.000096004               0.999999998              -0.000000454               0.000099997               0.999999998              -0.000003695               0.000106968               0.999999998              -0.000007814               0.000115890               0.999999998              -0.000012652               0.000126342               0.999999998              -0.000018115               0.000137883               0.999999998              -0.000024176               0.000150401               0.999999998              -0.000030860               0.000163745               0.999999998              -0.000038152               0.000178061               0.999999998              -0.000045967               0.000193254               0.999999998              -0.000054269               0.000209208               0.999999998              -0.000062845               0.000225397               0.999999998              -0.000071635               0.000241861               0.999999998              -0.000080643               0.000258480               0.999999998              -0.000089883               0.000275440               0.999999998               0.000005164               0.000127544               0.999999998               0.000005642               0.000114637               0.999999998               0.000004342               0.000113961               0.999999998               0.000001482               0.000119186               0.999999998              -0.000002719               0.000127781               0.999999998              -0.000007951               0.000138673               0.999999998              -0.000013902               0.000151256               0.999999998              -0.000020506               0.000165123               0.999999998              -0.000027710               0.000180131               0.999999998              -0.000035488               0.000196284               0.999999998              -0.000043790               0.000213511               0.999999998              -0.000052556               0.000231846               0.999999998              -0.000061694               0.000250822               0.999999998              -0.000071074               0.000269906               0.999999998              -0.000080612               0.000289193               0.999999998              -0.000090409               0.000308775               0.999999998              -0.000100533               0.000328882               0.999999998               0.000004655               0.000145725               0.999999998               0.000007734               0.000131472               0.999999998               0.000006587               0.000131302               0.999999998               0.000002956               0.000137809               0.999999998              -0.000002320               0.000148100               0.999999998              -0.000008659               0.000161002               0.999999998              -0.000015740               0.000175736               0.999999998              -0.000023459               0.000192060               0.999999998              -0.000031712               0.000209766               0.999999998              -0.000040423               0.000228829               0.999999998              -0.000049717               0.000249062               0.999999998              -0.000059446               0.000270364               0.999999998              -0.000069433               0.000292164               0.999999998              -0.000079504               0.000314157               0.999999998              -0.000089857               0.000336609               0.999999998              -0.000100620               0.000359693               0.999999998              -0.000111790               0.000383483               0.999999998               0.000004054               0.000162350               0.999999998               0.000009789               0.000147482               0.999999998               0.000008378               0.000147904               0.999999998               0.000003829               0.000155685               0.999999998              -0.000002488               0.000167775               0.999999998              -0.000009908               0.000182725               0.999999998              -0.000018021               0.000199811               0.999999998              -0.000026629               0.000218746               0.999999998              -0.000035710               0.000239322               0.999999998              -0.000045429               0.000261380               0.999999998              -0.000055674               0.000284680               0.999999998              -0.000066239               0.000308896               0.999999998              -0.000076829               0.000333780               0.999999998              -0.000087626               0.000359330               0.999999998              -0.000098814               0.000385833               0.999999998              -0.000110423               0.000413317               0.999999998              -0.000122419               0.000441661               0.999999998               0.000003205               0.000177910               0.999999998               0.000010986               0.000164068               0.999999998               0.000010566               0.000162932               0.999999998               0.000006810               0.000168823               0.999999998               0.000001201               0.000179078               0.999999998              -0.000005454               0.000192212               0.999999998              -0.000012732               0.000207485               0.999999998              -0.000020362               0.000224506               0.999999998              -0.000028317               0.000243120               0.999999998              -0.000036690               0.000263166               0.999999998              -0.000045620               0.000284452               0.999999998              -0.000054953               0.000306829               0.999999998              -0.000064340               0.000329980               0.999999998              -0.000073794               0.000354016               0.999999998              -0.000083373               0.000378786               0.999999998              -0.000093095               0.000404711               0.999999998              -0.000103219               0.000431796               0.999999998               0.000002493               0.000191940               0.999999998               0.000011386               0.000179919               0.999999998               0.000012006               0.000178031               0.999999998               0.000009198               0.000182419               0.999999998               0.000004418               0.000191030               0.999999998              -0.000001387               0.000202536               0.999999998              -0.000007798               0.000216090               0.999999998              -0.000014395               0.000231356               0.999999998              -0.000021319               0.000248162               0.999999998              -0.000028433               0.000266339               0.999999998              -0.000035931               0.000285800               0.999999998              -0.000043975               0.000306348               0.999999998              -0.000052207               0.000327796               0.999999998              -0.000060437               0.000350105               0.999999998              -0.000068555               0.000373337               0.999999998              -0.000076554               0.000397597               0.999999998              -0.000084791               0.000423034               0.999999998               0.000001863               0.000204164               0.999999998               0.000011018               0.000194629               0.999999998               0.000012473               0.000192605               0.999999998               0.000010582               0.000195989               0.999999998               0.000006810               0.000203239               0.999999998               0.000001896               0.000213283               0.999999998              -0.000003562               0.000225371               0.999999998              -0.000009251               0.000239035               0.999999998              -0.000015079               0.000254210               0.999999998              -0.000021021               0.000270724               0.999999998              -0.000027199               0.000288512               0.999999998              -0.000033864               0.000307424               0.999999998              -0.000040838               0.000327271               0.999999998              -0.000047728               0.000348047               0.999999998              -0.000054264               0.000369785               0.999999998              -0.000060665               0.000392532               0.999999998              -0.000067027               0.000416463               0.999999998               0.000001318               0.000214404               0.999999998               0.000009868               0.000207601               0.999999998               0.000011831               0.000206048               0.999999998               0.000010755               0.000208887               0.999999998               0.000007985               0.000215140               0.999999998               0.000004098               0.000223984               0.999999998              -0.000000361               0.000234846               0.999999998              -0.000005084               0.000247267               0.999999998              -0.000009820               0.000261050               0.999999998              -0.000014613               0.000276192               0.999999998              -0.000019511               0.000292567               0.999999998              -0.000024773               0.000310127               0.999999998              -0.000030245               0.000328687               0.999999998              -0.000035715               0.000348089               0.999999998              -0.000040891               0.000368412               0.999999998              -0.000045565               0.000389849               0.999999998              -0.000049918               0.000412469               0.999999998               0.000000875               0.000222534               0.999999998               0.000008018               0.000218330               0.999999998               0.000010074               0.000217599               0.999999998               0.000009644               0.000220302               0.999999998               0.000007733               0.000225933               0.999999998               0.000004945               0.000233948               0.999999998               0.000001542               0.000243856               0.999999998              -0.000002027               0.000255370               0.999999998              -0.000005635               0.000268233               0.999999998              -0.000009246               0.000282316               0.999999998              -0.000013010               0.000297610               0.999999998              -0.000016854               0.000314076               0.999999998              -0.000020935               0.000331654               0.999999998              -0.000025009               0.000350105               0.999999998              -0.000028681               0.000369448               0.999999998              -0.000031676               0.000389860               0.999999998              -0.000034059               0.000411450               0.999999998               0.000000543               0.000228427               0.999999998               0.000005644               0.000226403               0.999999998               0.000007344               0.000226530               0.999999998               0.000007278               0.000229347               0.999999998               0.000006146               0.000234701               0.999999998               0.000004328               0.000242171               0.999999998               0.000002094               0.000251475               0.999999998              -0.000000331               0.000262367               0.999999998              -0.000002692               0.000274609               0.999999998              -0.000005109               0.000288017               0.999999998              -0.000007708               0.000302576               0.999999998              -0.000010358               0.000318250               0.999999998              -0.000013003               0.000335084               0.999999998              -0.000015592               0.000353018               0.999999998              -0.000017829               0.000371931               0.999999998              -0.000019493               0.000391779               0.999999998              -0.000020393               0.000412770               0.999999998               0.000000260               0.000231975               0.999999998               0.000002912               0.000231382               0.999999998               0.000003879               0.000232192               0.999999998               0.000003901               0.000235204               0.999999998               0.000003402               0.000240434               0.999999998               0.000002523               0.000247664               0.999999998               0.000001418               0.000256611               0.999999998               0.000000184               0.000267096               0.999999998              -0.000000994               0.000278969               0.999999998              -0.000002159               0.000292061               0.999999998              -0.000003494               0.000306245               0.999999998              -0.000005026               0.000321515               0.999999998              -0.000006239               0.000337963               0.999999998              -0.000007225               0.000355595               0.999999998              -0.000008403               0.000374359               0.999999998              -0.000009186               0.000394145               0.999999998              -0.000009221               0.000414977               0.999999998              -0.000000000               0.000233207               0.999999998              -0.000000000               0.000233110               0.999999998              -0.000000000               0.000234136               0.999999998               0.000000000               0.000237216               0.999999998               0.000000000               0.000242437               0.999999998               0.000000000               0.000249579               0.999999998               0.000000000               0.000258426               0.999999998               0.000000000               0.000268856               0.999999998               0.000000000               0.000280574               0.999999998               0.000000000               0.000293458               0.999999998               0.000000000               0.000307565               0.999999998              -0.000000000               0.000322796               0.999999998              -0.000000000               0.000339113               0.999999998               0.000000000               0.000356559               0.999999998              -0.000000000               0.000375287               0.999999998               0.000000000               0.000395229               0.999999998               0.000000000               0.000416115               0.999999998               0.000007588              -0.000000000               0.999999998              -0.000001506              -0.000000000               0.999999998              -0.000005898              -0.000000000               0.999999998              -0.000008351              -0.000000000               0.999999998              -0.000010108              -0.000000000               0.999999998              -0.000011769              -0.000000000               0.999999998              -0.000013623               0.000000000               0.999999998              -0.000015868              -0.000000000               0.999999998              -0.000018549              -0.000000000               0.999999998              -0.000021762              -0.000000000               0.999999998              -0.000025581              -0.000000000               0.999999998              -0.000029888              -0.000000000               0.999999998              -0.000034677              -0.000000000               0.999999998              -0.000039988              -0.000000000               0.999999998              -0.000045824              -0.000000000               0.999999998              -0.000052111              -0.000000000               0.999999998              -0.000058789               0.000000000               0.999999998               0.000007485              -0.000022424               0.999999998              -0.000001301              -0.000020235               0.999999998              -0.000005506              -0.000019764               0.999999998              -0.000007905              -0.000020287               0.999999998              -0.000009701              -0.000021490               0.999999998              -0.000011407              -0.000023152               0.999999998              -0.000013387              -0.000025153               0.999999998              -0.000015755              -0.000027503               0.999999998              -0.000018609              -0.000029998               0.999999998              -0.000021998              -0.000032732               0.999999998              -0.000025901              -0.000035562               0.999999998              -0.000030348              -0.000038622               0.999999998              -0.000035330              -0.000041798               0.999999998              -0.000040835              -0.000045304               0.999999998              -0.000046829              -0.000048935               0.999999998              -0.000053277              -0.000052592               0.999999998              -0.000060117              -0.000056329               0.999999998               0.000007195              -0.000044650               0.999999998              -0.000000686              -0.000040252               0.999999998              -0.000004421              -0.000039376               0.999999998              -0.000006663              -0.000040538               0.999999998              -0.000008531              -0.000042989               0.999999998              -0.000010497              -0.000046379               0.999999998              -0.000012813              -0.000050477               0.999999998              -0.000015590              -0.000055049               0.999999998              -0.000018888              -0.000060129               0.999999998              -0.000022735              -0.000065508               0.999999998              -0.000027127              -0.000071222               0.999999998              -0.000032101              -0.000077245               0.999999998              -0.000037591              -0.000083724               0.999999998              -0.000043593              -0.000090651               0.999999998              -0.000050101              -0.000097841               0.999999998              -0.000056998              -0.000104989               0.999999998              -0.000064212              -0.000112353               0.999999998               0.000006774              -0.000066489               0.999999998               0.000000352              -0.000059829               0.999999998              -0.000002704              -0.000058683               0.999999998              -0.000004808              -0.000060602               0.999999998              -0.000006920              -0.000064430               0.999999998              -0.000009326              -0.000069590               0.999999998              -0.000012224              -0.000075730               0.999999998              -0.000015700              -0.000082713               0.999999998              -0.000019717              -0.000090263               0.999999998              -0.000024321              -0.000098340               0.999999998              -0.000029511              -0.000106884               0.999999998              -0.000035274              -0.000116025               0.999999998              -0.000041622              -0.000125653               0.999999998              -0.000048457              -0.000135876               0.999999998              -0.000055665              -0.000146334               0.999999998              -0.000063174              -0.000156781               0.999999998              -0.000070988              -0.000167542               0.999999998               0.000006246              -0.000087726               0.999999998               0.000001786              -0.000078776               0.999999998              -0.000000518              -0.000077551               0.999999998              -0.000002632              -0.000080419               0.999999998              -0.000005182              -0.000085782               0.999999998              -0.000008297              -0.000092815               0.999999998              -0.000012099              -0.000101134               0.999999998              -0.000016489              -0.000110404               0.999999998              -0.000021472              -0.000120452               0.999999998              -0.000027057              -0.000131155               0.999999998              -0.000033231              -0.000142577               0.999999998              -0.000039999              -0.000154696               0.999999998              -0.000047332              -0.000167529               0.999999998              -0.000055075              -0.000180824               0.999999998              -0.000063071              -0.000194345               0.999999998              -0.000071334              -0.000207922               0.999999998              -0.000079872              -0.000221845               0.999999998               0.000005676              -0.000108137               0.999999998               0.000003602              -0.000097045               0.999999998               0.000001923              -0.000096004               0.999999998              -0.000000454              -0.000099997               0.999999998              -0.000003695              -0.000106968               0.999999998              -0.000007814              -0.000115890               0.999999998              -0.000012652              -0.000126342               0.999999998              -0.000018115              -0.000137883               0.999999998              -0.000024176              -0.000150401               0.999999998              -0.000030860              -0.000163745               0.999999998              -0.000038152              -0.000178061               0.999999998              -0.000045967              -0.000193254               0.999999998              -0.000054269              -0.000209208               0.999999998              -0.000062845              -0.000225397               0.999999998              -0.000071635              -0.000241861               0.999999998              -0.000080643              -0.000258480               0.999999998              -0.000089883              -0.000275440               0.999999998               0.000005164              -0.000127544               0.999999998               0.000005642              -0.000114637               0.999999998               0.000004342              -0.000113961               0.999999998               0.000001482              -0.000119186               0.999999998              -0.000002719              -0.000127781               0.999999998              -0.000007951              -0.000138673               0.999999998              -0.000013902              -0.000151256               0.999999998              -0.000020506              -0.000165123               0.999999998              -0.000027710              -0.000180131               0.999999998              -0.000035488              -0.000196284               0.999999998              -0.000043790              -0.000213511               0.999999998              -0.000052556              -0.000231846               0.999999998              -0.000061694              -0.000250822               0.999999998              -0.000071074              -0.000269906               0.999999998              -0.000080612              -0.000289193               0.999999998              -0.000090409              -0.000308775               0.999999998              -0.000100533              -0.000328882               0.999999998               0.000004655              -0.000145725               0.999999998               0.000007734              -0.000131472               0.999999998               0.000006587              -0.000131302               0.999999998               0.000002956              -0.000137809               0.999999998              -0.000002320              -0.000148100               0.999999998              -0.000008659              -0.000161002               0.999999998              -0.000015740              -0.000175736               0.999999998              -0.000023459              -0.000192060               0.999999998              -0.000031712              -0.000209766               0.999999998              -0.000040423              -0.000228829               0.999999998              -0.000049717              -0.000249062               0.999999998              -0.000059446              -0.000270364               0.999999998              -0.000069433              -0.000292164               0.999999998              -0.000079504              -0.000314157               0.999999998              -0.000089857              -0.000336609               0.999999998              -0.000100620              -0.000359693               0.999999998              -0.000111790              -0.000383483               0.999999998               0.000004054              -0.000162350               0.999999998               0.000009789              -0.000147482               0.999999998               0.000008378              -0.000147904               0.999999998               0.000003829              -0.000155685               0.999999998              -0.000002488              -0.000167775               0.999999998              -0.000009908              -0.000182725               0.999999998              -0.000018021              -0.000199811               0.999999998              -0.000026629              -0.000218746               0.999999998              -0.000035710              -0.000239322               0.999999998              -0.000045429              -0.000261380               0.999999998              -0.000055674              -0.000284680               0.999999998              -0.000066239              -0.000308896               0.999999998              -0.000076829              -0.000333780               0.999999998              -0.000087626              -0.000359330               0.999999998              -0.000098814              -0.000385833               0.999999998              -0.000110423              -0.000413317               0.999999998              -0.000122419              -0.000441661               0.999999998               0.000003205              -0.000177910               0.999999998               0.000010986              -0.000164068               0.999999998               0.000010566              -0.000162932               0.999999998               0.000006810              -0.000168823               0.999999998               0.000001201              -0.000179078               0.999999998              -0.000005454              -0.000192212               0.999999998              -0.000012732              -0.000207485               0.999999998              -0.000020362              -0.000224506               0.999999998              -0.000028317              -0.000243120               0.999999998              -0.000036690              -0.000263166               0.999999998              -0.000045620              -0.000284452               0.999999998              -0.000054953              -0.000306829               0.999999998              -0.000064340              -0.000329980               0.999999998              -0.000073794              -0.000354016               0.999999998              -0.000083373              -0.000378786               0.999999998              -0.000093095              -0.000404711               0.999999998              -0.000103219              -0.000431796               0.999999998               0.000002493              -0.000191940               0.999999998               0.000011386              -0.000179919               0.999999998               0.000012006              -0.000178031               0.999999998               0.000009198              -0.000182419               0.999999998               0.000004418              -0.000191030               0.999999998              -0.000001387              -0.000202536               0.999999998              -0.000007798              -0.000216090               0.999999998              -0.000014395              -0.000231356               0.999999998              -0.000021319              -0.000248162               0.999999998              -0.000028433              -0.000266339               0.999999998              -0.000035931              -0.000285800               0.999999998              -0.000043975              -0.000306348               0.999999998              -0.000052207              -0.000327796               0.999999998              -0.000060437              -0.000350105               0.999999998              -0.000068555              -0.000373337               0.999999998              -0.000076554              -0.000397597               0.999999998              -0.000084791              -0.000423034               0.999999998               0.000001863              -0.000204164               0.999999998               0.000011018              -0.000194629               0.999999998               0.000012473              -0.000192605               0.999999998               0.000010582              -0.000195989               0.999999998               0.000006810              -0.000203239               0.999999998               0.000001896              -0.000213283               0.999999998              -0.000003562              -0.000225371               0.999999998              -0.000009251              -0.000239035               0.999999998              -0.000015079              -0.000254210               0.999999998              -0.000021021              -0.000270724               0.999999998              -0.000027199              -0.000288512               0.999999998              -0.000033864              -0.000307424               0.999999998              -0.000040838              -0.000327271               0.999999998              -0.000047728              -0.000348047               0.999999998              -0.000054264              -0.000369785               0.999999998              -0.000060665              -0.000392532               0.999999998              -0.000067027              -0.000416463               0.999999998               0.000001318              -0.000214404               0.999999998               0.000009868              -0.000207601               0.999999998               0.000011831              -0.000206048               0.999999998               0.000010755              -0.000208887               0.999999998               0.000007985              -0.000215140               0.999999998               0.000004098              -0.000223984               0.999999998              -0.000000361              -0.000234846               0.999999998              -0.000005084              -0.000247267               0.999999998              -0.000009820              -0.000261050               0.999999998              -0.000014613              -0.000276192               0.999999998              -0.000019511              -0.000292567               0.999999998              -0.000024773              -0.000310127               0.999999998              -0.000030245              -0.000328687               0.999999998              -0.000035715              -0.000348089               0.999999998              -0.000040891              -0.000368412               0.999999998              -0.000045565              -0.000389849               0.999999998              -0.000049918              -0.000412469               0.999999998               0.000000875              -0.000222534               0.999999998               0.000008018              -0.000218330               0.999999998               0.000010074              -0.000217599               0.999999998               0.000009644              -0.000220302               0.999999998               0.000007733              -0.000225933               0.999999998               0.000004945              -0.000233948               0.999999998               0.000001542              -0.000243856               0.999999998              -0.000002027              -0.000255370               0.999999998              -0.000005635              -0.000268233               0.999999998              -0.000009246              -0.000282316               0.999999998              -0.000013010              -0.000297610               0.999999998              -0.000016854              -0.000314076               0.999999998              -0.000020935              -0.000331654               0.999999998              -0.000025009              -0.000350105               0.999999998              -0.000028681              -0.000369448               0.999999998              -0.000031676              -0.000389860               0.999999998              -0.000034059              -0.000411450               0.999999998               0.000000543              -0.000228427               0.999999998               0.000005644              -0.000226403               0.999999998               0.000007344              -0.000226530               0.999999998               0.000007278              -0.000229347               0.999999998               0.000006146              -0.000234701               0.999999998               0.000004328              -0.000242171               0.999999998               0.000002094              -0.000251475               0.999999998              -0.000000331              -0.000262367               0.999999998              -0.000002692              -0.000274609               0.999999998              -0.000005109              -0.000288017               0.999999998              -0.000007708              -0.000302576               0.999999998              -0.000010358              -0.000318250               0.999999998              -0.000013003              -0.000335084               0.999999998              -0.000015592              -0.000353018               0.999999998              -0.000017829              -0.000371931               0.999999998              -0.000019493              -0.000391779               0.999999998              -0.000020393              -0.000412770               0.999999998               0.000000260              -0.000231975               0.999999998               0.000002912              -0.000231382               0.999999998               0.000003879              -0.000232192               0.999999998               0.000003901              -0.000235204               0.999999998               0.000003402              -0.000240434               0.999999998               0.000002523              -0.000247664               0.999999998               0.000001418              -0.000256611               0.999999998               0.000000184              -0.000267096               0.999999998              -0.000000994              -0.000278969               0.999999998              -0.000002159              -0.000292061               0.999999998              -0.000003494              -0.000306245               0.999999998              -0.000005026              -0.000321515               0.999999998              -0.000006239              -0.000337963               0.999999998              -0.000007225              -0.000355595               0.999999998              -0.000008403              -0.000374359               0.999999998              -0.000009186              -0.000394145               0.999999998              -0.000009221              -0.000414977               0.999999998              -0.000000000              -0.000233207               0.999999998               0.000000000              -0.000233110               0.999999998              -0.000000000              -0.000234136               0.999999998              -0.000000000              -0.000237216               0.999999998              -0.000000000              -0.000242437               0.999999998               0.000000000              -0.000249579               0.999999998               0.000000000              -0.000258426               0.999999998              -0.000000000              -0.000268856               0.999999998               0.000000000              -0.000280574               0.999999998               0.000000000              -0.000293458               0.999999998              -0.000000000              -0.000307565               0.999999998               0.000000000              -0.000322796               0.999999998              -0.000000000              -0.000339113               0.999999998              -0.000000000              -0.000356559               0.999999998              -0.000000000              -0.000375287               0.999999998               0.000000000              -0.000395229               0.999999998               0.000000000              -0.000416115               0.999999998              -0.000007588               0.000000000               0.999999998               0.000001506               0.000000000               0.999999998               0.000005898               0.000000000               0.999999998               0.000008351               0.000000000               0.999999998               0.000010108               0.000000000               0.999999998               0.000011769               0.000000000               0.999999998               0.000013623               0.000000000               0.999999998               0.000015868               0.000000000               0.999999998               0.000018549               0.000000000               0.999999998               0.000021762               0.000000000               0.999999998               0.000025581               0.000000000               0.999999998               0.000029888               0.000000000               0.999999998               0.000034677               0.000000000               0.999999998               0.000039988               0.000000000               0.999999998               0.000045824               0.000000000               0.999999998               0.000052111               0.000000000               0.999999998               0.000058789               0.000000000               0.999999998              -0.000007485              -0.000022424               0.999999998               0.000001301              -0.000020235               0.999999998               0.000005506              -0.000019764               0.999999998               0.000007905              -0.000020287               0.999999998               0.000009701              -0.000021490               0.999999998               0.000011407              -0.000023152               0.999999998               0.000013387              -0.000025153               0.999999998               0.000015755              -0.000027503               0.999999998               0.000018609              -0.000029998               0.999999998               0.000021998              -0.000032732               0.999999998               0.000025901              -0.000035562               0.999999998               0.000030348              -0.000038622               0.999999998               0.000035330              -0.000041798               0.999999998               0.000040835              -0.000045304               0.999999998               0.000046829              -0.000048935               0.999999998               0.000053277              -0.000052592               0.999999998               0.000060117              -0.000056329               0.999999998              -0.000007195              -0.000044650               0.999999998               0.000000686              -0.000040252               0.999999998               0.000004421              -0.000039376               0.999999998               0.000006663              -0.000040538               0.999999998               0.000008531              -0.000042989               0.999999998               0.000010497              -0.000046379               0.999999998               0.000012813              -0.000050477               0.999999998               0.000015590              -0.000055049               0.999999998               0.000018888              -0.000060129               0.999999998               0.000022735              -0.000065508               0.999999998               0.000027127              -0.000071222               0.999999998               0.000032101              -0.000077245               0.999999998               0.000037591              -0.000083724               0.999999998               0.000043593              -0.000090651               0.999999998               0.000050101              -0.000097841               0.999999998               0.000056998              -0.000104989               0.999999998               0.000064212              -0.000112353               0.999999998              -0.000006774              -0.000066489               0.999999998              -0.000000352              -0.000059829               0.999999998               0.000002704              -0.000058683               0.999999998               0.000004808              -0.000060602               0.999999998               0.000006920              -0.000064430               0.999999998               0.000009326              -0.000069590               0.999999998               0.000012224              -0.000075730               0.999999998               0.000015700              -0.000082713               0.999999998               0.000019717              -0.000090263               0.999999998               0.000024321              -0.000098340               0.999999998               0.000029511              -0.000106884               0.999999998               0.000035274              -0.000116025               0.999999998               0.000041622              -0.000125653               0.999999998               0.000048457              -0.000135876               0.999999998               0.000055665              -0.000146334               0.999999998               0.000063174              -0.000156781               0.999999998               0.000070988              -0.000167542               0.999999998              -0.000006246              -0.000087726               0.999999998              -0.000001786              -0.000078776               0.999999998               0.000000518              -0.000077551               0.999999998               0.000002632              -0.000080419               0.999999998               0.000005182              -0.000085782               0.999999998               0.000008297              -0.000092815               0.999999998               0.000012099              -0.000101134               0.999999998               0.000016489              -0.000110404               0.999999998               0.000021472              -0.000120452               0.999999998               0.000027057              -0.000131155               0.999999998               0.000033231              -0.000142577               0.999999998               0.000039999              -0.000154696               0.999999998               0.000047332              -0.000167529               0.999999998               0.000055075              -0.000180824               0.999999998               0.000063071              -0.000194345               0.999999998               0.000071334              -0.000207922               0.999999998               0.000079872              -0.000221845               0.999999998              -0.000005676              -0.000108137               0.999999998              -0.000003602              -0.000097045               0.999999998              -0.000001923              -0.000096004               0.999999998               0.000000454              -0.000099997               0.999999998               0.000003695              -0.000106968               0.999999998               0.000007814              -0.000115890               0.999999998               0.000012652              -0.000126342               0.999999998               0.000018115              -0.000137883               0.999999998               0.000024176              -0.000150401               0.999999998               0.000030860              -0.000163745               0.999999998               0.000038152              -0.000178061               0.999999998               0.000045967              -0.000193254               0.999999998               0.000054269              -0.000209208               0.999999998               0.000062845              -0.000225397               0.999999998               0.000071635              -0.000241861               0.999999998               0.000080643              -0.000258480               0.999999998               0.000089883              -0.000275440               0.999999998              -0.000005164              -0.000127544               0.999999998              -0.000005642              -0.000114637               0.999999998              -0.000004342              -0.000113961               0.999999998              -0.000001482              -0.000119186               0.999999998               0.000002719              -0.000127781               0.999999998               0.000007951              -0.000138673               0.999999998               0.000013902              -0.000151256               0.999999998               0.000020506              -0.000165123               0.999999998               0.000027710              -0.000180131               0.999999998               0.000035488              -0.000196284               0.999999998               0.000043790              -0.000213511               0.999999998               0.000052556              -0.000231846               0.999999998               0.000061694              -0.000250822               0.999999998               0.000071074              -0.000269906               0.999999998               0.000080612              -0.000289193               0.999999998               0.000090409              -0.000308775               0.999999998               0.000100533              -0.000328882               0.999999998              -0.000004655              -0.000145725               0.999999998              -0.000007734              -0.000131472               0.999999998              -0.000006587              -0.000131302               0.999999998              -0.000002956              -0.000137809               0.999999998               0.000002320              -0.000148100               0.999999998               0.000008659              -0.000161002               0.999999998               0.000015740              -0.000175736               0.999999998               0.000023459              -0.000192060               0.999999998               0.000031712              -0.000209766               0.999999998               0.000040423              -0.000228829               0.999999998               0.000049717              -0.000249062               0.999999998               0.000059446              -0.000270364               0.999999998               0.000069433              -0.000292164               0.999999998               0.000079504              -0.000314157               0.999999998               0.000089857              -0.000336609               0.999999998               0.000100620              -0.000359693               0.999999998               0.000111790              -0.000383483               0.999999998              -0.000004054              -0.000162350               0.999999998              -0.000009789              -0.000147482               0.999999998              -0.000008378              -0.000147904               0.999999998              -0.000003829              -0.000155685               0.999999998               0.000002488              -0.000167775               0.999999998               0.000009908              -0.000182725               0.999999998               0.000018021              -0.000199811               0.999999998               0.000026629              -0.000218746               0.999999998               0.000035710              -0.000239322               0.999999998               0.000045429              -0.000261380               0.999999998               0.000055674              -0.000284680               0.999999998               0.000066239              -0.000308896               0.999999998               0.000076829              -0.000333780               0.999999998               0.000087626              -0.000359330               0.999999998               0.000098814              -0.000385833               0.999999998               0.000110423              -0.000413317               0.999999998               0.000122419              -0.000441661               0.999999998              -0.000003205              -0.000177910               0.999999998              -0.000010986              -0.000164068               0.999999998              -0.000010566              -0.000162932               0.999999998              -0.000006810              -0.000168823               0.999999998              -0.000001201              -0.000179078               0.999999998               0.000005454              -0.000192212               0.999999998               0.000012732              -0.000207485               0.999999998               0.000020362              -0.000224506               0.999999998               0.000028317              -0.000243120               0.999999998               0.000036690              -0.000263166               0.999999998               0.000045620              -0.000284452               0.999999998               0.000054953              -0.000306829               0.999999998               0.000064340              -0.000329980               0.999999998               0.000073794              -0.000354016               0.999999998               0.000083373              -0.000378786               0.999999998               0.000093095              -0.000404711               0.999999998               0.000103219              -0.000431796               0.999999998              -0.000002493              -0.000191940               0.999999998              -0.000011386              -0.000179919               0.999999998              -0.000012006              -0.000178031               0.999999998              -0.000009198              -0.000182419               0.999999998              -0.000004418              -0.000191030               0.999999998               0.000001387              -0.000202536               0.999999998               0.000007798              -0.000216090               0.999999998               0.000014395              -0.000231356               0.999999998               0.000021319              -0.000248162               0.999999998               0.000028433              -0.000266339               0.999999998               0.000035931              -0.000285800               0.999999998               0.000043975              -0.000306348               0.999999998               0.000052207              -0.000327796               0.999999998               0.000060437              -0.000350105               0.999999998               0.000068555              -0.000373337               0.999999998               0.000076554              -0.000397597               0.999999998               0.000084791              -0.000423034               0.999999998              -0.000001863              -0.000204164               0.999999998              -0.000011018              -0.000194629               0.999999998              -0.000012473              -0.000192605               0.999999998              -0.000010582              -0.000195989               0.999999998              -0.000006810              -0.000203239               0.999999998              -0.000001896              -0.000213283               0.999999998               0.000003562              -0.000225371               0.999999998               0.000009251              -0.000239035               0.999999998               0.000015079              -0.000254210               0.999999998               0.000021021              -0.000270724               0.999999998               0.000027199              -0.000288512               0.999999998               0.000033864              -0.000307424               0.999999998               0.000040838              -0.000327271               0.999999998               0.000047728              -0.000348047               0.999999998               0.000054264              -0.000369785               0.999999998               0.000060665              -0.000392532               0.999999998               0.000067027              -0.000416463               0.999999998              -0.000001318              -0.000214404               0.999999998              -0.000009868              -0.000207601               0.999999998              -0.000011831              -0.000206048               0.999999998              -0.000010755              -0.000208887               0.999999998              -0.000007985              -0.000215140               0.999999998              -0.000004098              -0.000223984               0.999999998               0.000000361              -0.000234846               0.999999998               0.000005084              -0.000247267               0.999999998               0.000009820              -0.000261050               0.999999998               0.000014613              -0.000276192               0.999999998               0.000019511              -0.000292567               0.999999998               0.000024773              -0.000310127               0.999999998               0.000030245              -0.000328687               0.999999998               0.000035715              -0.000348089               0.999999998               0.000040891              -0.000368412               0.999999998               0.000045565              -0.000389849               0.999999998               0.000049918              -0.000412469               0.999999998              -0.000000875              -0.000222534               0.999999998              -0.000008018              -0.000218330               0.999999998              -0.000010074              -0.000217599               0.999999998              -0.000009644              -0.000220302               0.999999998              -0.000007733              -0.000225933               0.999999998              -0.000004945              -0.000233948               0.999999998              -0.000001542              -0.000243856               0.999999998               0.000002027              -0.000255370               0.999999998               0.000005635              -0.000268233               0.999999998               0.000009246              -0.000282316               0.999999998               0.000013010              -0.000297610               0.999999998               0.000016854              -0.000314076               0.999999998               0.000020935              -0.000331654               0.999999998               0.000025009              -0.000350105               0.999999998               0.000028681              -0.000369448               0.999999998               0.000031676              -0.000389860               0.999999998               0.000034059              -0.000411450               0.999999998              -0.000000543              -0.000228427               0.999999998              -0.000005644              -0.000226403               0.999999998              -0.000007344              -0.000226530               0.999999998              -0.000007278              -0.000229347               0.999999998              -0.000006146              -0.000234701               0.999999998              -0.000004328              -0.000242171               0.999999998              -0.000002094              -0.000251475               0.999999998               0.000000331              -0.000262367               0.999999998               0.000002692              -0.000274609               0.999999998               0.000005109              -0.000288017               0.999999998               0.000007708              -0.000302576               0.999999998               0.000010358              -0.000318250               0.999999998               0.000013003              -0.000335084               0.999999998               0.000015592              -0.000353018               0.999999998               0.000017829              -0.000371931               0.999999998               0.000019493              -0.000391779               0.999999998               0.000020393              -0.000412770               0.999999998              -0.000000260              -0.000231975               0.999999998              -0.000002912              -0.000231382               0.999999998              -0.000003879              -0.000232192               0.999999998              -0.000003901              -0.000235204               0.999999998              -0.000003402              -0.000240434               0.999999998              -0.000002523              -0.000247664               0.999999998              -0.000001418              -0.000256611               0.999999998              -0.000000184              -0.000267096               0.999999998               0.000000994              -0.000278969               0.999999998               0.000002159              -0.000292061               0.999999998               0.000003494              -0.000306245               0.999999998               0.000005026              -0.000321515               0.999999998               0.000006239              -0.000337963               0.999999998               0.000007225              -0.000355595               0.999999998               0.000008403              -0.000374359               0.999999998               0.000009186              -0.000394145               0.999999998               0.000009221              -0.000414977               0.999999998              -0.000000000              -0.000233207               0.999999998               0.000000000              -0.000233110               0.999999998              -0.000000000              -0.000234136               0.999999998              -0.000000000              -0.000237216               0.999999998              -0.000000000              -0.000242437               0.999999998               0.000000000              -0.000249579               0.999999998               0.000000000              -0.000258426               0.999999998              -0.000000000              -0.000268856               0.999999998               0.000000000              -0.000280574               0.999999998               0.000000000              -0.000293458               0.999999998              -0.000000000              -0.000307565               0.999999998               0.000000000              -0.000322796               0.999999998              -0.000000000              -0.000339113               0.999999998              -0.000000000              -0.000356559               0.999999998              -0.000000000              -0.000375287               0.999999998               0.000000000              -0.000395229               0.999999998               0.000000000              -0.000416115               0.999999998              -0.000007588               0.000000000               0.999999998               0.000001506               0.000000000               0.999999998               0.000005898               0.000000000               0.999999998               0.000008351               0.000000000               0.999999998               0.000010108               0.000000000               0.999999998               0.000011769               0.000000000               0.999999998               0.000013623               0.000000000               0.999999998               0.000015868               0.000000000               0.999999998               0.000018549               0.000000000               0.999999998               0.000021762               0.000000000               0.999999998               0.000025581               0.000000000               0.999999998               0.000029888               0.000000000               0.999999998               0.000034677               0.000000000               0.999999998               0.000039988               0.000000000               0.999999998               0.000045824               0.000000000               0.999999998               0.000052111               0.000000000               0.999999998               0.000058789               0.000000000               0.999999998              -0.000007485               0.000022424               0.999999998               0.000001301               0.000020235               0.999999998               0.000005506               0.000019764               0.999999998               0.000007905               0.000020287               0.999999998               0.000009701               0.000021490               0.999999998               0.000011407               0.000023152               0.999999998               0.000013387               0.000025153               0.999999998               0.000015755               0.000027503               0.999999998               0.000018609               0.000029998               0.999999998               0.000021998               0.000032732               0.999999998               0.000025901               0.000035562               0.999999998               0.000030348               0.000038622               0.999999998               0.000035330               0.000041798               0.999999998               0.000040835               0.000045304               0.999999998               0.000046829               0.000048935               0.999999998               0.000053277               0.000052592               0.999999998               0.000060117               0.000056329               0.999999998              -0.000007195               0.000044650               0.999999998               0.000000686               0.000040252               0.999999998               0.000004421               0.000039376               0.999999998               0.000006663               0.000040538               0.999999998               0.000008531               0.000042989               0.999999998               0.000010497               0.000046379               0.999999998               0.000012813               0.000050477               0.999999998               0.000015590               0.000055049               0.999999998               0.000018888               0.000060129               0.999999998               0.000022735               0.000065508               0.999999998               0.000027127               0.000071222               0.999999998               0.000032101               0.000077245               0.999999998               0.000037591               0.000083724               0.999999998               0.000043593               0.000090651               0.999999998               0.000050101               0.000097841               0.999999998               0.000056998               0.000104989               0.999999998               0.000064212               0.000112353               0.999999998              -0.000006774               0.000066489               0.999999998              -0.000000352               0.000059829               0.999999998               0.000002704               0.000058683               0.999999998               0.000004808               0.000060602               0.999999998               0.000006920               0.000064430               0.999999998               0.000009326               0.000069590               0.999999998               0.000012224               0.000075730               0.999999998               0.000015700               0.000082713               0.999999998               0.000019717               0.000090263               0.999999998               0.000024321               0.000098340               0.999999998               0.000029511               0.000106884               0.999999998               0.000035274               0.000116025               0.999999998               0.000041622               0.000125653               0.999999998               0.000048457               0.000135876               0.999999998               0.000055665               0.000146334               0.999999998               0.000063174               0.000156781               0.999999998               0.000070988               0.000167542               0.999999998              -0.000006246               0.000087726               0.999999998              -0.000001786               0.000078776               0.999999998               0.000000518               0.000077551               0.999999998               0.000002632               0.000080419               0.999999998               0.000005182               0.000085782               0.999999998               0.000008297               0.000092815               0.999999998               0.000012099               0.000101134               0.999999998               0.000016489               0.000110404               0.999999998               0.000021472               0.000120452               0.999999998               0.000027057               0.000131155               0.999999998               0.000033231               0.000142577               0.999999998               0.000039999               0.000154696               0.999999998               0.000047332               0.000167529               0.999999998               0.000055075               0.000180824               0.999999998               0.000063071               0.000194345               0.999999998               0.000071334               0.000207922               0.999999998               0.000079872               0.000221845               0.999999998              -0.000005676               0.000108137               0.999999998              -0.000003602               0.000097045               0.999999998              -0.000001923               0.000096004               0.999999998               0.000000454               0.000099997               0.999999998               0.000003695               0.000106968               0.999999998               0.000007814               0.000115890               0.999999998               0.000012652               0.000126342               0.999999998               0.000018115               0.000137883               0.999999998               0.000024176               0.000150401               0.999999998               0.000030860               0.000163745               0.999999998               0.000038152               0.000178061               0.999999998               0.000045967               0.000193254               0.999999998               0.000054269               0.000209208               0.999999998               0.000062845               0.000225397               0.999999998               0.000071635               0.000241861               0.999999998               0.000080643               0.000258480               0.999999998               0.000089883               0.000275440               0.999999998              -0.000005164               0.000127544               0.999999998              -0.000005642               0.000114637               0.999999998              -0.000004342               0.000113961               0.999999998              -0.000001482               0.000119186               0.999999998               0.000002719               0.000127781               0.999999998               0.000007951               0.000138673               0.999999998               0.000013902               0.000151256               0.999999998               0.000020506               0.000165123               0.999999998               0.000027710               0.000180131               0.999999998               0.000035488               0.000196284               0.999999998               0.000043790               0.000213511               0.999999998               0.000052556               0.000231846               0.999999998               0.000061694               0.000250822               0.999999998               0.000071074               0.000269906               0.999999998               0.000080612               0.000289193               0.999999998               0.000090409               0.000308775               0.999999998               0.000100533               0.000328882               0.999999998              -0.000004655               0.000145725               0.999999998              -0.000007734               0.000131472               0.999999998              -0.000006587               0.000131302               0.999999998              -0.000002956               0.000137809               0.999999998               0.000002320               0.000148100               0.999999998               0.000008659               0.000161002               0.999999998               0.000015740               0.000175736               0.999999998               0.000023459               0.000192060               0.999999998               0.000031712               0.000209766               0.999999998               0.000040423               0.000228829               0.999999998               0.000049717               0.000249062               0.999999998               0.000059446               0.000270364               0.999999998               0.000069433               0.000292164               0.999999998               0.000079504               0.000314157               0.999999998               0.000089857               0.000336609               0.999999998               0.000100620               0.000359693               0.999999998               0.000111790               0.000383483               0.999999998              -0.000004054               0.000162350               0.999999998              -0.000009789               0.000147482               0.999999998              -0.000008378               0.000147904               0.999999998              -0.000003829               0.000155685               0.999999998               0.000002488               0.000167775               0.999999998               0.000009908               0.000182725               0.999999998               0.000018021               0.000199811               0.999999998               0.000026629               0.000218746               0.999999998               0.000035710               0.000239322               0.999999998               0.000045429               0.000261380               0.999999998               0.000055674               0.000284680               0.999999998               0.000066239               0.000308896               0.999999998               0.000076829               0.000333780               0.999999998               0.000087626               0.000359330               0.999999998               0.000098814               0.000385833               0.999999998               0.000110423               0.000413317               0.999999998               0.000122419               0.000441661               0.999999998              -0.000003205               0.000177910               0.999999998              -0.000010986               0.000164068               0.999999998              -0.000010566               0.000162932               0.999999998              -0.000006810               0.000168823               0.999999998              -0.000001201               0.000179078               0.999999998               0.000005454               0.000192212               0.999999998               0.000012732               0.000207485               0.999999998               0.000020362               0.000224506               0.999999998               0.000028317               0.000243120               0.999999998               0.000036690               0.000263166               0.999999998               0.000045620               0.000284452               0.999999998               0.000054953               0.000306829               0.999999998               0.000064340               0.000329980               0.999999998               0.000073794               0.000354016               0.999999998               0.000083373               0.000378786               0.999999998               0.000093095               0.000404711               0.999999998               0.000103219               0.000431796               0.999999998              -0.000002493               0.000191940               0.999999998              -0.000011386               0.000179919               0.999999998              -0.000012006               0.000178031               0.999999998              -0.000009198               0.000182419               0.999999998              -0.000004418               0.000191030               0.999999998               0.000001387               0.000202536               0.999999998               0.000007798               0.000216090               0.999999998               0.000014395               0.000231356               0.999999998               0.000021319               0.000248162               0.999999998               0.000028433               0.000266339               0.999999998               0.000035931               0.000285800               0.999999998               0.000043975               0.000306348               0.999999998               0.000052207               0.000327796               0.999999998               0.000060437               0.000350105               0.999999998               0.000068555               0.000373337               0.999999998               0.000076554               0.000397597               0.999999998               0.000084791               0.000423034               0.999999998              -0.000001863               0.000204164               0.999999998              -0.000011018               0.000194629               0.999999998              -0.000012473               0.000192605               0.999999998              -0.000010582               0.000195989               0.999999998              -0.000006810               0.000203239               0.999999998              -0.000001896               0.000213283               0.999999998               0.000003562               0.000225371               0.999999998               0.000009251               0.000239035               0.999999998               0.000015079               0.000254210               0.999999998               0.000021021               0.000270724               0.999999998               0.000027199               0.000288512               0.999999998               0.000033864               0.000307424               0.999999998               0.000040838               0.000327271               0.999999998               0.000047728               0.000348047               0.999999998               0.000054264               0.000369785               0.999999998               0.000060665               0.000392532               0.999999998               0.000067027               0.000416463               0.999999998              -0.000001318               0.000214404               0.999999998              -0.000009868               0.000207601               0.999999998              -0.000011831               0.000206048               0.999999998              -0.000010755               0.000208887               0.999999998              -0.000007985               0.000215140               0.999999998              -0.000004098               0.000223984               0.999999998               0.000000361               0.000234846               0.999999998               0.000005084               0.000247267               0.999999998               0.000009820               0.000261050               0.999999998               0.000014613               0.000276192               0.999999998               0.000019511               0.000292567               0.999999998               0.000024773               0.000310127               0.999999998               0.000030245               0.000328687               0.999999998               0.000035715               0.000348089               0.999999998               0.000040891               0.000368412               0.999999998               0.000045565               0.000389849               0.999999998               0.000049918               0.000412469               0.999999998              -0.000000875               0.000222534               0.999999998              -0.000008018               0.000218330               0.999999998              -0.000010074               0.000217599               0.999999998              -0.000009644               0.000220302               0.999999998              -0.000007733               0.000225933               0.999999998              -0.000004945               0.000233948               0.999999998              -0.000001542               0.000243856               0.999999998               0.000002027               0.000255370               0.999999998               0.000005635               0.000268233               0.999999998               0.000009246               0.000282316               0.999999998               0.000013010               0.000297610               0.999999998               0.000016854               0.000314076               0.999999998               0.000020935               0.000331654               0.999999998               0.000025009               0.000350105               0.999999998               0.000028681               0.000369448               0.999999998               0.000031676               0.000389860               0.999999998               0.000034059               0.000411450               0.999999998              -0.000000543               0.000228427               0.999999998              -0.000005644               0.000226403               0.999999998              -0.000007344               0.000226530               0.999999998              -0.000007278               0.000229347               0.999999998              -0.000006146               0.000234701               0.999999998              -0.000004328               0.000242171               0.999999998              -0.000002094               0.000251475               0.999999998               0.000000331               0.000262367               0.999999998               0.000002692               0.000274609               0.999999998               0.000005109               0.000288017               0.999999998               0.000007708               0.000302576               0.999999998               0.000010358               0.000318250               0.999999998               0.000013003               0.000335084               0.999999998               0.000015592               0.000353018               0.999999998               0.000017829               0.000371931               0.999999998               0.000019493               0.000391779               0.999999998               0.000020393               0.000412770               0.999999998              -0.000000260               0.000231975               0.999999998              -0.000002912               0.000231382               0.999999998              -0.000003879               0.000232192               0.999999998              -0.000003901               0.000235204               0.999999998              -0.000003402               0.000240434               0.999999998              -0.000002523               0.000247664               0.999999998              -0.000001418               0.000256611               0.999999998              -0.000000184               0.000267096               0.999999998               0.000000994               0.000278969               0.999999998               0.000002159               0.000292061               0.999999998               0.000003494               0.000306245               0.999999998               0.000005026               0.000321515               0.999999998               0.000006239               0.000337963               0.999999998               0.000007225               0.000355595               0.999999998               0.000008403               0.000374359               0.999999998               0.000009186               0.000394145               0.999999998               0.000009221               0.000414977               0.999999998              -0.000000000               0.000233207               0.999999998              -0.000000000               0.000233110               0.999999998              -0.000000000               0.000234136               0.999999998               0.000000000               0.000237216               0.999999998               0.000000000               0.000242437               0.999999998               0.000000000               0.000249579               0.999999998               0.000000000               0.000258426               0.999999998               0.000000000               0.000268856               0.999999998               0.000000000               0.000280574               0.999999998               0.000000000               0.000293458               0.999999998               0.000000000               0.000307565               0.999999998              -0.000000000               0.000322796               0.999999998              -0.000000000               0.000339113               0.999999998               0.000000000               0.000356559               0.999999998              -0.000000000               0.000375287               0.999999998               0.000000000               0.000395229               0.999999998               0.000000000               0.000416115               0.999999998 </DataArray>
<DataArray type="Float64"                                    Name="defo"                                                      NumberOfComponents=" 3" format="ascii">
              0.000007588              -0.000000000               0.999999998              -0.000001506              -0.000000000               0.999999998              -0.000005898              -0.000000000               0.999999998              -0.000008351              -0.000000000               0.999999998              -0.000010108              -0.000000000               0.999999998              -0.000011769              -0.000000000               0.999999998              -0.000013623               0.000000000               0.999999998              -0.000015868              -0.000000000               0.999999998              -0.000018549              -0.000000000               0.999999998              -0.000021762              -0.000000000               0.999999998              -0.000025581              -0.000000000               0.999999998              -0.000029888              -0.000000000               0.999999998              -0.000034677              -0.000000000               0.999999998              -0.000039988              -0.000000000               0.999999998              -0.000045824              -0.000000000               0.999999998              -0.000052111              -0.000000000               0.999999998              -0.000058789               0.000000000               0.999999998               0.000007485               0.000022424               0.999999998              -0.000001301               0.000020235               0.999999998              -0.000005506               0.000019764               0.999999998              -0.000007905               0.000020287               0.999999998              -0.000009701               0.000021490               0.999999998              -0.000011407               0.000023152               0.999999998              -0.000013387               0.000025153               0.999999998              -0.000015755               0.000027503               0.999999998              -0.000018609               0.000029998               0.999999998              -0.000021998               0.000032732               0.999999998              -0.000025901               0.000035562               0.999999998              -0.000030348               0.000038622               0.999999998              -0.000035330               0.000041798               0.999999998              -0.000040835               0.000045304               0.999999998              -0.000046829               0.000048935               0.999999998              -0.000053277               0.000052592               0.999999998              -0.000060117               0.000056329               0.999999998               0.000007195               0.000044650               0.999999998              -0.000000686               0.000040252               0.999999998              -0.000004421               0.000039376               0.999999998              -0.000006663               0.000040538               0.999999998              -0.000008531               0.000042989               0.999999998              -0.000010497               0.000046379               0.999999998              -0.000012813               0.000050477               0.999999998              -0.000015590               0.000055049               0.999999998              -0.000018888               0.000060129               0.999999998              -0.000022735               0.000065508               0.999999998              -0.000027127               0.000071222               0.999999998              -0.000032101               0.000077245               0.999999998              -0.000037591               0.000083724               0.999999998              -0.000043593               0.000090651               0.999999998              -0.000050101               0.000097841               0.999999998              -0.000056998               0.000104989               0.999999998              -0.000064212               0.000112353               0.999999998               0.000006774               0.000066489               0.999999998               0.000000352               0.000059829               0.999999998              -0.000002704               0.000058683               0.999999998              -0.000004808               0.000060602               0.999999998              -0.000006920               0.000064430               0.999999998              -0.000009326               0.000069590               0.999999998              -0.000012224               0.000075730               0.999999998              -0.000015700               0.000082713               0.999999998              -0.000019717               0.000090263               0.999999998              -0.000024321               0.000098340               0.999999998              -0.000029511               0.000106884               0.999999998              -0.000035274               0.000116025               0.999999998              -0.000041622               0.000125653               0.999999998              -0.000048457               0.000135876               0.999999998              -0.000055665               0.000146334               0.999999998              -0.000063174               0.000156781               0.999999998              -0.000070988               0.000167542               0.999999998               0.000006246               0.000087726               0.999999998               0.000001786               0.000078776               0.999999998              -0.000000518               0.000077551               0.999999998              -0.000002632               0.000080419               0.999999998              -0.000005182               0.000085782               0.999999998              -0.000008297               0.000092815               0.999999998              -0.000012099               0.000101134               0.999999998              -0.000016489               0.000110404               0.999999998              -0.000021472               0.000120452               0.999999998              -0.000027057               0.000131155               0.999999998              -0.000033231               0.000142577               0.999999998              -0.000039999               0.000154696               0.999999998              -0.000047332               0.000167529               0.999999998              -0.000055075               0.000180824               0.999999998              -0.000063071               0.000194345               0.999999998              -0.000071334               0.000207922               0.999999998              -0.000079872               0.000221845               0.999999998               0.000005676               0.000108137               0.999999998               0.000003602               0.000097045               0.999999998               0.000001923               0.000096004               0.999999998              -0.000000454               0.000099997               0.999999998              -0.000003695               0.000106968               0.999999998              -0.000007814               0.000115890               0.999999998              -0.000012652               0.000126342               0.999999998              -0.000018115               0.000137883               0.999999998              -0.000024176               0.000150401               0.999999998              -0.000030860               0.000163745               0.999999998              -0.000038152               0.000178061               0.999999998              -0.000045967               0.000193254               0.999999998              -0.000054269               0.000209208               0.999999998              -0.000062845               0.000225397               0.999999998              -0.000071635               0.000241861               0.999999998              -0.000080643               0.000258480               0.999999998              -0.000089883               0.000275440               0.999999998               0.000005164               0.000127544               0.999999998               0.000005642               0.000114637               0.999999998               0.000004342               0.000113961               0.999999998               0.000001482               0.000119186               0.999999998              -0.000002719               0.000127781               0.999999998              -0.000007951               0.000138673               0.999999998              -0.000013902               0.000151256               0.999999998              -0.000020506               0.000165123               0.999999998              -0.000027710               0.000180131               0.999999998              -0.000035488               0.000196284               0.999999998              -0.000043790               0.000213511               0.999999998              -0.000052556               0.000231846               0.999999998              -0.000061694               0.000250822               0.999999998              -0.000071074               0.000269906               0.999999998              -0.000080612               0.000289193               0.999999998              -0.000090409               0.000308775               0.999999998              -0.000100533               0.000328882               0.999999998               0.000004655               0.000145725               0.999999998               0.000007734               0.000131472               0.999999998               0.000006587               0.000131302               0.999999998               0.000002956               0.000137809               0.999999998              -0.000002320               0.000148100               0.999999998              -0.000008659               0.000161002               0.999999998              -0.000015740               0.000175736               0.999999998              -0.000023459               0.000192060               0.999999998              -0.000031712               0.000209766               0.999999998              -0.000040423               0.000228829               0.999999998              -0.000049717               0.000249062               0.999999998              -0.000059446               0.000270364               0.999999998              -0.000069433               0.000292164               0.999999998              -0.000079504               0.000314157               0.999999998              -0.000089857               0.000336609               0.999999998              -0.000100620               0.000359693               0.999999998              -0.000111790               0.000383483               0.999999998               0.000004054               0.000162350               0.999999998               0.000009789               0.000147482               0.999999998               0.000008378               0.000147904               0.999999998               0.000003829               0.000155685               0.999999998              -0.000002488               0.000167775               0.999999998              -0.000009908               0.000182725               0.999999998              -0.000018021               0.000199811               0.999999998              -0.000026629               0.000218746               0.999999998              -0.000035710               0.000239322               0.999999998              -0.000045429               0.000261380               0.999999998              -0.000055674               0.000284680               0.999999998              -0.000066239               0.000308896               0.999999998              -0.000076829               0.000333780               0.999999998              -0.000087626               0.000359330               0.999999998              -0.000098814               0.000385833               0.999999998              -0.000110423               0.000413317               0.999999998              -0.000122419               0.000441661               0.999999998               0.000003205               0.000177910               0.999999998               0.000010986               0.000164068               0.999999998               0.000010566               0.000162932               0.999999998               0.000006810               0.000168823               0.999999998               0.000001201               0.000179078               0.999999998              -0.000005454               0.000192212               0.999999998              -0.000012732               0.000207485               0.999999998              -0.000020362               0.000224506               0.999999998              -0.000028317               0.000243120               0.999999998              -0.000036690               0.000263166               0.999999998              -0.000045620               0.000284452               0.999999998              -0.000054953               0.000306829               0.999999998              -0.000064340               0.000329980               0.999999998              -0.000073794               0.000354016               0.999999998              -0.000083373               0.000378786               0.999999998              -0.000093095               0.000404711               0.999999998              -0.000103219               0.000431796               0.999999998               0.000002493               0.000191940               0.999999998               0.000011386               0.000179919               0.999999998               0.000012006               0.000178031               0.999999998               0.000009198               0.000182419               0.999999998               0.000004418               0.000191030               0.999999998              -0.000001387               0.000202536               0.999999998              -0.000007798               0.000216090               0.999999998              -0.000014395               0.000231356               0.999999998              -0.000021319               0.000248162               0.999999998              -0.000028433               0.000266339               0.999999998              -0.000035931               0.000285800               0.999999998              -0.000043975               0.000306348               0.999999998              -0.000052207               0.000327796               0.999999998              -0.000060437               0.000350105               0.999999998              -0.000068555               0.000373337               0.999999998              -0.000076554               0.000397597               0.999999998              -0.000084791               0.000423034               0.999999998               0.000001863               0.000204164               0.999999998               0.000011018               0.000194629               0.999999998               0.000012473               0.000192605               0.999999998               0.000010582               0.000195989               0.999999998               0.000006810               0.000203239               0.999999998               0.000001896               0.000213283               0.999999998              -0.000003562               0.000225371               0.999999998              -0.000009251               0.000239035               0.999999998              -0.000015079               0.000254210               0.999999998              -0.000021021               0.000270724               0.999999998              -0.000027199               0.000288512               0.999999998              -0.000033864               0.000307424               0.999999998              -0.000040838               0.000327271               0.999999998              -0.000047728               0.000348047               0.999999998              -0.000054264               0.000369785               0.999999998              -0.000060665               0.000392532               0.999999998              -0.000067027               0.000416463               0.999999998               0.000001318               0.000214404               0.999999998               0.000009868               0.000207601               0.999999998               0.000011831               0.000206048               0.999999998               0.000010755               0.000208887               0.999999998               0.000007985               0.000215140               0.999999998               0.000004098               0.000223984               0.999999998              -0.000000361               0.000234846               0.999999998              -0.000005084               0.000247267               0.999999998              -0.000009820               0.000261050               0.999999998              -0.000014613               0.000276192               0.999999998              -0.000019511               0.000292567               0.999999998              -0.000024773               0.000310127               0.999999998              -0.000030245               0.000328687               0.999999998              -0.000035715               0.000348089               0.999999998              -0.000040891               0.000368412               0.999999998              -0.000045565               0.000389849               0.999999998              -0.000049918               0.000412469               0.999999998               0.000000875               0.000222534               0.999999998               0.000008018               0.000218330               0.999999998               0.000010074               0.000217599               0.999999998               0.000009644               0.000220302               0.999999998               0.000007733               0.000225933               0.999999998               0.000004945               0.000233948               0.999999998               0.000001542               0.000243856               0.999999998              -0.000002027               0.000255370               0.999999998              -0.000005635               0.000268233               0.999999998              -0.000009246               0.000282316               0.999999998              -0.000013010               0.000297610               0.999999998              -0.000016854               0.000314076               0.999999998              -0.000020935               0.000331654               0.999999998              -0.000025009               0.000350105               0.999999998              -0.000028681               0.000369448               0.999999998              -0.000031676               0.000389860               0.999999998              -0.000034059               0.000411450               0.999999998               0.000000543               0.000228427               0.999999998               0.000005644               0.000226403               0.999999998               0.000007344               0.000226530               0.999999998               0.000007278               0.000229347               0.999999998               0.000006146               0.000234701               0.999999998               0.000004328               0.000242171               0.999999998               0.000002094               0.000251475               0.999999998              -0.000000331               0.000262367               0.999999998              -0.000002692               0.000274609               0.999999998              -0.000005109               0.000288017               0.999999998              -0.000007708               0.000302576               0.999999998              -0.000010358               0.000318250               0.999999998              -0.000013003               0.000335084               0.999999998              -0.000015592               0.000353018               0.999999998              -0.000017829               0.000371931               0.999999998              -0.000019493               0.000391779               0.999999998              -0.000020393               0.000412770               0.999999998               0.000000260               0.000231975               0.999999998               0.000002912               0.000231382               0.999999998               0.000003879               0.000232192               0.999999998               0.000003901               0.000235204               0.999999998               0.000003402               0.000240434               0.999999998               0.000002523               0.000247664               0.999999998               0.000001418               0.000256611               0.999999998               0.000000184               0.000267096               0.999999998              -0.000000994               0.000278969               0.999999998              -0.000002159               0.000292061               0.999999998              -0.000003494               0.000306245               0.999999998              -0.000005026               0.000321515               0.999999998              -0.000006239               0.000337963               0.999999998              -0.000007225               0.000355595               0.999999998              -0.000008403               0.000374359               0.999999998              -0.000009186               0.000394145               0.999999998              -0.000009221               0.000414977               0.999999998              -0.000000000               0.000233207               0.999999998              -0.000000000               0.000233110               0.999999998              -0.000000000               0.000234136               0.999999998               0.000000000               0.000237216               0.999999998               0.000000000               0.000242437               0.999999998               0.000000000               0.000249579               0.999999998               0.000000000               0.000258426               0.999999998               0.000000000               0.000268856               0.999999998               0.000000000               0.000280574               0.999999998               0.000000000               0.000293458               0.999999998               0.000000000               0.000307565               0.999999998              -0.000000000               0.000322796               0.999999998              -0.000000000               0.000339113               0.999999998               0.000000000               0.000356559               0.999999998              -0.000000000               0.000375287               0.999999998               0.000000000               0.000395229               0.999999998               0.000000000               0.000416115               0.999999998               0.000007588              -0.000000000               0.999999998              -0.000001506              -0.000000000               0.999999998              -0.000005898              -0.000000000               0.999999998              -0.000008351              -0.000000000               0.999999998              -0.000010108              -0.000000000               0.999999998              -0.000011769              -0.000000000               0.999999998              -0.000013623               0.000000000               0.999999998              -0.000015868              -0.000000000               0.999999998              -0.000018549              -0.000000000               0.999999998              -0.000021762              -0.000000000               0.999999998              -0.000025581              -0.000000000               0.999999998              -0.000029888              -0.000000000               0.999999998              -0.000034677              -0.000000000               0.999999998              -0.000039988              -0.000000000               0.999999998              -0.000045824              -0.000000000               0.999999998              -0.000052111              -0.000000000               0.999999998              -0.000058789               0.000000000               0.999999998               0.000007485              -0.000022424               0.999999998              -0.000001301              -0.000020235               0.999999998              -0.000005506              -0.000019764               0.999999998              -0.000007905              -0.000020287               0.999999998              -0.000009701              -0.000021490               0.999999998              -0.000011407              -0.000023152               0.999999998              -0.000013387              -0.000025153               0.999999998              -0.000015755              -0.000027503               0.999999998              -0.000018609              -0.000029998               0.999999998              -0.000021998              -0.000032732               0.999999998              -0.000025901              -0.000035562               0.999999998              -0.000030348              -0.000038622               0.999999998              -0.000035330              -0.000041798               0.999999998              -0.000040835              -0.000045304               0.999999998              -0.000046829              -0.000048935               0.999999998              -0.000053277              -0.000052592               0.999999998              -0.000060117              -0.000056329               0.999999998               0.000007195              -0.000044650               0.999999998              -0.000000686              -0.000040252               0.999999998              -0.000004421              -0.000039376               0.999999998              -0.000006663              -0.000040538               0.999999998              -0.000008531              -0.000042989               0.999999998              -0.000010497              -0.000046379               0.999999998              -0.000012813              -0.000050477               0.999999998              -0.000015590              -0.000055049               0.999999998              -0.000018888              -0.000060129               0.999999998              -0.000022735              -0.000065508               0.999999998              -0.000027127              -0.000071222               0.999999998              -0.000032101              -0.000077245               0.999999998              -0.000037591              -0.000083724               0.999999998              -0.000043593              -0.000090651               0.999999998              -0.000050101              -0.000097841               0.999999998              -0.000056998              -0.000104989               0.999999998              -0.000064212              -0.000112353               0.999999998               0.000006774              -0.000066489               0.999999998               0.000000352              -0.000059829               0.999999998              -0.000002704              -0.000058683               0.999999998              -0.000004808              -0.000060602               0.999999998              -0.000006920              -0.000064430               0.999999998              -0.000009326              -0.000069590               0.999999998              -0.000012224              -0.000075730               0.999999998              -0.000015700              -0.000082713               0.999999998              -0.000019717              -0.000090263               0.999999998              -0.000024321              -0.000098340               0.999999998              -0.000029511              -0.000106884               0.999999998              -0.000035274              -0.000116025               0.999999998              -0.000041622              -0.000125653               0.999999998              -0.000048457              -0.000135876               0.999999998              -0.000055665              -0.000146334               0.999999998              -0.000063174              -0.000156781               0.999999998              -0.000070988              -0.000167542               0.999999998               0.000006246              -0.000087726               0.999999998               0.000001786              -0.000078776               0.999999998              -0.000000518              -0.000077551               0.999999998              -0.000002632              -0.000080419               0.999999998              -0.000005182              -0.000085782               0.999999998              -0.000008297              -0.000092815               0.999999998              -0.000012099              -0.000101134               0.999999998              -0.000016489              -0.000110404               0.999999998              -0.000021472              -0.000120452               0.999999998              -0.000027057              -0.000131155               0.999999998              -0.000033231              -0.000142577               0.999999998              -0.000039999              -0.000154696               0.999999998              -0.000047332              -0.000167529               0.999999998              -0.000055075              -0.000180824               0.999999998              -0.000063071              -0.000194345               0.999999998              -0.000071334              -0.000207922               0.999999998              -0.000079872              -0.000221845               0.999999998               0.000005676              -0.000108137               0.999999998               0.000003602              -0.000097045               0.999999998               0.000001923              -0.000096004               0.999999998              -0.000000454              -0.000099997               0.999999998              -0.000003695              -0.000106968               0.999999998              -0.000007814              -0.000115890               0.999999998              -0.000012652              -0.000126342               0.999999998              -0.000018115              -0.000137883               0.999999998              -0.000024176              -0.000150401               0.999999998              -0.000030860              -0.000163745               0.999999998              -0.000038152              -0.000178061               0.999999998              -0.000045967              -0.000193254               0.999999998              -0.000054269              -0.000209208               0.999999998              -0.000062845              -0.000225397               0.999999998              -0.000071635              -0.000241861               0.999999998              -0.000080643              -0.000258480               0.999999998              -0.000089883              -0.000275440               0.999999998               0.000005164              -0.000127544               0.999999998               0.000005642              -0.000114637               0.999999998               0.000004342              -0.000113961               0.999999998               0.000001482              -0.000119186               0.999999998              -0.000002719              -0.000127781               0.999999998              -0.000007951              -0.000138673               0.999999998              -0.000013902              -0.000151256               0.999999998              -0.000020506              -0.000165123               0.999999998              -0.000027710              -0.000180131               0.999999998              -0.000035488              -0.000196284               0.999999998              -0.000043790              -0.000213511               0.999999998              -0.000052556              -0.000231846               0.999999998              -0.000061694              -0.000250822               0.999999998              -0.000071074              -0.000269906               0.999999998              -0.000080612              -0.000289193               0.999999998              -0.000090409              -0.000308775               0.999999998              -0.000100533              -0.000328882               0.999999998               0.000004655              -0.000145725               0.999999998               0.000007734              -0.000131472               0.999999998               0.000006587              -0.000131302               0.999999998               0.000002956              -0.000137809               0.999999998              -0.000002320              -0.000148100               0.999999998              -0.000008659              -0.000161002               0.999999998              -0.000015740              -0.000175736               0.999999998              -0.000023459              -0.000192060               0.999999998              -0.000031712              -0.000209766               0.999999998              -0.000040423              -0.000228829               0.999999998              -0.000049717              -0.000249062               0.999999998              -0.000059446              -0.000270364               0.999999998              -0.000069433              -0.000292164               0.999999998              -0.000079504              -0.000314157               0.999999998              -0.000089857              -0.000336609               0.999999998              -0.000100620              -0.000359693               0.999999998              -0.000111790              -0.000383483               0.999999998               0.000004054              -0.000162350               0.999999998               0.000009789              -0.000147482               0.999999998               0.000008378              -0.000147904               0.999999998               0.000003829              -0.000155685               0.999999998              -0.000002488              -0.000167775               0.999999998              -0.000009908              -0.000182725               0.999999998              -0.000018021              -0.000199811               0.999999998              -0.000026629              -0.000218746               0.999999998              -0.000035710              -0.000239322               0.999999998              -0.000045429              -0.000261380               0.999999998              -0.000055674              -0.000284680               0.999999998              -0.000066239              -0.000308896               0.999999998              -0.000076829              -0.000333780               0.999999998              -0.000087626              -0.000359330               0.999999998              -0.000098814              -0.000385833               0.999999998              -0.000110423              -0.000413317               0.999999998              -0.000122419              -0.000441661               0.999999998               0.000003205              -0.000177910               0.999999998               0.000010986              -0.000164068               0.999999998               0.000010566              -0.000162932               0.999999998               0.000006810              -0.000168823               0.999999998               0.000001201              -0.000179078               0.999999998              -0.000005454              -0.000192212               0.999999998              -0.000012732              -0.000207485               0.999999998              -0.000020362              -0.000224506               0.999999998              -0.000028317              -0.000243120               0.999999998              -0.000036690              -0.000263166               0.999999998              -0.000045620              -0.000284452               0.999999998              -0.000054953              -0.000306829               0.999999998              -0.000064340              -0.000329980               0.999999998              -0.000073794              -0.000354016               0.999999998              -0.000083373              -0.000378786               0.999999998              -0.000093095              -0.000404711               0.999999998              -0.000103219              -0.000431796               0.999999998               0.000002493              -0.000191940               0.999999998               0.000011386              -0.000179919               0.999999998               0.000012006              -0.000178031               0.999999998               0.000009198              -0.000182419               0.999999998               0.000004418              -0.000191030               0.999999998              -0.000001387              -0.000202536               0.999999998              -0.000007798              -0.000216090               0.999999998              -0.000014395              -0.000231356               0.999999998              -0.000021319              -0.000248162               0.999999998              -0.000028433              -0.000266339               0.999999998              -0.000035931              -0.000285800               0.999999998              -0.000043975              -0.000306348               0.999999998              -0.000052207              -0.000327796               0.999999998              -0.000060437              -0.000350105               0.999999998              -0.000068555              -0.000373337               0.999999998              -0.000076554              -0.000397597               0.999999998              -0.000084791              -0.000423034               0.999999998               0.000001863              -0.000204164               0.999999998               0.000011018              -0.000194629               0.999999998               0.000012473              -0.000192605               0.999999998               0.000010582              -0.000195989               0.999999998               0.000006810              -0.000203239               0.999999998               0.000001896              -0.000213283               0.999999998              -0.000003562              -0.000225371               0.999999998              -0.000009251              -0.000239035               0.999999998              -0.000015079              -0.000254210               0.999999998              -0.000021021              -0.000270724               0.999999998              -0.000027199              -0.000288512               0.999999998              -0.000033864              -0.000307424               0.999999998              -0.000040838              -0.000327271               0.999999998              -0.000047728              -0.000348047               0.999999998              -0.000054264              -0.000369785               0.999999998              -0.000060665              -0.000392532               0.999999998              -0.000067027              -0.000416463               0.999999998               0.000001318              -0.000214404               0.999999998               0.000009868              -0.000207601               0.999999998               0.000011831              -0.000206048               0.999999998               0.000010755              -0.000208887               0.999999998               0.000007985              -0.000215140               0.999999998               0.000004098              -0.000223984               0.999999998              -0.000000361              -0.000234846               0.999999998              -0.000005084              -0.000247267               0.999999998              -0.000009820              -0.000261050               0.999999998              -0.000014613              -0.000276192               0.999999998              -0.000019511              -0.000292567               0.999999998              -0.000024773              -0.000310127               0.999999998              -0.000030245              -0.000328687               0.999999998              -0.000035715              -0.000348089               0.999999998              -0.000040891              -0.000368412               0.999999998              -0.000045565              -0.000389849               0.999999998              -0.000049918              -0.000412469               0.999999998               0.000000875              -0.000222534               0.999999998               0.000008018              -0.000218330               0.999999998               0.000010074              -0.000217599               0.999999998               0.000009644              -0.000220302               0.999999998               0.000007733              -0.000225933               0.999999998               0.000004945              -0.000233948               0.999999998               0.000001542              -0.000243856               0.999999998              -0.000002027              -0.000255370               0.999999998              -0.000005635              -0.000268233               0.999999998              -0.000009246              -0.000282316               0.999999998              -0.000013010              -0.000297610               0.999999998              -0.000016854              -0.000314076               0.999999998              -0.000020935              -0.000331654               0.999999998              -0.000025009              -0.000350105               0.999999998              -0.000028681              -0.000369448               0.999999998              -0.000031676              -0.000389860               0.999999998              -0.000034059              -0.000411450               0.999999998               0.000000543              -0.000228427               0.999999998               0.000005644              -0.000226403               0.999999998               0.000007344              -0.000226530               0.999999998               0.000007278              -0.000229347               0.999999998               0.000006146              -0.000234701               0.999999998               0.000004328              -0.000242171               0.999999998               0.000002094              -0.000251475               0.999999998              -0.000000331              -0.000262367               0.999999998              -0.000002692              -0.000274609               0.999999998              -0.000005109              -0.000288017               0.999999998              -0.000007708              -0.000302576               0.999999998              -0.000010358              -0.000318250               0.999999998              -0.000013003              -0.000335084               0.999999998              -0.000015592              -0.000353018               0.999999998              -0.000017829              -0.000371931               0.999999998              -0.000019493              -0.000391779               0.999999998              -0.000020393              -0.000412770               0.999999998               0.000000260              -0.000231975               0.999999998               0.000002912              -0.000231382               0.999999998               0.000003879              -0.000232192               0.999999998               0.000003901              -0.000235204               0.999999998               0.000003402              -0.000240434               0.999999998               0.000002523              -0.000247664               0.999999998               0.000001418              -0.000256611               0.999999998               0.000000184              -0.000267096               0.999999998              -0.000000994              -0.000278969               0.999999998              -0.000002159              -0.000292061               0.999999998              -0.000003494              -0.000306245               0.999999998              -0.000005026              -0.000321515               0.999999998              -0.000006239              -0.000337963               0.999999998              -0.000007225              -0.000355595               0.999999998              -0.000008403              -0.000374359               0.999999998              -0.000009186              -0.000394145               0.999999998              -0.000009221              -0.000414977               0.999999998              -0.000000000              -0.000233207               0.999999998               0.000000000              -0.000233110               0.999999998              -0.000000000              -0.000234136               0.999999998              -0.000000000              -0.000237216               0.999999998              -0.000000000              -0.000242437               0.999999998               0.000000000              -0.000249579               0.999999998               0.000000000              -0.000258426               0.999999998              -0.000000000              -0.000268856               0.999999998               0.000000000              -0.000280574               0.999999998               0.000000000              -0.000293458               0.999999998              -0.000000000              -0.000307565               0.999999998               0.000000000              -0.000322796               0.999999998              -0.000000000              -0.000339113               0.999999998              -0.000000000              -0.000356559               0.999999998              -0.000000000              -0.000375287               0.999999998               0.000000000              -0.000395229               0.999999998               0.000000000              -0.000416115               0.999999998              -0.000007588               0.000000000               0.999999998               0.000001506               0.000000000               0.999999998               0.000005898               0.000000000               0.999999998               0.000008351               0.000000000               0.999999998               0.000010108               0.000000000               0.999999998               0.000011769               0.000000000               0.999999998               0.000013623               0.000000000               0.999999998               0.000015868               0.000000000               0.999999998               0.000018549               0.000000000               0.999999998               0.000021762               0.000000000               0.999999998               0.000025581               0.000000000               0.999999998               0.000029888               0.000000000               0.999999998               0.000034677               0.000000000               0.999999998               0.000039988               0.000000000               0.999999998               0.000045824               0.000000000               0.999999998               0.000052111               0.000000000               0.999999998               0.000058789               0.000000000               0.999999998              -0.000007485              -0.000022424               0.999999998               0.000001301              -0.000020235               0.999999998               0.000005506              -0.000019764               0.999999998               0.000007905              -0.000020287               0.999999998               0.000009701              -0.000021490               0.999999998               0.000011407              -0.000023152               0.999999998               0.000013387              -0.000025153               0.999999998               0.000015755              -0.000027503               0.999999998               0.000018609              -0.000029998               0.999999998               0.000021998              -0.000032732               0.999999998               0.000025901              -0.000035562               0.999999998               0.000030348              -0.000038622               0.999999998               0.000035330              -0.000041798               0.999999998               0.000040835              -0.000045304               0.999999998               0.000046829              -0.000048935               0.999999998               0.000053277              -0.000052592               0.999999998               0.000060117              -0.000056329               0.999999998              -0.000007195              -0.000044650               0.999999998               0.000000686              -0.000040252               0.999999998               0.000004421              -0.000039376               0.999999998               0.000006663              -0.000040538               0.999999998               0.000008531              -0.000042989               0.999999998               0.000010497              -0.000046379               0.999999998               0.000012813              -0.000050477               0.999999998               0.000015590              -0.000055049               0.999999998               0.000018888              -0.000060129               0.999999998               0.000022735              -0.000065508               0.999999998               0.000027127              -0.000071222               0.999999998               0.000032101              -0.000077245               0.999999998               0.000037591              -0.000083724               0.999999998               0.000043593              -0.000090651               0.999999998               0.000050101              -0.000097841               0.999999998               0.000056998              -0.000104989               0.999999998               0.000064212              -0.000112353               0.999999998              -0.000006774              -0.000066489               0.999999998              -0.000000352              -0.000059829               0.999999998               0.000002704              -0.000058683               0.999999998               0.000004808              -0.000060602               0.999999998               0.000006920              -0.000064430               0.999999998               0.000009326              -0.000069590               0.999999998               0.000012224              -0.000075730               0.999999998               0.000015700              -0.000082713               0.999999998               0.000019717              -0.000090263               0.999999998               0.000024321              -0.000098340               0.999999998               0.000029511              -0.000106884               0.999999998               0.000035274              -0.000116025               0.999999998               0.000041622              -0.000125653               0.999999998               0.000048457              -0.000135876               0.999999998               0.000055665              -0.000146334               0.999999998               0.000063174              -0.000156781               0.999999998               0.000070988              -0.000167542               0.999999998              -0.000006246              -0.000087726               0.999999998              -0.000001786              -0.000078776               0.999999998               0.000000518              -0.000077551               0.999999998               0.000002632              -0.000080419               0.999999998               0.000005182              -0.000085782               0.999999998               0.000008297              -0.000092815               0.999999998               0.000012099              -0.000101134               0.999999998               0.000016489              -0.000110404               0.999999998               0.000021472              -0.000120452               0.999999998               0.000027057              -0.000131155               0.999999998               0.000033231              -0.000142577               0.999999998               0.000039999              -0.000154696               0.999999998               0.000047332              -0.000167529               0.999999998               0.000055075              -0.000180824               0.999999998               0.000063071              -0.000194345               0.999999998               0.000071334              -0.000207922               0.999999998               0.000079872              -0.000221845               0.999999998              -0.000005676              -0.000108137               0.999999998              -0.000003602              -0.000097045               0.999999998              -0.000001923              -0.000096004               0.999999998               0.000000454              -0.000099997               0.999999998               0.000003695              -0.000106968               0.999999998               0.000007814              -0.000115890               0.999999998               0.000012652              -0.000126342               0.999999998               0.000018115              -0.000137883               0.999999998               0.000024176              -0.000150401               0.999999998               0.000030860              -0.000163745               0.999999998               0.000038152              -0.000178061               0.999999998               0.000045967              -0.000193254               0.999999998               0.000054269              -0.000209208               0.999999998               0.000062845              -0.000225397               0.999999998               0.000071635              -0.000241861               0.999999998               0.000080643              -0.000258480               0.999999998               0.000089883              -0.000275440               0.999999998              -0.000005164              -0.000127544               0.999999998              -0.000005642              -0.000114637               0.999999998              -0.000004342              -0.000113961               0.999999998              -0.000001482              -0.000119186               0.999999998               0.000002719              -0.000127781               0.999999998               0.000007951              -0.000138673               0.999999998               0.000013902              -0.000151256               0.999999998               0.000020506              -0.000165123               0.999999998               0.000027710              -0.000180131               0.999999998               0.000035488              -0.000196284               0.999999998               0.000043790              -0.000213511               0.999999998               0.000052556              -0.000231846               0.999999998               0.000061694              -0.000250822               0.999999998               0.000071074              -0.000269906               0.999999998               0.000080612              -0.000289193               0.999999998               0.000090409              -0.000308775               0.999999998               0.000100533              -0.000328882               0.999999998              -0.000004655              -0.000145725               0.999999998              -0.000007734              -0.000131472               0.999999998              -0.000006587              -0.000131302               0.999999998              -0.000002956              -0.000137809               0.999999998               0.000002320              -0.000148100               0.999999998               0.000008659              -0.000161002               0.999999998               0.000015740              -0.000175736               0.999999998               0.000023459              -0.000192060               0.999999998               0.000031712              -0.000209766               0.999999998               0.000040423              -0.000228829               0.999999998               0.000049717              -0.000249062               0.999999998               0.000059446              -0.000270364               0.999999998               0.000069433              -0.000292164               0.999999998               0.000079504              -0.000314157               0.999999998               0.000089857              -0.000336609               0.999999998               0.000100620              -0.000359693               0.999999998               0.000111790              -0.000383483               0.999999998              -0.000004054              -0.000162350               0.999999998              -0.000009789              -0.000147482               0.999999998              -0.000008378              -0.000147904               0.999999998              -0.000003829              -0.000155685               0.999999998               0.000002488              -0.000167775               0.999999998               0.000009908              -0.000182725               0.999999998               0.000018021              -0.000199811               0.999999998               0.000026629              -0.000218746               0.999999998               0.000035710              -0.000239322               0.999999998               0.000045429              -0.000261380               0.999999998               0.000055674              -0.000284680               0.999999998               0.000066239              -0.000308896               0.999999998               0.000076829              -0.000333780               0.999999998               0.000087626              -0.000359330               0.999999998               0.000098814              -0.000385833               0.999999998               0.000110423              -0.000413317               0.999999998               0.000122419              -0.000441661               0.999999998              -0.000003205              -0.000177910               0.999999998              -0.000010986              -0.000164068               0.999999998              -0.000010566              -0.000162932               0.999999998              -0.000006810              -0.000168823               0.999999998              -0.000001201              -0.000179078               0.999999998               0.000005454              -0.000192212               0.999999998               0.000012732              -0.000207485               0.999999998               0.000020362              -0.000224506               0.999999998               0.000028317              -0.000243120               0.999999998               0.000036690              -0.000263166               0.999999998               0.000045620              -0.000284452               0.999999998               0.000054953              -0.000306829               0.999999998               0.000064340              -0.000329980               0.999999998               0.000073794              -0.000354016               0.999999998               0.000083373              -0.000378786               0.999999998               0.000093095              -0.000404711               0.999999998               0.000103219              -0.000431796               0.999999998              -0.000002493              -0.000191940               0.999999998              -0.000011386              -0.000179919               0.999999998              -0.000012006              -0.000178031               0.999999998              -0.000009198              -0.000182419               0.999999998              -0.000004418              -0.000191030               0.999999998               0.000001387              -0.000202536               0.999999998               0.000007798              -0.000216090               0.999999998               0.000014395              -0.000231356               0.999999998               0.000021319              -0.000248162               0.999999998               0.000028433              -0.000266339               0.999999998               0.000035931              -0.000285800               0.999999998               0.000043975              -0.000306348               0.999999998               0.000052207              -0.000327796               0.999999998               0.000060437              -0.000350105               0.999999998               0.000068555              -0.000373337               0.999999998               0.000076554              -0.000397597               0.999999998               0.000084791              -0.000423034               0.999999998              -0.000001863              -0.000204164               0.999999998              -0.000011018              -0.000194629               0.999999998              -0.000012473              -0.000192605               0.999999998              -0.000010582              -0.000195989               0.999999998              -0.000006810              -0.000203239               0.999999998              -0.000001896              -0.000213283               0.999999998               0.000003562              -0.000225371               0.999999998               0.000009251              -0.000239035               0.999999998               0.000015079              -0.000254210               0.999999998               0.000021021              -0.000270724               0.999999998               0.000027199              -0.000288512               0.999999998               0.000033864              -0.000307424               0.999999998               0.000040838              -0.000327271               0.999999998               0.000047728              -0.000348047               0.999999998               0.000054264              -0.000369785               0.999999998               0.000060665              -0.000392532               0.999999998               0.000067027              -0.000416463               0.999999998              -0.000001318              -0.000214404               0.999999998              -0.000009868              -0.000207601               0.999999998              -0.000011831              -0.000206048               0.999999998              -0.000010755              -0.000208887               0.999999998              -0.000007985              -0.000215140               0.999999998              -0.000004098              -0.000223984               0.999999998               0.000000361              -0.000234846               0.999999998               0.000005084              -0.000247267               0.999999998               0.000009820              -0.000261050               0.999999998               0.000014613              -0.000276192               0.999999998               0.000019511              -0.000292567               0.999999998               0.000024773              -0.000310127               0.999999998               0.000030245              -0.000328687               0.999999998               0.000035715              -0.000348089               0.999999998               0.000040891              -0.000368412               0.999999998               0.000045565              -0.000389849               0.999999998               0.000049918              -0.000412469               0.999999998              -0.000000875              -0.000222534               0.999999998              -0.000008018              -0.000218330               0.999999998              -0.000010074              -0.000217599               0.999999998              -0.000009644              -0.000220302               0.999999998              -0.000007733              -0.000225933               0.999999998              -0.000004945              -0.000233948               0.999999998              -0.000001542              -0.000243856               0.999999998               0.000002027              -0.000255370               0.999999998               0.000005635              -0.000268233               0.999999998               0.000009246              -0.000282316               0.999999998               0.000013010              -0.000297610               0.999999998               0.000016854              -0.000314076               0.999999998               0.000020935              -0.000331654               0.999999998               0.000025009              -0.000350105               0.999999998               0.000028681              -0.000369448               0.999999998               0.000031676              -0.000389860               0.999999998               0.000034059              -0.000411450               0.999999998              -0.000000543              -0.000228427               0.999999998              -0.000005644              -0.000226403               0.999999998              -0.000007344              -0.000226530               0.999999998              -0.000007278              -0.000229347               0.999999998              -0.000006146              -0.000234701               0.999999998              -0.000004328              -0.000242171               0.999999998              -0.000002094              -0.000251475               0.999999998               0.000000331              -0.000262367               0.999999998               0.000002692              -0.000274609               0.999999998               0.000005109              -0.000288017               0.999999998               0.000007708              -0.000302576               0.999999998               0.000010358              -0.000318250               0.999999998               0.000013003              -0.000335084               0.999999998               0.000015592              -0.000353018               0.999999998               0.000017829              -0.000371931               0.999999998               0.000019493              -0.000391779               0.999999998               0.000020393              -0.000412770               0.999999998              -0.000000260              -0.000231975               0.999999998              -0.000002912              -0.000231382               0.999999998              -0.000003879              -0.000232192               0.999999998              -0.000003901              -0.000235204               0.999999998              -0.000003402              -0.000240434               0.999999998              -0.000002523              -0.000247664               0.999999998              -0.000001418              -0.000256611               0.999999998              -0.000000184              -0.000267096               0.999999998               0.000000994              -0.000278969               0.999999998               0.000002159              -0.000292061               0.999999998               0.000003494              -0.000306245               0.999999998               0.000005026              -0.000321515               0.999999998               0.000006239              -0.000337963               0.999999998               0.000007225              -0.000355595               0.999999998               0.000008403              -0.000374359               0.999999998               0.000009186              -0.000394145               0.999999998               0.000009221              -0.000414977               0.999999998              -0.000000000              -0.000233207               0.999999998               0.000000000              -0.000233110               0.999999998              -0.000000000              -0.000234136               0.999999998              -0.000000000              -0.000237216               0.999999998              -0.000000000              -0.000242437               0.999999998               0.000000000              -0.000249579               0.999999998               0.000000000              -0.000258426               0.999999998              -0.000000000              -0.000268856               0.999999998               0.000000000              -0.000280574               0.999999998               0.000000000              -0.000293458               0.999999998              -0.000000000              -0.000307565               0.999999998               0.000000000              -0.000322796               0.999999998              -0.000000000              -0.000339113               0.999999998              -0.000000000              -0.000356559               0.999999998              -0.000000000              -0.000375287               0.999999998               0.000000000              -0.000395229               0.999999998               0.000000000              -0.000416115               0.999999998              -0.000007588               0.000000000               0.999999998               0.000001506               0.000000000               0.999999998               0.000005898               0.000000000               0.999999998               0.000008351               0.000000000               0.999999998               0.000010108               0.000000000               0.999999998               0.000011769               0.000000000               0.999999998               0.000013623               0.000000000               0.999999998               0.000015868               0.000000000               0.999999998               0.000018549               0.000000000               0.999999998               0.000021762               0.000000000               0.999999998               0.000025581               0.000000000               0.999999998               0.000029888               0.000000000               0.999999998               0.000034677               0.000000000               0.999999998               0.000039988               0.000000000               0.999999998               0.000045824               0.000000000               0.999999998               0.000052111               0.000000000               0.999999998               0.000058789               0.000000000               0.999999998              -0.000007485               0.000022424               0.999999998               0.000001301               0.000020235               0.999999998               0.000005506               0.000019764               0.999999998               0.000007905               0.000020287               0.999999998               0.000009701               0.000021490               0.999999998               0.000011407               0.000023152               0.999999998               0.000013387               0.000025153               0.999999998               0.000015755               0.000027503               0.999999998               0.000018609               0.000029998               0.999999998               0.000021998               0.000032732               0.999999998               0.000025901               0.000035562               0.999999998               0.000030348               0.000038622               0.999999998               0.000035330               0.000041798               0.999999998               0.000040835               0.000045304               0.999999998               0.000046829               0.000048935               0.999999998               0.000053277               0.000052592               0.999999998               0.000060117               0.000056329               0.999999998              -0.000007195               0.000044650               0.999999998               0.000000686               0.000040252               0.999999998               0.000004421               0.000039376               0.999999998               0.000006663               0.000040538               0.999999998               0.000008531               0.000042989               0.999999998               0.000010497               0.000046379               0.999999998               0.000012813               0.000050477               0.999999998               0.000015590               0.000055049               0.999999998               0.000018888               0.000060129               0.999999998               0.000022735               0.000065508               0.999999998               0.000027127               0.000071222               0.999999998               0.000032101               0.000077245               0.999999998               0.000037591               0.000083724               0.999999998               0.000043593               0.000090651               0.999999998               0.000050101               0.000097841               0.999999998               0.000056998               0.000104989               0.999999998               0.000064212               0.000112353               0.999999998              -0.000006774               0.000066489               0.999999998              -0.000000352               0.000059829               0.999999998               0.000002704               0.000058683               0.999999998               0.000004808               0.000060602               0.999999998               0.000006920               0.000064430               0.999999998               0.000009326               0.000069590               0.999999998               0.000012224               0.000075730               0.999999998               0.000015700               0.000082713               0.999999998               0.000019717               0.000090263               0.999999998               0.000024321               0.000098340               0.999999998               0.000029511               0.000106884               0.999999998               0.000035274               0.000116025               0.999999998               0.000041622               0.000125653               0.999999998               0.000048457               0.000135876               0.999999998               0.000055665               0.000146334               0.999999998               0.000063174               0.000156781               0.999999998               0.000070988               0.000167542               0.999999998              -0.000006246               0.000087726               0.999999998              -0.000001786               0.000078776               0.999999998               0.000000518               0.000077551               0.999999998               0.000002632               0.000080419               0.999999998               0.000005182               0.000085782               0.999999998               0.000008297               0.000092815               0.999999998               0.000012099               0.000101134               0.999999998               0.000016489               0.000110404               0.999999998               0.000021472               0.000120452               0.999999998               0.000027057               0.000131155               0.999999998               0.000033231               0.000142577               0.999999998               0.000039999               0.000154696               0.999999998               0.000047332               0.000167529               0.999999998               0.000055075               0.000180824               0.999999998               0.000063071               0.000194345               0.999999998               0.000071334               0.000207922               0.999999998               0.000079872               0.000221845               0.999999998              -0.000005676               0.000108137               0.999999998              -0.000003602               0.000097045               0.999999998              -0.000001923               0.000096004               0.999999998               0.000000454               0.000099997               0.999999998               0.000003695               0.000106968               0.999999998               0.000007814               0.000115890               0.999999998               0.000012652               0.000126342               0.999999998               0.000018115               0.000137883               0.999999998               0.000024176               0.000150401               0.999999998               0.000030860               0.000163745               0.999999998               0.000038152               0.000178061               0.999999998               0.000045967               0.000193254               0.999999998               0.000054269               0.000209208               0.999999998               0.000062845               0.000225397               0.999999998               0.000071635               0.000241861               0.999999998               0.000080643               0.000258480               0.999999998               0.000089883               0.000275440               0.999999998              -0.000005164               0.000127544               0.999999998              -0.000005642               0.000114637               0.999999998              -0.000004342               0.000113961               0.999999998              -0.000001482               0.000119186               0.999999998               0.000002719               0.000127781               0.999999998               0.000007951               0.000138673               0.999999998               0.000013902               0.000151256               0.999999998               0.000020506               0.000165123               0.999999998               0.000027710               0.000180131               0.999999998               0.000035488               0.000196284               0.999999998               0.000043790               0.000213511               0.999999998               0.000052556               0.000231846               0.999999998               0.000061694               0.000250822               0.999999998               0.000071074               0.000269906               0.999999998               0.000080612               0.000289193               0.999999998               0.000090409               0.000308775               0.999999998               0.000100533               0.000328882               0.999999998              -0.000004655               0.000145725               0.999999998              -0.000007734               0.000131472               0.999999998              -0.000006587               0.000131302               0.999999998              -0.000002956               0.000137809               0.999999998               0.000002320               0.000148100               0.999999998               0.000008659               0.000161002               0.999999998               0.000015740               0.000175736               0.999999998               0.000023459               0.000192060               0.999999998               0.000031712               0.000209766               0.999999998               0.000040423               0.000228829               0.999999998               0.000049717               0.000249062               0.999999998               0.000059446               0.000270364               0.999999998               0.000069433               0.000292164               0.999999998               0.000079504               0.000314157               0.999999998               0.000089857               0.000336609               0.999999998               0.000100620               0.000359693               0.999999998               0.000111790               0.000383483               0.999999998              -0.000004054               0.000162350               0.999999998              -0.000009789               0.000147482               0.999999998              -0.000008378               0.000147904               0.999999998              -0.000003829               0.000155685               0.999999998               0.000002488               0.000167775               0.999999998               0.000009908               0.000182725               0.999999998               0.000018021               0.000199811               0.999999998               0.000026629               0.000218746               0.999999998               0.000035710               0.000239322               0.999999998               0.000045429               0.000261380               0.999999998               0.000055674               0.000284680               0.999999998               0.000066239               0.000308896               0.999999998               0.000076829               0.000333780               0.999999998               0.000087626               0.000359330               0.999999998               0.000098814               0.000385833               0.999999998               0.000110423               0.000413317               0.999999998               0.000122419               0.000441661               0.999999998              -0.000003205               0.000177910               0.999999998              -0.000010986               0.000164068               0.999999998              -0.000010566               0.000162932               0.999999998              -0.000006810               0.000168823               0.999999998              -0.000001201               0.000179078               0.999999998               0.000005454               0.000192212               0.999999998               0.000012732               0.000207485               0.999999998               0.000020362               0.000224506               0.999999998               0.000028317               0.000243120               0.999999998               0.000036690               0.000263166               0.999999998               0.000045620               0.000284452               0.999999998               0.000054953               0.000306829               0.999999998               0.000064340               0.000329980               0.999999998               0.000073794               0.000354016               0.999999998               0.000083373               0.000378786               0.999999998               0.000093095               0.000404711               0.999999998               0.000103219               0.000431796               0.999999998              -0.000002493               0.000191940               0.999999998              -0.000011386               0.000179919               0.999999998              -0.000012006               0.000178031               0.999999998              -0.000009198               0.000182419               0.999999998              -0.000004418               0.000191030               0.999999998               0.000001387               0.000202536               0.999999998               0.000007798               0.000216090               0.999999998               0.000014395               0.000231356               0.999999998               0.000021319               0.000248162               0.999999998               0.000028433               0.000266339               0.999999998               0.000035931               0.000285800               0.999999998               0.000043975               0.000306348               0.999999998               0.000052207               0.000327796               0.999999998               0.000060437               0.000350105               0.999999998               0.000068555               0.000373337               0.999999998               0.000076554               0.000397597               0.999999998               0.000084791               0.000423034               0.999999998              -0.000001863               0.000204164               0.999999998              -0.000011018               0.000194629               0.999999998              -0.000012473               0.000192605               0.999999998              -0.000010582               0.000195989               0.999999998              -0.000006810               0.000203239               0.999999998              -0.000001896               0.000213283               0.999999998               0.000003562               0.000225371               0.999999998               0.000009251               0.000239035               0.999999998               0.000015079               0.000254210               0.999999998               0.000021021               0.000270724               0.999999998               0.000027199               0.000288512               0.999999998               0.000033864               0.000307424               0.999999998               0.000040838               0.000327271               0.999999998               0.000047728               0.000348047               0.999999998               0.000054264               0.000369785               0.999999998               0.000060665               0.000392532               0.999999998               0.000067027               0.000416463               0.999999998              -0.000001318               0.000214404               0.999999998              -0.000009868               0.000207601               0.999999998              -0.000011831               0.000206048               0.999999998              -0.000010755               0.000208887               0.999999998              -0.000007985               0.000215140               0.999999998              -0.000004098               0.000223984               0.999999998               0.000000361               0.000234846               0.999999998               0.000005084               0.000247267               0.999999998               0.000009820               0.000261050               0.999999998               0.000014613               0.000276192               0.999999998               0.000019511               0.000292567               0.999999998               0.000024773               0.000310127               0.999999998               0.000030245               0.000328687               0.999999998               0.000035715               0.000348089               0.999999998               0.000040891               0.000368412               0.999999998               0.000045565               0.000389849               0.999999998               0.000049918               0.000412469               0.999999998              -0.000000875               0.000222534               0.999999998              -0.000008018               0.000218330               0.999999998              -0.000010074               0.000217599               0.999999998              -0.000009644               0.000220302               0.999999998              -0.000007733               0.000225933               0.999999998              -0.000004945               0.000233948               0.999999998              -0.000001542               0.000243856               0.999999998               0.000002027               0.000255370               0.999999998               0.000005635               0.000268233               0.999999998               0.000009246               0.000282316               0.999999998               0.000013010               0.000297610               0.999999998               0.000016854               0.000314076               0.999999998               0.000020935               0.000331654               0.999999998               0.000025009               0.000350105               0.999999998               0.000028681               0.000369448               0.999999998               0.000031676               0.000389860               0.999999998               0.000034059               0.000411450               0.999999998              -0.000000543               0.000228427               0.999999998              -0.000005644               0.000226403               0.999999998              -0.000007344               0.000226530               0.999999998              -0.000007278               0.000229347               0.999999998              -0.000006146               0.000234701               0.999999998              -0.000004328               0.000242171               0.999999998              -0.000002094               0.000251475               0.999999998               0.000000331               0.000262367               0.999999998               0.000002692               0.000274609               0.999999998               0.000005109               0.000288017               0.999999998               0.000007708               0.000302576               0.999999998               0.000010358               0.000318250               0.999999998               0.000013003               0.000335084               0.999999998               0.000015592               0.000353018               0.999999998               0.000017829               0.000371931               0.999999998               0.000019493               0.000391779               0.999999998               0.000020393               0.000412770               0.999999998              -0.000000260               0.000231975               0.999999998              -0.000002912               0.000231382               0.999999998              -0.000003879               0.000232192               0.999999998              -0.000003901               0.000235204               0.999999998              -0.000003402               0.000240434               0.999999998              -0.000002523               0.000247664               0.999999998              -0.000001418               0.000256611               0.999999998              -0.000000184               0.000267096               0.999999998               0.000000994               0.000278969               0.999999998               0.000002159               0.000292061               0.999999998               0.000003494               0.000306245               0.999999998               0.000005026               0.000321515               0.999999998               0.000006239               0.000337963               0.999999998               0.000007225               0.000355595               0.999999998               0.000008403               0.000374359               0.999999998               0.000009186               0.000394145               0.999999998               0.000009221               0.000414977               0.999999998              -0.000000000               0.000233207               0.999999998              -0.000000000               0.000233110               0.999999998              -0.000000000               0.000234136               0.999999998               0.000000000               0.000237216               0.999999998               0.000000000               0.000242437               0.999999998               0.000000000               0.000249579               0.999999998               0.000000000               0.000258426               0.999999998               0.000000000               0.000268856               0.999999998               0.000000000               0.000280574               0.999999998               0.000000000               0.000293458               0.999999998               0.000000000               0.000307565               0.999999998              -0.000000000               0.000322796               0.999999998              -0.000000000               0.000339113               0.999999998               0.000000000               0.000356559               0.999999998              -0.000000000               0.000375287               0.999999998               0.000000000               0.000395229               0.999999998               0.000000000               0.000416115               0.999999998 </DataArray>
<DataArray type="Float64"                                    Name="stress"                                                      NumberOfComponents="10" format="ascii">
              0.000364839               0.004222346              -0.000000000              -0.000390978               0.001537760               0.001146783               0.000000000               0.000000000               0.000000000               0.000000000               0.000418305               0.003524990              -0.000000000              -0.000283758               0.001269571               0.000985813               0.000000000               0.000000000               0.000000000               0.000000000               0.000598081               0.002961013               0.000000000              -0.000145846               0.001035610               0.000889764               0.000000000               0.000000000               0.000000000               0.000000000               0.000638589               0.002649444               0.000000000              -0.000091709               0.000913709               0.000821999               0.000000000               0.000000000               0.000000000               0.000000000               0.000621771               0.002470416               0.000000000              -0.000075638               0.000848676               0.000773039               0.000000000               0.000000000               0.000000000               0.000000000               0.000578883               0.002364614               0.000000000              -0.000078495               0.000814362               0.000735867               0.000000000               0.000000000               0.000000000               0.000000000               0.000523147               0.002302766              -0.000000000              -0.000091666               0.000798136               0.000706471               0.000000000               0.000000000               0.000000000               0.000000000               0.000464299               0.002271636              -0.000000000              -0.000109842               0.000793819               0.000683976               0.000000000               0.000000000               0.000000000               0.000000000               0.000401935               0.002254909              -0.000000000              -0.000131138               0.000795341               0.000664204               0.000000000               0.000000000               0.000000000               0.000000000               0.000336170               0.002249425               0.000000000              -0.000155114               0.000801505               0.000646392               0.000000000               0.000000000               0.000000000               0.000000000               0.000274433               0.002251594               0.000000000              -0.000178536               0.000810036               0.000631500               0.000000000               0.000000000               0.000000000               0.000000000               0.000220460               0.002264038              -0.000000000              -0.000200332               0.000821449               0.000621117               0.000000000               0.000000000               0.000000000               0.000000000               0.000167483               0.002282140              -0.000000000              -0.000222461               0.000834859               0.000612399               0.000000000               0.000000000               0.000000000               0.000000000               0.000116969               0.002309914              -0.000000000              -0.000244875               0.000851589               0.000606714               0.000000000               0.000000000               0.000000000               0.000000000               0.000071674               0.002341296               0.000000000              -0.000265784               0.000869019               0.000603235               0.000000000               0.000000000               0.000000000               0.000000000               0.000033338               0.002372446              -0.000000000              -0.000284053               0.000885492               0.000601439               0.000000000               0.000000000               0.000000000               0.000000000               0.000018960               0.002395970              -0.000000000              -0.000292385               0.000896110               0.000603725               0.000000000               0.000000000               0.000000000               0.000000000               0.000392450               0.004159082              -0.000330637              -0.000372716               0.001510585               0.001137870               0.000000000               0.000000000               0.000000000               0.000000000               0.000430877               0.003479706              -0.000221367              -0.000273384               0.001251018               0.000977634               0.000000000               0.000000000               0.000000000               0.000000000               0.000593276               0.002936148              -0.000106929              -0.000144540               0.001026886               0.000882347               0.000000000               0.000000000               0.000000000               0.000000000               0.000624566               0.002636989              -0.000051470              -0.000095411               0.000910791               0.000815380               0.000000000               0.000000000               0.000000000               0.000000000               0.000604786               0.002464433              -0.000023712              -0.000081259               0.000848556               0.000767297               0.000000000               0.000000000               0.000000000               0.000000000               0.000561422               0.002363411              -0.000010122              -0.000084893               0.000816093               0.000731200               0.000000000               0.000000000               0.000000000               0.000000000               0.000506354               0.002304561              -0.000003009              -0.000098187               0.000800908               0.000702721               0.000000000               0.000000000               0.000000000               0.000000000               0.000447555               0.002271143              -0.000000409              -0.000116059               0.000795727               0.000679667               0.000000000               0.000000000               0.000000000               0.000000000               0.000386541               0.002255462              -0.000000404              -0.000136979               0.000797473               0.000660494               0.000000000               0.000000000               0.000000000               0.000000000               0.000325584               0.002250008              -0.000001141              -0.000159156               0.000803047               0.000643891               0.000000000               0.000000000               0.000000000               0.000000000               0.000266777               0.002252941              -0.000000957              -0.000181576               0.000811498               0.000629922               0.000000000               0.000000000               0.000000000               0.000000000               0.000211037               0.002263464              -0.000000217              -0.000203793               0.000822412               0.000618618               0.000000000               0.000000000               0.000000000               0.000000000               0.000159191               0.002283083               0.000002523              -0.000225688               0.000836249               0.000610561               0.000000000               0.000000000               0.000000000               0.000000000               0.000110971               0.002310030               0.000005019              -0.000247139               0.000852382               0.000605243               0.000000000               0.000000000               0.000000000               0.000000000               0.000067928               0.002339604               0.000002099              -0.000266977               0.000868852               0.000601876               0.000000000               0.000000000               0.000000000               0.000000000               0.000030861               0.002367753              -0.000000458              -0.000284396               0.000884042               0.000599646               0.000000000               0.000000000               0.000000000               0.000000000               0.000017029               0.002389606              -0.000001219              -0.000292314               0.000893965               0.000601651               0.000000000               0.000000000               0.000000000               0.000000000               0.000466882               0.003975204              -0.000628133              -0.000321819               0.001432328               0.001110508               0.000000000               0.000000000               0.000000000               0.000000000               0.000461281               0.003346797              -0.000421082              -0.000245369               0.001197377               0.000952008               0.000000000               0.000000000               0.000000000               0.000000000               0.000575975               0.002862158              -0.000205319              -0.000141779               0.001001303               0.000859524               0.000000000               0.000000000               0.000000000               0.000000000               0.000584796               0.002596538              -0.000103031              -0.000105269               0.000900594               0.000795325               0.000000000               0.000000000               0.000000000               0.000000000               0.000555308               0.002442438              -0.000052602              -0.000097064               0.000846493               0.000749428               0.000000000               0.000000000               0.000000000               0.000000000               0.000510365               0.002351542              -0.000027098              -0.000102556               0.000818025               0.000715469               0.000000000               0.000000000               0.000000000               0.000000000               0.000457572               0.002297820              -0.000015154              -0.000115638               0.000804478               0.000688840               0.000000000               0.000000000               0.000000000               0.000000000               0.000403303               0.002268045              -0.000010027              -0.000132267               0.000800096               0.000667830               0.000000000               0.000000000               0.000000000               0.000000000               0.000347778               0.002253294              -0.000008635              -0.000151244               0.000801505               0.000650261               0.000000000               0.000000000               0.000000000               0.000000000               0.000292629               0.002248058              -0.000009418              -0.000171271               0.000806435               0.000635164               0.000000000               0.000000000               0.000000000               0.000000000               0.000238086               0.002251702              -0.000009343              -0.000192180               0.000814620               0.000622440               0.000000000               0.000000000               0.000000000               0.000000000               0.000186329               0.002263683              -0.000006862              -0.000213087               0.000825582               0.000612496               0.000000000               0.000000000               0.000000000               0.000000000               0.000139968               0.002283028              -0.000001337              -0.000232890               0.000838632               0.000605742               0.000000000               0.000000000               0.000000000               0.000000000               0.000096235               0.002305305               0.000001813              -0.000252074               0.000852452               0.000600378               0.000000000               0.000000000               0.000000000               0.000000000               0.000058256               0.002327717              -0.000003212              -0.000269118               0.000865604               0.000596486               0.000000000               0.000000000               0.000000000               0.000000000               0.000027511               0.002349583              -0.000006444              -0.000283380               0.000877647               0.000594266               0.000000000               0.000000000               0.000000000               0.000000000               0.000016364               0.002367364              -0.000006192              -0.000289783               0.000885708               0.000595925               0.000000000               0.000000000               0.000000000               0.000000000               0.000568473               0.003686157              -0.000868132              -0.000247592               0.001311237               0.001063645               0.000000000               0.000000000               0.000000000               0.000000000               0.000498010               0.003138742              -0.000582933              -0.000205589               0.001114766               0.000909177               0.000000000               0.000000000               0.000000000               0.000000000               0.000543098               0.002746850              -0.000288966              -0.000139694               0.000962172               0.000822478               0.000000000               0.000000000               0.000000000               0.000000000               0.000522102               0.002531875              -0.000154576              -0.000120696               0.000884182               0.000763486               0.000000000               0.000000000               0.000000000               0.000000000               0.000483747               0.002407611              -0.000089833              -0.000119546               0.000842377               0.000722832               0.000000000               0.000000000               0.000000000               0.000000000               0.000439987               0.002332781              -0.000057272              -0.000126602               0.000819787               0.000693184               0.000000000               0.000000000               0.000000000               0.000000000               0.000392435               0.002288098              -0.000040759              -0.000138849               0.000808975               0.000670126               0.000000000               0.000000000               0.000000000               0.000000000               0.000346160               0.002263366              -0.000032948              -0.000153110               0.000805485               0.000652374               0.000000000               0.000000000               0.000000000               0.000000000               0.000298692               0.002248975              -0.000029925              -0.000169112               0.000806022               0.000636910               0.000000000               0.000000000               0.000000000               0.000000000               0.000249825               0.002244126              -0.000028020              -0.000186831               0.000810311               0.000623480               0.000000000               0.000000000               0.000000000               0.000000000               0.000201911               0.002248952              -0.000024054              -0.000205402               0.000818111               0.000612709               0.000000000               0.000000000               0.000000000               0.000000000               0.000154847               0.002261117              -0.000018486              -0.000224572               0.000828555               0.000603984               0.000000000               0.000000000               0.000000000               0.000000000               0.000113109               0.002277410              -0.000011902              -0.000242260               0.000839882               0.000597623               0.000000000               0.000000000               0.000000000               0.000000000               0.000079592               0.002293413              -0.000008421              -0.000256829               0.000850073               0.000593244               0.000000000               0.000000000               0.000000000               0.000000000               0.000051833               0.002307638              -0.000013208              -0.000269017               0.000858877               0.000589860               0.000000000               0.000000000               0.000000000               0.000000000               0.000026303               0.002321888              -0.000014446              -0.000280371               0.000867412               0.000587040               0.000000000               0.000000000               0.000000000               0.000000000               0.000015811               0.002333622              -0.000012701              -0.000285773               0.000873124               0.000587351               0.000000000               0.000000000               0.000000000               0.000000000               0.000675130               0.003319485              -0.001035111              -0.000161763               0.001160404               0.000998642               0.000000000               0.000000000               0.000000000               0.000000000               0.000530797               0.002883817              -0.000699226              -0.000161429               0.001015072               0.000853644               0.000000000               0.000000000               0.000000000               0.000000000               0.000497834               0.002613422              -0.000358238              -0.000139990               0.000917795               0.000777806               0.000000000               0.000000000               0.000000000               0.000000000               0.000449824               0.002460056              -0.000207902              -0.000138823               0.000866285               0.000727462               0.000000000               0.000000000               0.000000000               0.000000000               0.000404919               0.002367409              -0.000136061              -0.000144081               0.000837156               0.000693074               0.000000000               0.000000000               0.000000000               0.000000000               0.000363947               0.002309430              -0.000099321              -0.000152198               0.000820535               0.000668337               0.000000000               0.000000000               0.000000000               0.000000000               0.000325610               0.002274271              -0.000078957              -0.000162180               0.000812142               0.000649963               0.000000000               0.000000000               0.000000000               0.000000000               0.000288662               0.002250965              -0.000066596              -0.000173122               0.000808021               0.000634900               0.000000000               0.000000000               0.000000000               0.000000000               0.000249228               0.002238460              -0.000058882              -0.000186347               0.000808262               0.000621915               0.000000000               0.000000000               0.000000000               0.000000000               0.000208029               0.002235123              -0.000051039              -0.000201379               0.000812160               0.000610781               0.000000000               0.000000000               0.000000000               0.000000000               0.000167771               0.002242688              -0.000041486              -0.000217421               0.000820029               0.000602608               0.000000000               0.000000000               0.000000000               0.000000000               0.000127016               0.002255169              -0.000030795              -0.000234264               0.000829804               0.000595539               0.000000000               0.000000000               0.000000000               0.000000000               0.000092919               0.002269917              -0.000022655              -0.000248895               0.000839596               0.000590702               0.000000000               0.000000000               0.000000000               0.000000000               0.000068624               0.002279126              -0.000018965              -0.000259156               0.000846087               0.000586930               0.000000000               0.000000000               0.000000000               0.000000000               0.000048117               0.002286990              -0.000020570              -0.000267829               0.000851599               0.000583769               0.000000000               0.000000000               0.000000000               0.000000000               0.000025445               0.002295191              -0.000018608              -0.000277356               0.000857508               0.000580152               0.000000000               0.000000000               0.000000000               0.000000000               0.000015078               0.002301952              -0.000015343              -0.000282089               0.000861339               0.000579250               0.000000000               0.000000000               0.000000000               0.000000000               0.000765933               0.002913445              -0.001123088              -0.000076957               0.000996791               0.000919834               0.000000000               0.000000000               0.000000000               0.000000000               0.000553153               0.002613376              -0.000771406              -0.000119240               0.000910863               0.000791623               0.000000000               0.000000000               0.000000000               0.000000000               0.000445472               0.002476344              -0.000416677              -0.000142491               0.000872937               0.000730446               0.000000000               0.000000000               0.000000000               0.000000000               0.000376519               0.002382867              -0.000263391              -0.000156663               0.000846502               0.000689839               0.000000000               0.000000000               0.000000000               0.000000000               0.000328355               0.002318022              -0.000189223              -0.000166619               0.000828206               0.000661587               0.000000000               0.000000000               0.000000000               0.000000000               0.000294382               0.002276745              -0.000147914              -0.000174200               0.000816974               0.000642774               0.000000000               0.000000000               0.000000000               0.000000000               0.000266434               0.002249977              -0.000121092              -0.000181334               0.000810430               0.000629096               0.000000000               0.000000000               0.000000000               0.000000000               0.000238862               0.002233042              -0.000102507              -0.000189557               0.000807526               0.000617969               0.000000000               0.000000000               0.000000000               0.000000000               0.000207487               0.002225605              -0.000087364              -0.000200393               0.000808659               0.000608266               0.000000000               0.000000000               0.000000000               0.000000000               0.000173181               0.002228953              -0.000071618              -0.000213676               0.000814202               0.000600527               0.000000000               0.000000000               0.000000000               0.000000000               0.000140014               0.002240593              -0.000053436              -0.000227568               0.000822713               0.000595145               0.000000000               0.000000000               0.000000000               0.000000000               0.000108143               0.002256722              -0.000037116              -0.000241536               0.000832745               0.000591209               0.000000000               0.000000000               0.000000000               0.000000000               0.000081864               0.002268183              -0.000029063              -0.000252823               0.000840328               0.000587505               0.000000000               0.000000000               0.000000000               0.000000000               0.000063559               0.002272425              -0.000025751              -0.000260218               0.000844207               0.000583989               0.000000000               0.000000000               0.000000000               0.000000000               0.000045057               0.002274258              -0.000022265              -0.000267385               0.000847207               0.000579822               0.000000000               0.000000000               0.000000000               0.000000000               0.000024003               0.002278316              -0.000016446              -0.000275788               0.000851361               0.000575573               0.000000000               0.000000000               0.000000000               0.000000000               0.000015113               0.002284088              -0.000012718              -0.000279843               0.000854636               0.000574793               0.000000000               0.000000000               0.000000000               0.000000000               0.000825746               0.002497508              -0.001140208              -0.000002535               0.000833339               0.000830804               0.000000000               0.000000000               0.000000000               0.000000000               0.000560957               0.002341767              -0.000806498              -0.000082363               0.000808035               0.000725672               0.000000000               0.000000000               0.000000000               0.000000000               0.000391126               0.002335112              -0.000465916              -0.000145217               0.000826768               0.000681552               0.000000000               0.000000000               0.000000000               0.000000000               0.000309934               0.002296985              -0.000317973              -0.000170898               0.000822620               0.000651722               0.000000000               0.000000000               0.000000000               0.000000000               0.000264228               0.002261622              -0.000241726              -0.000183617               0.000815072               0.000631455               0.000000000               0.000000000               0.000000000               0.000000000               0.000239254               0.002239717              -0.000193848              -0.000190244               0.000809980               0.000619736               0.000000000               0.000000000               0.000000000               0.000000000               0.000220377               0.002224577              -0.000159793              -0.000195430               0.000806662               0.000611231               0.000000000               0.000000000               0.000000000               0.000000000               0.000200432               0.002219557              -0.000133959              -0.000202282               0.000807272               0.000604990               0.000000000               0.000000000               0.000000000               0.000000000               0.000177701               0.002224308              -0.000109664              -0.000211400               0.000811895               0.000600495               0.000000000               0.000000000               0.000000000               0.000000000               0.000150333               0.002237121              -0.000085197              -0.000223265               0.000820121               0.000596856               0.000000000               0.000000000               0.000000000               0.000000000               0.000122732               0.002251845              -0.000059523              -0.000235455               0.000829093               0.000593637               0.000000000               0.000000000               0.000000000               0.000000000               0.000098085               0.002264639              -0.000039080              -0.000246297               0.000836971               0.000590674               0.000000000               0.000000000               0.000000000               0.000000000               0.000077194               0.002268928              -0.000031320              -0.000254667               0.000841191               0.000586523               0.000000000               0.000000000               0.000000000               0.000000000               0.000060948               0.002271267              -0.000027932              -0.000261052               0.000844099               0.000583047               0.000000000               0.000000000               0.000000000               0.000000000               0.000042675               0.002276600              -0.000021961              -0.000268571               0.000848383               0.000579812               0.000000000               0.000000000               0.000000000               0.000000000               0.000021437               0.002288614              -0.000013778              -0.000278037               0.000855543               0.000577506               0.000000000               0.000000000               0.000000000               0.000000000               0.000014493               0.002301952              -0.000010740              -0.000282309               0.000861413               0.000579104               0.000000000               0.000000000               0.000000000               0.000000000               0.000855482               0.002091898              -0.001096290               0.000059317               0.000677520               0.000736836               0.000000000               0.000000000               0.000000000               0.000000000               0.000556184               0.002079594              -0.000809209              -0.000051381               0.000710318               0.000658937               0.000000000               0.000000000               0.000000000               0.000000000               0.000344231               0.002194208              -0.000508257              -0.000145189               0.000779792               0.000634602               0.000000000               0.000000000               0.000000000               0.000000000               0.000261486               0.002207980              -0.000368155              -0.000177940               0.000795299               0.000617359               0.000000000               0.000000000               0.000000000               0.000000000               0.000222223               0.002204833              -0.000287802              -0.000192270               0.000799027               0.000606757               0.000000000               0.000000000               0.000000000               0.000000000               0.000203681               0.002202152              -0.000232821              -0.000198888               0.000800339               0.000601451               0.000000000               0.000000000               0.000000000               0.000000000               0.000190356               0.002203894              -0.000190576              -0.000204103               0.000802658               0.000598555               0.000000000               0.000000000               0.000000000               0.000000000               0.000174318               0.002214611              -0.000154319              -0.000211457               0.000808682               0.000597225               0.000000000               0.000000000               0.000000000               0.000000000               0.000155738               0.002232837              -0.000120943              -0.000220702               0.000817839               0.000597137               0.000000000               0.000000000               0.000000000               0.000000000               0.000131374               0.002251862              -0.000090977              -0.000232217               0.000828019               0.000595802               0.000000000               0.000000000               0.000000000               0.000000000               0.000105440               0.002266822              -0.000063505              -0.000243812               0.000836870               0.000593058               0.000000000               0.000000000               0.000000000               0.000000000               0.000086354               0.002274444              -0.000041931              -0.000251922               0.000842115               0.000590192               0.000000000               0.000000000               0.000000000               0.000000000               0.000073702               0.002281301              -0.000031630              -0.000257524               0.000846267               0.000588744               0.000000000               0.000000000               0.000000000               0.000000000               0.000060314               0.002298184              -0.000024959              -0.000264655               0.000854272               0.000589617               0.000000000               0.000000000               0.000000000               0.000000000               0.000040503               0.002327093              -0.000016927              -0.000275697               0.000867589               0.000591892               0.000000000               0.000000000               0.000000000               0.000000000               0.000020053               0.002365715              -0.000008985              -0.000288194               0.000884629               0.000596435               0.000000000               0.000000000               0.000000000               0.000000000               0.000015091               0.002395933              -0.000008249              -0.000293832               0.000896580               0.000602749               0.000000000               0.000000000               0.000000000               0.000000000               0.000866364               0.001726719              -0.001008967               0.000109044               0.000539219               0.000648263               0.000000000               0.000000000               0.000000000               0.000000000               0.000558463               0.001840375              -0.000795711              -0.000020624               0.000620327               0.000599702               0.000000000               0.000000000               0.000000000               0.000000000               0.000324991               0.002063914              -0.000555879              -0.000136118               0.000733337               0.000597219               0.000000000               0.000000000               0.000000000               0.000000000               0.000243076               0.002129288              -0.000420186              -0.000175007               0.000768091               0.000593084               0.000000000               0.000000000               0.000000000               0.000000000               0.000208183               0.002157611              -0.000334331              -0.000191632               0.000783074               0.000591442               0.000000000               0.000000000               0.000000000               0.000000000               0.000191974               0.002174513              -0.000271623              -0.000199824               0.000791438               0.000591615               0.000000000               0.000000000               0.000000000               0.000000000               0.000182447               0.002194243              -0.000220026              -0.000205862               0.000800028               0.000594166               0.000000000               0.000000000               0.000000000               0.000000000               0.000169014               0.002218285              -0.000173850              -0.000213905               0.000810722               0.000596818               0.000000000               0.000000000               0.000000000               0.000000000               0.000148015               0.002245206              -0.000134817              -0.000225144               0.000823443               0.000598298               0.000000000               0.000000000               0.000000000               0.000000000               0.000122809               0.002269795              -0.000103090              -0.000237671               0.000835814               0.000598144               0.000000000               0.000000000               0.000000000               0.000000000               0.000101339               0.002289053              -0.000076231              -0.000248129               0.000845720               0.000597591               0.000000000               0.000000000               0.000000000               0.000000000               0.000088704               0.002302425              -0.000052142              -0.000254538               0.000852313               0.000597775               0.000000000               0.000000000               0.000000000               0.000000000               0.000079805               0.002321337              -0.000033519              -0.000260240               0.000860518               0.000600278               0.000000000               0.000000000               0.000000000               0.000000000               0.000069640               0.002359830              -0.000021081              -0.000268863               0.000876223               0.000607360               0.000000000               0.000000000               0.000000000               0.000000000               0.000055455               0.002414298              -0.000009267              -0.000280991               0.000898422               0.000617431               0.000000000               0.000000000               0.000000000               0.000000000               0.000040604               0.002480264              -0.000000527              -0.000294806               0.000925015               0.000630209               0.000000000               0.000000000               0.000000000               0.000000000               0.000033055               0.002518954               0.000001476              -0.000302473               0.000940467               0.000637994               0.000000000               0.000000000               0.000000000               0.000000000               0.000850233               0.001363083              -0.000899433               0.000148450               0.000404873               0.000553322               0.000000000               0.000000000               0.000000000               0.000000000               0.000577105               0.001558079              -0.000775918               0.000021653               0.000512136               0.000533790               0.000000000               0.000000000               0.000000000               0.000000000               0.000344324               0.001861363              -0.000611591              -0.000103549               0.000654964               0.000551415               0.000000000               0.000000000               0.000000000               0.000000000               0.000257979               0.001987488              -0.000484804              -0.000151694               0.000713054               0.000561360               0.000000000               0.000000000               0.000000000               0.000000000               0.000221580               0.002054803              -0.000395068              -0.000173758               0.000742847               0.000569089               0.000000000               0.000000000               0.000000000               0.000000000               0.000202682               0.002095855              -0.000325359              -0.000185976               0.000760603               0.000574627               0.000000000               0.000000000               0.000000000               0.000000000               0.000189971               0.002128530              -0.000265107              -0.000194827               0.000774445               0.000579619               0.000000000               0.000000000               0.000000000               0.000000000               0.000176069               0.002163023              -0.000211532              -0.000204352               0.000789118               0.000584766               0.000000000               0.000000000               0.000000000               0.000000000               0.000160249               0.002201606              -0.000167626              -0.000215107               0.000805563               0.000590457               0.000000000               0.000000000               0.000000000               0.000000000               0.000136644               0.002237197              -0.000132598              -0.000228408               0.000821861               0.000593453               0.000000000               0.000000000               0.000000000               0.000000000               0.000114080               0.002270818              -0.000105378              -0.000241071               0.000837289               0.000596217               0.000000000               0.000000000               0.000000000               0.000000000               0.000100298               0.002299290              -0.000079665              -0.000249799               0.000849689               0.000599890               0.000000000               0.000000000               0.000000000               0.000000000               0.000095280               0.002333861              -0.000055665              -0.000256002               0.000863280               0.000607278               0.000000000               0.000000000               0.000000000               0.000000000               0.000091169               0.002380331              -0.000036176              -0.000263352               0.000881220               0.000617868               0.000000000               0.000000000               0.000000000               0.000000000               0.000084685               0.002445837              -0.000017491              -0.000273972               0.000906595               0.000632623               0.000000000               0.000000000               0.000000000               0.000000000               0.000078220               0.002534242              -0.000003874              -0.000287447               0.000940555               0.000653108               0.000000000               0.000000000               0.000000000               0.000000000               0.000067459               0.002575427               0.000002944              -0.000296630               0.000957344               0.000660713               0.000000000               0.000000000               0.000000000               0.000000000               0.000796672               0.001018970              -0.000768415               0.000171379               0.000282527               0.000453905               0.000000000               0.000000000               0.000000000               0.000000000               0.000597908               0.001271720              -0.000735258               0.000065249               0.000402153               0.000467401               0.000000000               0.000000000               0.000000000               0.000000000               0.000393633               0.001627797              -0.000651465              -0.000055863               0.000561214               0.000505351               0.000000000               0.000000000               0.000000000               0.000000000               0.000306548               0.001812361              -0.000546343              -0.000111590               0.000641311               0.000529721               0.000000000               0.000000000               0.000000000               0.000000000               0.000261173               0.001921131              -0.000457830              -0.000142201               0.000687771               0.000545570               0.000000000               0.000000000               0.000000000               0.000000000               0.000236429               0.001988796              -0.000384435              -0.000159938               0.000716238               0.000556300               0.000000000               0.000000000               0.000000000               0.000000000               0.000219752               0.002037606              -0.000318645              -0.000172294               0.000736626               0.000564333               0.000000000               0.000000000               0.000000000               0.000000000               0.000206493               0.002085746              -0.000260520              -0.000183283               0.000756336               0.000573053               0.000000000               0.000000000               0.000000000               0.000000000               0.000192298               0.002136050              -0.000211420              -0.000194894               0.000776974               0.000582080               0.000000000               0.000000000               0.000000000               0.000000000               0.000173494               0.002186206              -0.000170718              -0.000208215               0.000798133               0.000589918               0.000000000               0.000000000               0.000000000               0.000000000               0.000150749               0.002234096              -0.000142197              -0.000222731               0.000818935               0.000596204               0.000000000               0.000000000               0.000000000               0.000000000               0.000132954               0.002274995              -0.000117639              -0.000234516               0.000836496               0.000601980               0.000000000               0.000000000               0.000000000               0.000000000               0.000125572               0.002318882              -0.000090699              -0.000242770               0.000853877               0.000611106               0.000000000               0.000000000               0.000000000               0.000000000               0.000121045               0.002372815              -0.000061612              -0.000251209               0.000874667               0.000623458               0.000000000               0.000000000               0.000000000               0.000000000               0.000115233               0.002443632              -0.000032806              -0.000262241               0.000901949               0.000639708               0.000000000               0.000000000               0.000000000               0.000000000               0.000110767               0.002533492              -0.000011062              -0.000275148               0.000936205               0.000661057               0.000000000               0.000000000               0.000000000               0.000000000               0.000098976               0.002574768               0.000000720              -0.000284729               0.000953157               0.000668428               0.000000000               0.000000000               0.000000000               0.000000000               0.000708830               0.000715789              -0.000617934               0.000176335               0.000179815               0.000356150               0.000000000               0.000000000               0.000000000               0.000000000               0.000603344               0.000991878              -0.000660945               0.000102268               0.000296533               0.000398801               0.000000000               0.000000000               0.000000000               0.000000000               0.000455819               0.001367868              -0.000652573              -0.000000052               0.000455969               0.000455916               0.000000000               0.000000000               0.000000000               0.000000000               0.000379454               0.001598068              -0.000576758              -0.000057464               0.000551839               0.000494375               0.000000000               0.000000000               0.000000000               0.000000000               0.000325695               0.001744442              -0.000497956              -0.000095920               0.000613448               0.000517528               0.000000000               0.000000000               0.000000000               0.000000000               0.000290631               0.001842495              -0.000426377              -0.000121325               0.000654601               0.000533275               0.000000000               0.000000000               0.000000000               0.000000000               0.000266835               0.001913727              -0.000361026              -0.000139153               0.000684287               0.000545134               0.000000000               0.000000000               0.000000000               0.000000000               0.000251804               0.001979271              -0.000302101              -0.000152982               0.000710744               0.000557762               0.000000000               0.000000000               0.000000000               0.000000000               0.000236041               0.002045686              -0.000249121              -0.000167195               0.000737620               0.000570425               0.000000000               0.000000000               0.000000000               0.000000000               0.000220003               0.002113320              -0.000205632              -0.000181664               0.000764988               0.000583324               0.000000000               0.000000000               0.000000000               0.000000000               0.000200512               0.002178680              -0.000175400              -0.000197143               0.000791933               0.000594791               0.000000000               0.000000000               0.000000000               0.000000000               0.000179307               0.002235875              -0.000152129              -0.000212244               0.000816032               0.000603788               0.000000000               0.000000000               0.000000000               0.000000000               0.000163235               0.002291104              -0.000124090              -0.000225174               0.000838752               0.000613577               0.000000000               0.000000000               0.000000000               0.000000000               0.000153976               0.002354876              -0.000088209              -0.000236618               0.000863823               0.000627206               0.000000000               0.000000000               0.000000000               0.000000000               0.000147681               0.002431585              -0.000051955              -0.000248567               0.000893376               0.000644809               0.000000000               0.000000000               0.000000000               0.000000000               0.000141600               0.002526231              -0.000022628              -0.000262678               0.000929628               0.000666950               0.000000000               0.000000000               0.000000000               0.000000000               0.000127575               0.002570620              -0.000005749              -0.000273486               0.000948027               0.000674540               0.000000000               0.000000000               0.000000000               0.000000000               0.000594069               0.000467237              -0.000463611               0.000164369               0.000100954               0.000265323               0.000000000               0.000000000               0.000000000               0.000000000               0.000595318               0.000736574              -0.000557153               0.000131171               0.000201798               0.000332969               0.000000000               0.000000000               0.000000000               0.000000000               0.000522539               0.001102814              -0.000606766               0.000058099               0.000348234               0.000406333               0.000000000               0.000000000               0.000000000               0.000000000               0.000463844               0.001359071              -0.000562311               0.000004057               0.000451667               0.000455723               0.000000000               0.000000000               0.000000000               0.000000000               0.000410910               0.001538719              -0.000500131              -0.000038249               0.000525651               0.000487402               0.000000000               0.000000000               0.000000000               0.000000000               0.000364249               0.001668018              -0.000437467              -0.000071909               0.000579970               0.000508061               0.000000000               0.000000000               0.000000000               0.000000000               0.000330022               0.001767182              -0.000377726              -0.000097140               0.000621434               0.000524295               0.000000000               0.000000000               0.000000000               0.000000000               0.000303906               0.001852555              -0.000321858              -0.000117604               0.000656714               0.000539109               0.000000000               0.000000000               0.000000000               0.000000000               0.000283752               0.001937543              -0.000271019              -0.000135785               0.000691103               0.000555317               0.000000000               0.000000000               0.000000000               0.000000000               0.000267460               0.002023887              -0.000228728              -0.000152688               0.000725518               0.000572830               0.000000000               0.000000000               0.000000000               0.000000000               0.000252103               0.002109165              -0.000197959              -0.000169107               0.000759417               0.000590310               0.000000000               0.000000000               0.000000000               0.000000000               0.000231747               0.002187474              -0.000173991              -0.000186529               0.000791327               0.000604798               0.000000000               0.000000000               0.000000000               0.000000000               0.000211607               0.002255471              -0.000148219              -0.000202581               0.000819343               0.000616762               0.000000000               0.000000000               0.000000000               0.000000000               0.000198183               0.002324893              -0.000114734              -0.000216292               0.000847054               0.000630762               0.000000000               0.000000000               0.000000000               0.000000000               0.000192213               0.002412555              -0.000073963              -0.000229489               0.000880673               0.000651184               0.000000000               0.000000000               0.000000000               0.000000000               0.000184764               0.002517768              -0.000034154              -0.000245434               0.000921059               0.000675625               0.000000000               0.000000000               0.000000000               0.000000000               0.000168304               0.002565681              -0.000012309              -0.000257596               0.000941084               0.000683488               0.000000000               0.000000000               0.000000000               0.000000000               0.000465030               0.000279198              -0.000320664               0.000139485               0.000046570               0.000186055               0.000000000               0.000000000               0.000000000               0.000000000               0.000572910               0.000522672              -0.000432465               0.000149506               0.000124387               0.000273892               0.000000000               0.000000000               0.000000000               0.000000000               0.000583749               0.000856341              -0.000510734               0.000111862               0.000248157               0.000360019               0.000000000               0.000000000               0.000000000               0.000000000               0.000549653               0.001121377              -0.000493888               0.000065947               0.000351806               0.000417753               0.000000000               0.000000000               0.000000000               0.000000000               0.000502102               0.001326201              -0.000450941               0.000022512               0.000434558               0.000457071               0.000000000               0.000000000               0.000000000               0.000000000               0.000450271               0.001482857              -0.000402402              -0.000016506               0.000499783               0.000483277               0.000000000               0.000000000               0.000000000               0.000000000               0.000404657               0.001610168              -0.000352969              -0.000049525               0.000553225               0.000503701               0.000000000               0.000000000               0.000000000               0.000000000               0.000367805               0.001720585              -0.000304472              -0.000077146               0.000599238               0.000522092               0.000000000               0.000000000               0.000000000               0.000000000               0.000337627               0.001820780              -0.000261392              -0.000100987               0.000640583               0.000539596               0.000000000               0.000000000               0.000000000               0.000000000               0.000316174               0.001919994              -0.000226609              -0.000121434               0.000680470               0.000559036               0.000000000               0.000000000               0.000000000               0.000000000               0.000302969               0.002022007              -0.000198623              -0.000139137               0.000720375               0.000581237               0.000000000               0.000000000               0.000000000               0.000000000               0.000288606               0.002121744              -0.000175130              -0.000156990               0.000759571               0.000602581               0.000000000               0.000000000               0.000000000               0.000000000               0.000271278               0.002210643              -0.000153441              -0.000174601               0.000795074               0.000620473               0.000000000               0.000000000               0.000000000               0.000000000               0.000255982               0.002294210              -0.000124585              -0.000190782               0.000828323               0.000637541               0.000000000               0.000000000               0.000000000               0.000000000               0.000248564               0.002391409              -0.000085264              -0.000205714               0.000865700               0.000659986               0.000000000               0.000000000               0.000000000               0.000000000               0.000247803               0.002506409              -0.000042024              -0.000220375               0.000908919               0.000688545               0.000000000               0.000000000               0.000000000               0.000000000               0.000238064               0.002561522              -0.000018372              -0.000230916               0.000930804               0.000699888               0.000000000               0.000000000               0.000000000               0.000000000               0.000348463               0.000153399              -0.000196188               0.000111498               0.000013966               0.000125464               0.000000000               0.000000000               0.000000000               0.000000000               0.000543868               0.000361230              -0.000293621               0.000158795               0.000067477               0.000226272               0.000000000               0.000000000               0.000000000               0.000000000               0.000632062               0.000654532              -0.000369809               0.000155205               0.000166440               0.000321645               0.000000000               0.000000000               0.000000000               0.000000000               0.000627352               0.000918703              -0.000369708               0.000120418               0.000266092               0.000386510               0.000000000               0.000000000               0.000000000               0.000000000               0.000585414               0.001136319              -0.000344632               0.000077490               0.000352939               0.000430429               0.000000000               0.000000000               0.000000000               0.000000000               0.000531853               0.001313050              -0.000312236               0.000035313               0.000425908               0.000461221               0.000000000               0.000000000               0.000000000               0.000000000               0.000478680               0.001463386              -0.000277202              -0.000003419               0.000488930               0.000485511               0.000000000               0.000000000               0.000000000               0.000000000               0.000434786               0.001594976              -0.000240451              -0.000036328               0.000543763               0.000507435               0.000000000               0.000000000               0.000000000               0.000000000               0.000397448               0.001710322              -0.000207976              -0.000064747               0.000591684               0.000526937               0.000000000               0.000000000               0.000000000               0.000000000               0.000368313               0.001819682              -0.000185426              -0.000089343               0.000636335               0.000546993               0.000000000               0.000000000               0.000000000               0.000000000               0.000349665               0.001930521              -0.000166920              -0.000110190               0.000680231               0.000570040               0.000000000               0.000000000               0.000000000               0.000000000               0.000339760               0.002046153              -0.000146955              -0.000128359               0.000724831               0.000596472               0.000000000               0.000000000               0.000000000               0.000000000               0.000324956               0.002159849              -0.000126350              -0.000148122               0.000769316               0.000621194               0.000000000               0.000000000               0.000000000               0.000000000               0.000310807               0.002267465              -0.000104771              -0.000166880               0.000811441               0.000644561               0.000000000               0.000000000               0.000000000               0.000000000               0.000312187               0.002376497              -0.000077113              -0.000179991               0.000852155               0.000672163               0.000000000               0.000000000               0.000000000               0.000000000               0.000327370               0.002498935              -0.000041024              -0.000189603               0.000896171               0.000706568               0.000000000               0.000000000               0.000000000               0.000000000               0.000332042               0.002561918              -0.000020059              -0.000195723               0.000919205               0.000723482               0.000000000               0.000000000               0.000000000               0.000000000               0.000269721               0.000083954              -0.000092903               0.000090650              -0.000002233               0.000088418               0.000000000               0.000000000               0.000000000               0.000000000               0.000521600               0.000262248              -0.000148532               0.000162817               0.000033143               0.000195960               0.000000000               0.000000000               0.000000000               0.000000000               0.000664047               0.000523191              -0.000194587               0.000183617               0.000113190               0.000296807               0.000000000               0.000000000               0.000000000               0.000000000               0.000680498               0.000779836              -0.000198338               0.000157706               0.000207374               0.000365080               0.000000000               0.000000000               0.000000000               0.000000000               0.000646366               0.001003987              -0.000187043               0.000116888               0.000295697               0.000412584               0.000000000               0.000000000               0.000000000               0.000000000               0.000591863               0.001192304              -0.000171259               0.000072910               0.000373127               0.000446037               0.000000000               0.000000000               0.000000000               0.000000000               0.000534477               0.001355041              -0.000153592               0.000031048               0.000441326               0.000472375               0.000000000               0.000000000               0.000000000               0.000000000               0.000484391               0.001500252              -0.000134171              -0.000005885               0.000502041               0.000496156               0.000000000               0.000000000               0.000000000               0.000000000               0.000445463               0.001630170              -0.000115571              -0.000036723               0.000555625               0.000518903               0.000000000               0.000000000               0.000000000               0.000000000               0.000413398               0.001749584              -0.000104043              -0.000063674               0.000604414               0.000540740               0.000000000               0.000000000               0.000000000               0.000000000               0.000385900               0.001865298              -0.000098155              -0.000088449               0.000651243               0.000562794               0.000000000               0.000000000               0.000000000               0.000000000               0.000367401               0.001986754              -0.000086109              -0.000110569               0.000699101               0.000588532               0.000000000               0.000000000               0.000000000               0.000000000               0.000358814               0.002115565              -0.000068544              -0.000129890               0.000748478               0.000618588               0.000000000               0.000000000               0.000000000               0.000000000               0.000359153               0.002246397              -0.000058995              -0.000146117               0.000797497               0.000651380               0.000000000               0.000000000               0.000000000               0.000000000               0.000371627               0.002375294              -0.000048658              -0.000157551               0.000844274               0.000686723               0.000000000               0.000000000               0.000000000               0.000000000               0.000400433               0.002505434              -0.000026102              -0.000163016               0.000889475               0.000726459               0.000000000               0.000000000               0.000000000               0.000000000               0.000421346               0.002571646              -0.000012036              -0.000163450               0.000911690               0.000748240               0.000000000               0.000000000               0.000000000               0.000000000               0.000241643               0.000062009              -0.000000000               0.000082864              -0.000006952               0.000075912               0.000000000               0.000000000               0.000000000               0.000000000               0.000512964               0.000228051               0.000000000               0.000163854               0.000021398               0.000185252               0.000000000               0.000000000               0.000000000               0.000000000               0.000674971               0.000476199               0.000000000               0.000193587               0.000094202               0.000287790               0.000000000               0.000000000               0.000000000               0.000000000               0.000698540               0.000730004              -0.000000000               0.000170700               0.000186432               0.000357132               0.000000000               0.000000000               0.000000000               0.000000000               0.000668440               0.000956279              -0.000000000               0.000131129               0.000275047               0.000406176               0.000000000               0.000000000               0.000000000               0.000000000               0.000614640               0.001148385              -0.000000000               0.000086941               0.000353811               0.000440752               0.000000000               0.000000000               0.000000000               0.000000000               0.000556470               0.001317625               0.000000000               0.000043973               0.000424546               0.000468519               0.000000000               0.000000000               0.000000000               0.000000000               0.000503075               0.001466124              -0.000000000               0.000005387               0.000486907               0.000492295               0.000000000               0.000000000               0.000000000               0.000000000               0.000461837               0.001596646              -0.000000000              -0.000026392               0.000541007               0.000514616               0.000000000               0.000000000               0.000000000               0.000000000               0.000431224               0.001722753              -0.000000000              -0.000053635               0.000592123               0.000538489               0.000000000               0.000000000               0.000000000               0.000000000               0.000400751               0.001844930              -0.000000000              -0.000080334               0.000641749               0.000561414               0.000000000               0.000000000               0.000000000               0.000000000               0.000372824               0.001964658              -0.000000000              -0.000105773               0.000690137               0.000584364               0.000000000               0.000000000               0.000000000               0.000000000               0.000368120               0.002094164               0.000000000              -0.000123725               0.000739289               0.000615564               0.000000000               0.000000000               0.000000000               0.000000000               0.000381864               0.002236549              -0.000000000              -0.000136369               0.000790965               0.000654596               0.000000000               0.000000000               0.000000000               0.000000000               0.000398599               0.002380217              -0.000000000              -0.000148052               0.000842749               0.000694696               0.000000000               0.000000000               0.000000000               0.000000000               0.000431507               0.002514741              -0.000000000              -0.000152527               0.000889081               0.000736554               0.000000000               0.000000000               0.000000000               0.000000000               0.000460612               0.002580360              -0.000000000              -0.000149815               0.000910050               0.000760234               0.000000000               0.000000000               0.000000000               0.000000000               0.000000000               0.000000000               0.000000000               0.000000000               0.000000000               0.000000000               0.000000000               0.000000000               0.000000000               0.000000000               0.000000000               0.000000000               0.000000000               0.000000000               0.000000000               0.000000000               0.000000000               0.000000000               0.000000000               0.000000000               0.000000000               0.000000000               0.000000000               0.000000000               0.000000000               0.000000000               0.000000000               0.000000000               0.000000000               0.000000000               0.000000000               0.000000000               0.000000000               0.000000000               0.000000000               0.000000000               0.000000000               0.000000000               0.000000000               0.000000000               0.000000000               0.000000000               0.000000000               0.000000000               0.000000000               0.000000000               0.000000000               0.000000000               0.000000000               0.000000000               0.000000000               0.000000000               0.000000000               0.000000000               0.000000000               0.000000000               0.000000000               0.000000000               0.000000000               0.000000000               0.000000000               0.000000000               0.000000000               0.000000000               0.000000000               0.000000000               0.000000000               0.000000000               0.000000000               0.000000000               0.000000000               0.000000000               0.000000000               0.000000000               0.000000000               0.000000000               0.000000000               0.000000000               0.000000000               0.000000000               0.000000000               0.000000000               0.000000000               0.000000000               0.000000000               0.000000000               0.000000000               0.000000000               0.000000000               0.000000000               0.000000000               0.000000000               0.000000000               0.000000000               0.000000000               0.000000000               0.000000000               0.000000000               0.000000000               0.000000000               0.000000000               0.000000000               0.000000000               0.000000000               0.000000000               0.000000000               0.000000000               0.000000000               0.000000000               0.000000000               0.000000000               0.000000000               0.000000000               0.000000000               0.000000000               0.000000000               0.000000000               0.000000000               0.000000000               0.000000000               0.000000000               0.000000000               0.000000000               0.000000000               0.000000000               0.000000000               0.000000000               0.000000000               0.000000000               0.000000000               0.000000000               0.000000000               0.000000000               0.000000000               0.000000000               0.000000000               0.000000000               0.000000000               0.000000000               0.000000000               0.000000000               0.000000000               0.000000000               0.000000000               0.000000000               0.000000000               0.000000000               0.000000000               0.000000000               0.000000000               0.000000000               0.000000000               0.000000000               0.000000000               0.000000000               0.000000000               0.000000000               0.000000000               0.000000000               0.000000000               0.000000000               0.000000000               0.000000000               0.000000000               0.000000000               0.000000000               0.000000000               0.000000000               0.000000000               0.000000000               0.000392450               0.004159082               0.000330637              -0.000372716               0.001510585               0.001137870               0.000000000               0.000000000               0.000000000               0.000000000               0.000430877               0.003479706               0.000221367              -0.000273384               0.001251018               0.000977634               0.000000000               0.000000000               0.000000000               0.000000000               0.000593276               0.002936148               0.000106929              -0.000144540               0.001026886               0.000882347               0.000000000               0.000000000               0.000000000               0.000000000               0.000624566               0.002636989               0.000051470              -0.000095411               0.000910791               0.000815380               0.000000000               0.000000000               0.000000000               0.000000000               0.000604786               0.002464433               0.000023712              -0.000081259               0.000848556               0.000767297               0.000000000               0.000000000               0.000000000               0.000000000               0.000561422               0.002363411               0.000010122              -0.000084893               0.000816093               0.000731200               0.000000000               0.000000000               0.000000000               0.000000000               0.000506354               0.002304561               0.000003009              -0.000098187               0.000800908               0.000702721               0.000000000               0.000000000               0.000000000               0.000000000               0.000447555               0.002271143               0.000000409              -0.000116059               0.000795727               0.000679667               0.000000000               0.000000000               0.000000000               0.000000000               0.000386541               0.002255462               0.000000404              -0.000136979               0.000797473               0.000660494               0.000000000               0.000000000               0.000000000               0.000000000               0.000325584               0.002250008               0.000001141              -0.000159156               0.000803047               0.000643891               0.000000000               0.000000000               0.000000000               0.000000000               0.000266777               0.002252941               0.000000957              -0.000181576               0.000811498               0.000629922               0.000000000               0.000000000               0.000000000               0.000000000               0.000211037               0.002263464               0.000000217              -0.000203793               0.000822412               0.000618618               0.000000000               0.000000000               0.000000000               0.000000000               0.000159191               0.002283083              -0.000002523              -0.000225688               0.000836249               0.000610561               0.000000000               0.000000000               0.000000000               0.000000000               0.000110971               0.002310030              -0.000005019              -0.000247139               0.000852382               0.000605243               0.000000000               0.000000000               0.000000000               0.000000000               0.000067928               0.002339604              -0.000002099              -0.000266977               0.000868852               0.000601876               0.000000000               0.000000000               0.000000000               0.000000000               0.000030861               0.002367753               0.000000458              -0.000284396               0.000884042               0.000599646               0.000000000               0.000000000               0.000000000               0.000000000               0.000017029               0.002389606               0.000001219              -0.000292314               0.000893965               0.000601651               0.000000000               0.000000000               0.000000000               0.000000000               0.000466882               0.003975204               0.000628133              -0.000321819               0.001432328               0.001110508               0.000000000               0.000000000               0.000000000               0.000000000               0.000461281               0.003346797               0.000421082              -0.000245369               0.001197377               0.000952008               0.000000000               0.000000000               0.000000000               0.000000000               0.000575975               0.002862158               0.000205319              -0.000141779               0.001001303               0.000859524               0.000000000               0.000000000               0.000000000               0.000000000               0.000584796               0.002596538               0.000103031              -0.000105269               0.000900594               0.000795325               0.000000000               0.000000000               0.000000000               0.000000000               0.000555308               0.002442438               0.000052602              -0.000097064               0.000846493               0.000749428               0.000000000               0.000000000               0.000000000               0.000000000               0.000510365               0.002351542               0.000027098              -0.000102556               0.000818025               0.000715469               0.000000000               0.000000000               0.000000000               0.000000000               0.000457572               0.002297820               0.000015154              -0.000115638               0.000804478               0.000688840               0.000000000               0.000000000               0.000000000               0.000000000               0.000403303               0.002268045               0.000010027              -0.000132267               0.000800096               0.000667830               0.000000000               0.000000000               0.000000000               0.000000000               0.000347778               0.002253294               0.000008635              -0.000151244               0.000801505               0.000650261               0.000000000               0.000000000               0.000000000               0.000000000               0.000292629               0.002248058               0.000009418              -0.000171271               0.000806435               0.000635164               0.000000000               0.000000000               0.000000000               0.000000000               0.000238086               0.002251702               0.000009343              -0.000192180               0.000814620               0.000622440               0.000000000               0.000000000               0.000000000               0.000000000               0.000186329               0.002263683               0.000006862              -0.000213087               0.000825582               0.000612496               0.000000000               0.000000000               0.000000000               0.000000000               0.000139968               0.002283028               0.000001337              -0.000232890               0.000838632               0.000605742               0.000000000               0.000000000               0.000000000               0.000000000               0.000096235               0.002305305              -0.000001813              -0.000252074               0.000852452               0.000600378               0.000000000               0.000000000               0.000000000               0.000000000               0.000058256               0.002327717               0.000003212              -0.000269118               0.000865604               0.000596486               0.000000000               0.000000000               0.000000000               0.000000000               0.000027511               0.002349583               0.000006444              -0.000283380               0.000877647               0.000594266               0.000000000               0.000000000               0.000000000               0.000000000               0.000016364               0.002367364               0.000006192              -0.000289783               0.000885708               0.000595925               0.000000000               0.000000000               0.000000000               0.000000000               0.000568473               0.003686157               0.000868132              -0.000247592               0.001311237               0.001063645               0.000000000               0.000000000               0.000000000               0.000000000               0.000498010               0.003138742               0.000582933              -0.000205589               0.001114766               0.000909177               0.000000000               0.000000000               0.000000000               0.000000000               0.000543098               0.002746850               0.000288966              -0.000139694               0.000962172               0.000822478               0.000000000               0.000000000               0.000000000               0.000000000               0.000522102               0.002531875               0.000154576              -0.000120696               0.000884182               0.000763486               0.000000000               0.000000000               0.000000000               0.000000000               0.000483747               0.002407611               0.000089833              -0.000119546               0.000842377               0.000722832               0.000000000               0.000000000               0.000000000               0.000000000               0.000439987               0.002332781               0.000057272              -0.000126602               0.000819787               0.000693184               0.000000000               0.000000000               0.000000000               0.000000000               0.000392435               0.002288098               0.000040759              -0.000138849               0.000808975               0.000670126               0.000000000               0.000000000               0.000000000               0.000000000               0.000346160               0.002263366               0.000032948              -0.000153110               0.000805485               0.000652374               0.000000000               0.000000000               0.000000000               0.000000000               0.000298692               0.002248975               0.000029925              -0.000169112               0.000806022               0.000636910               0.000000000               0.000000000               0.000000000               0.000000000               0.000249825               0.002244126               0.000028020              -0.000186831               0.000810311               0.000623480               0.000000000               0.000000000               0.000000000               0.000000000               0.000201911               0.002248952               0.000024054              -0.000205402               0.000818111               0.000612709               0.000000000               0.000000000               0.000000000               0.000000000               0.000154847               0.002261117               0.000018486              -0.000224572               0.000828555               0.000603984               0.000000000               0.000000000               0.000000000               0.000000000               0.000113109               0.002277410               0.000011902              -0.000242260               0.000839882               0.000597623               0.000000000               0.000000000               0.000000000               0.000000000               0.000079592               0.002293413               0.000008421              -0.000256829               0.000850073               0.000593244               0.000000000               0.000000000               0.000000000               0.000000000               0.000051833               0.002307638               0.000013208              -0.000269017               0.000858877               0.000589860               0.000000000               0.000000000               0.000000000               0.000000000               0.000026303               0.002321888               0.000014446              -0.000280371               0.000867412               0.000587040               0.000000000               0.000000000               0.000000000               0.000000000               0.000015811               0.002333622               0.000012701              -0.000285773               0.000873124               0.000587351               0.000000000               0.000000000               0.000000000               0.000000000               0.000675130               0.003319485               0.001035111              -0.000161763               0.001160404               0.000998642               0.000000000               0.000000000               0.000000000               0.000000000               0.000530797               0.002883817               0.000699226              -0.000161429               0.001015072               0.000853644               0.000000000               0.000000000               0.000000000               0.000000000               0.000497834               0.002613422               0.000358238              -0.000139990               0.000917795               0.000777806               0.000000000               0.000000000               0.000000000               0.000000000               0.000449824               0.002460056               0.000207902              -0.000138823               0.000866285               0.000727462               0.000000000               0.000000000               0.000000000               0.000000000               0.000404919               0.002367409               0.000136061              -0.000144081               0.000837156               0.000693074               0.000000000               0.000000000               0.000000000               0.000000000               0.000363947               0.002309430               0.000099321              -0.000152198               0.000820535               0.000668337               0.000000000               0.000000000               0.000000000               0.000000000               0.000325610               0.002274271               0.000078957              -0.000162180               0.000812142               0.000649963               0.000000000               0.000000000               0.000000000               0.000000000               0.000288662               0.002250965               0.000066596              -0.000173122               0.000808021               0.000634900               0.000000000               0.000000000               0.000000000               0.000000000               0.000249228               0.002238460               0.000058882              -0.000186347               0.000808262               0.000621915               0.000000000               0.000000000               0.000000000               0.000000000               0.000208029               0.002235123               0.000051039              -0.000201379               0.000812160               0.000610781               0.000000000               0.000000000               0.000000000               0.000000000               0.000167771               0.002242688               0.000041486              -0.000217421               0.000820029               0.000602608               0.000000000               0.000000000               0.000000000               0.000000000               0.000127016               0.002255169               0.000030795              -0.000234264               0.000829804               0.000595539               0.000000000               0.000000000               0.000000000               0.000000000               0.000092919               0.002269917               0.000022655              -0.000248895               0.000839596               0.000590702               0.000000000               0.000000000               0.000000000               0.000000000               0.000068624               0.002279126               0.000018965              -0.000259156               0.000846087               0.000586930               0.000000000               0.000000000               0.000000000               0.000000000               0.000048117               0.002286990               0.000020570              -0.000267829               0.000851599               0.000583769               0.000000000               0.000000000               0.000000000               0.000000000               0.000025445               0.002295191               0.000018608              -0.000277356               0.000857508               0.000580152               0.000000000               0.000000000               0.000000000               0.000000000               0.000015078               0.002301952               0.000015343              -0.000282089               0.000861339               0.000579250               0.000000000               0.000000000               0.000000000               0.000000000               0.000765933               0.002913445               0.001123088              -0.000076957               0.000996791               0.000919834               0.000000000               0.000000000               0.000000000               0.000000000               0.000553153               0.002613376               0.000771406              -0.000119240               0.000910863               0.000791623               0.000000000               0.000000000               0.000000000               0.000000000               0.000445472               0.002476344               0.000416677              -0.000142491               0.000872937               0.000730446               0.000000000               0.000000000               0.000000000               0.000000000               0.000376519               0.002382867               0.000263391              -0.000156663               0.000846502               0.000689839               0.000000000               0.000000000               0.000000000               0.000000000               0.000328355               0.002318022               0.000189223              -0.000166619               0.000828206               0.000661587               0.000000000               0.000000000               0.000000000               0.000000000               0.000294382               0.002276745               0.000147914              -0.000174200               0.000816974               0.000642774               0.000000000               0.000000000               0.000000000               0.000000000               0.000266434               0.002249977               0.000121092              -0.000181334               0.000810430               0.000629096               0.000000000               0.000000000               0.000000000               0.000000000               0.000238862               0.002233042               0.000102507              -0.000189557               0.000807526               0.000617969               0.000000000               0.000000000               0.000000000               0.000000000               0.000207487               0.002225605               0.000087364              -0.000200393               0.000808659               0.000608266               0.000000000               0.000000000               0.000000000               0.000000000               0.000173181               0.002228953               0.000071618              -0.000213676               0.000814202               0.000600527               0.000000000               0.000000000               0.000000000               0.000000000               0.000140014               0.002240593               0.000053436              -0.000227568               0.000822713               0.000595145               0.000000000               0.000000000               0.000000000               0.000000000               0.000108143               0.002256722               0.000037116              -0.000241536               0.000832745               0.000591209               0.000000000               0.000000000               0.000000000               0.000000000               0.000081864               0.002268183               0.000029063              -0.000252823               0.000840328               0.000587505               0.000000000               0.000000000               0.000000000               0.000000000               0.000063559               0.002272425               0.000025751              -0.000260218               0.000844207               0.000583989               0.000000000               0.000000000               0.000000000               0.000000000               0.000045057               0.002274258               0.000022265              -0.000267385               0.000847207               0.000579822               0.000000000               0.000000000               0.000000000               0.000000000               0.000024003               0.002278316               0.000016446              -0.000275788               0.000851361               0.000575573               0.000000000               0.000000000               0.000000000               0.000000000               0.000015113               0.002284088               0.000012718              -0.000279843               0.000854636               0.000574793               0.000000000               0.000000000               0.000000000               0.000000000               0.000825746               0.002497508               0.001140208              -0.000002535               0.000833339               0.000830804               0.000000000               0.000000000               0.000000000               0.000000000               0.000560957               0.002341767               0.000806498              -0.000082363               0.000808035               0.000725672               0.000000000               0.000000000               0.000000000               0.000000000               0.000391126               0.002335112               0.000465916              -0.000145217               0.000826768               0.000681552               0.000000000               0.000000000               0.000000000               0.000000000               0.000309934               0.002296985               0.000317973              -0.000170898               0.000822620               0.000651722               0.000000000               0.000000000               0.000000000               0.000000000               0.000264228               0.002261622               0.000241726              -0.000183617               0.000815072               0.000631455               0.000000000               0.000000000               0.000000000               0.000000000               0.000239254               0.002239717               0.000193848              -0.000190244               0.000809980               0.000619736               0.000000000               0.000000000               0.000000000               0.000000000               0.000220377               0.002224577               0.000159793              -0.000195430               0.000806662               0.000611231               0.000000000               0.000000000               0.000000000               0.000000000               0.000200432               0.002219557               0.000133959              -0.000202282               0.000807272               0.000604990               0.000000000               0.000000000               0.000000000               0.000000000               0.000177701               0.002224308               0.000109664              -0.000211400               0.000811895               0.000600495               0.000000000               0.000000000               0.000000000               0.000000000               0.000150333               0.002237121               0.000085197              -0.000223265               0.000820121               0.000596856               0.000000000               0.000000000               0.000000000               0.000000000               0.000122732               0.002251845               0.000059523              -0.000235455               0.000829093               0.000593637               0.000000000               0.000000000               0.000000000               0.000000000               0.000098085               0.002264639               0.000039080              -0.000246297               0.000836971               0.000590674               0.000000000               0.000000000               0.000000000               0.000000000               0.000077194               0.002268928               0.000031320              -0.000254667               0.000841191               0.000586523               0.000000000               0.000000000               0.000000000               0.000000000               0.000060948               0.002271267               0.000027932              -0.000261052               0.000844099               0.000583047               0.000000000               0.000000000               0.000000000               0.000000000               0.000042675               0.002276600               0.000021961              -0.000268571               0.000848383               0.000579812               0.000000000               0.000000000               0.000000000               0.000000000               0.000021437               0.002288614               0.000013778              -0.000278037               0.000855543               0.000577506               0.000000000               0.000000000               0.000000000               0.000000000               0.000014493               0.002301952               0.000010740              -0.000282309               0.000861413               0.000579104               0.000000000               0.000000000               0.000000000               0.000000000               0.000855482               0.002091898               0.001096290               0.000059317               0.000677520               0.000736836               0.000000000               0.000000000               0.000000000               0.000000000               0.000556184               0.002079594               0.000809209              -0.000051381               0.000710318               0.000658937               0.000000000               0.000000000               0.000000000               0.000000000               0.000344231               0.002194208               0.000508257              -0.000145189               0.000779792               0.000634602               0.000000000               0.000000000               0.000000000               0.000000000               0.000261486               0.002207980               0.000368155              -0.000177940               0.000795299               0.000617359               0.000000000               0.000000000               0.000000000               0.000000000               0.000222223               0.002204833               0.000287802              -0.000192270               0.000799027               0.000606757               0.000000000               0.000000000               0.000000000               0.000000000               0.000203681               0.002202152               0.000232821              -0.000198888               0.000800339               0.000601451               0.000000000               0.000000000               0.000000000               0.000000000               0.000190356               0.002203894               0.000190576              -0.000204103               0.000802658               0.000598555               0.000000000               0.000000000               0.000000000               0.000000000               0.000174318               0.002214611               0.000154319              -0.000211457               0.000808682               0.000597225               0.000000000               0.000000000               0.000000000               0.000000000               0.000155738               0.002232837               0.000120943              -0.000220702               0.000817839               0.000597137               0.000000000               0.000000000               0.000000000               0.000000000               0.000131374               0.002251862               0.000090977              -0.000232217               0.000828019               0.000595802               0.000000000               0.000000000               0.000000000               0.000000000               0.000105440               0.002266822               0.000063505              -0.000243812               0.000836870               0.000593058               0.000000000               0.000000000               0.000000000               0.000000000               0.000086354               0.002274444               0.000041931              -0.000251922               0.000842115               0.000590192               0.000000000               0.000000000               0.000000000               0.000000000               0.000073702               0.002281301               0.000031630              -0.000257524               0.000846267               0.000588744               0.000000000               0.000000000               0.000000000               0.000000000               0.000060314               0.002298184               0.000024959              -0.000264655               0.000854272               0.000589617               0.000000000               0.000000000               0.000000000               0.000000000               0.000040503               0.002327093               0.000016927              -0.000275697               0.000867589               0.000591892               0.000000000               0.000000000               0.000000000               0.000000000               0.000020053               0.002365715               0.000008985              -0.000288194               0.000884629               0.000596435               0.000000000               0.000000000               0.000000000               0.000000000               0.000015091               0.002395933               0.000008249              -0.000293832               0.000896580               0.000602749               0.000000000               0.000000000               0.000000000               0.000000000               0.000866364               0.001726719               0.001008967               0.000109044               0.000539219               0.000648263               0.000000000               0.000000000               0.000000000               0.000000000               0.000558463               0.001840375               0.000795711              -0.000020624               0.000620327               0.000599702               0.000000000               0.000000000               0.000000000               0.000000000               0.000324991               0.002063914               0.000555879              -0.000136118               0.000733337               0.000597219               0.000000000               0.000000000               0.000000000               0.000000000               0.000243076               0.002129288               0.000420186              -0.000175007               0.000768091               0.000593084               0.000000000               0.000000000               0.000000000               0.000000000               0.000208183               0.002157611               0.000334331              -0.000191632               0.000783074               0.000591442               0.000000000               0.000000000               0.000000000               0.000000000               0.000191974               0.002174513               0.000271623              -0.000199824               0.000791438               0.000591615               0.000000000               0.000000000               0.000000000               0.000000000               0.000182447               0.002194243               0.000220026              -0.000205862               0.000800028               0.000594166               0.000000000               0.000000000               0.000000000               0.000000000               0.000169014               0.002218285               0.000173850              -0.000213905               0.000810722               0.000596818               0.000000000               0.000000000               0.000000000               0.000000000               0.000148015               0.002245206               0.000134817              -0.000225144               0.000823443               0.000598298               0.000000000               0.000000000               0.000000000               0.000000000               0.000122809               0.002269795               0.000103090              -0.000237671               0.000835814               0.000598144               0.000000000               0.000000000               0.000000000               0.000000000               0.000101339               0.002289053               0.000076231              -0.000248129               0.000845720               0.000597591               0.000000000               0.000000000               0.000000000               0.000000000               0.000088704               0.002302425               0.000052142              -0.000254538               0.000852313               0.000597775               0.000000000               0.000000000               0.000000000               0.000000000               0.000079805               0.002321337               0.000033519              -0.000260240               0.000860518               0.000600278               0.000000000               0.000000000               0.000000000               0.000000000               0.000069640               0.002359830               0.000021081              -0.000268863               0.000876223               0.000607360               0.000000000               0.000000000               0.000000000               0.000000000               0.000055455               0.002414298               0.000009267              -0.000280991               0.000898422               0.000617431               0.000000000               0.000000000               0.000000000               0.000000000               0.000040604               0.002480264               0.000000527              -0.000294806               0.000925015               0.000630209               0.000000000               0.000000000               0.000000000               0.000000000               0.000033055               0.002518954              -0.000001476              -0.000302473               0.000940467               0.000637994               0.000000000               0.000000000               0.000000000               0.000000000               0.000850233               0.001363083               0.000899433               0.000148450               0.000404873               0.000553322               0.000000000               0.000000000               0.000000000               0.000000000               0.000577105               0.001558079               0.000775918               0.000021653               0.000512136               0.000533790               0.000000000               0.000000000               0.000000000               0.000000000               0.000344324               0.001861363               0.000611591              -0.000103549               0.000654964               0.000551415               0.000000000               0.000000000               0.000000000               0.000000000               0.000257979               0.001987488               0.000484804              -0.000151694               0.000713054               0.000561360               0.000000000               0.000000000               0.000000000               0.000000000               0.000221580               0.002054803               0.000395068              -0.000173758               0.000742847               0.000569089               0.000000000               0.000000000               0.000000000               0.000000000               0.000202682               0.002095855               0.000325359              -0.000185976               0.000760603               0.000574627               0.000000000               0.000000000               0.000000000               0.000000000               0.000189971               0.002128530               0.000265107              -0.000194827               0.000774445               0.000579619               0.000000000               0.000000000               0.000000000               0.000000000               0.000176069               0.002163023               0.000211532              -0.000204352               0.000789118               0.000584766               0.000000000               0.000000000               0.000000000               0.000000000               0.000160249               0.002201606               0.000167626              -0.000215107               0.000805563               0.000590457               0.000000000               0.000000000               0.000000000               0.000000000               0.000136644               0.002237197               0.000132598              -0.000228408               0.000821861               0.000593453               0.000000000               0.000000000               0.000000000               0.000000000               0.000114080               0.002270818               0.000105378              -0.000241071               0.000837289               0.000596217               0.000000000               0.000000000               0.000000000               0.000000000               0.000100298               0.002299290               0.000079665              -0.000249799               0.000849689               0.000599890               0.000000000               0.000000000               0.000000000               0.000000000               0.000095280               0.002333861               0.000055665              -0.000256002               0.000863280               0.000607278               0.000000000               0.000000000               0.000000000               0.000000000               0.000091169               0.002380331               0.000036176              -0.000263352               0.000881220               0.000617868               0.000000000               0.000000000               0.000000000               0.000000000               0.000084685               0.002445837               0.000017491              -0.000273972               0.000906595               0.000632623               0.000000000               0.000000000               0.000000000               0.000000000               0.000078220               0.002534242               0.000003874              -0.000287447               0.000940555               0.000653108               0.000000000               0.000000000               0.000000000               0.000000000               0.000067459               0.002575427              -0.000002944              -0.000296630               0.000957344               0.000660713               0.000000000               0.000000000               0.000000000               0.000000000               0.000796672               0.001018970               0.000768415               0.000171379               0.000282527               0.000453905               0.000000000               0.000000000               0.000000000               0.000000000               0.000597908               0.001271720               0.000735258               0.000065249               0.000402153               0.000467401               0.000000000               0.000000000               0.000000000               0.000000000               0.000393633               0.001627797               0.000651465              -0.000055863               0.000561214               0.000505351               0.000000000               0.000000000               0.000000000               0.000000000               0.000306548               0.001812361               0.000546343              -0.000111590               0.000641311               0.000529721               0.000000000               0.000000000               0.000000000               0.000000000               0.000261173               0.001921131               0.000457830              -0.000142201               0.000687771               0.000545570               0.000000000               0.000000000               0.000000000               0.000000000               0.000236429               0.001988796               0.000384435              -0.000159938               0.000716238               0.000556300               0.000000000               0.000000000               0.000000000               0.000000000               0.000219752               0.002037606               0.000318645              -0.000172294               0.000736626               0.000564333               0.000000000               0.000000000               0.000000000               0.000000000               0.000206493               0.002085746               0.000260520              -0.000183283               0.000756336               0.000573053               0.000000000               0.000000000               0.000000000               0.000000000               0.000192298               0.002136050               0.000211420              -0.000194894               0.000776974               0.000582080               0.000000000               0.000000000               0.000000000               0.000000000               0.000173494               0.002186206               0.000170718              -0.000208215               0.000798133               0.000589918               0.000000000               0.000000000               0.000000000               0.000000000               0.000150749               0.002234096               0.000142197              -0.000222731               0.000818935               0.000596204               0.000000000               0.000000000               0.000000000               0.000000000               0.000132954               0.002274995               0.000117639              -0.000234516               0.000836496               0.000601980               0.000000000               0.000000000               0.000000000               0.000000000               0.000125572               0.002318882               0.000090699              -0.000242770               0.000853877               0.000611106               0.000000000               0.000000000               0.000000000               0.000000000               0.000121045               0.002372815               0.000061612              -0.000251209               0.000874667               0.000623458               0.000000000               0.000000000               0.000000000               0.000000000               0.000115233               0.002443632               0.000032806              -0.000262241               0.000901949               0.000639708               0.000000000               0.000000000               0.000000000               0.000000000               0.000110767               0.002533492               0.000011062              -0.000275148               0.000936205               0.000661057               0.000000000               0.000000000               0.000000000               0.000000000               0.000098976               0.002574768              -0.000000720              -0.000284729               0.000953157               0.000668428               0.000000000               0.000000000               0.000000000               0.000000000               0.000708830               0.000715789               0.000617934               0.000176335               0.000179815               0.000356150               0.000000000               0.000000000               0.000000000               0.000000000               0.000603344               0.000991878               0.000660945               0.000102268               0.000296533               0.000398801               0.000000000               0.000000000               0.000000000               0.000000000               0.000455819               0.001367868               0.000652573              -0.000000052               0.000455969               0.000455916               0.000000000               0.000000000               0.000000000               0.000000000               0.000379454               0.001598068               0.000576758              -0.000057464               0.000551839               0.000494375               0.000000000               0.000000000               0.000000000               0.000000000               0.000325695               0.001744442               0.000497956              -0.000095920               0.000613448               0.000517528               0.000000000               0.000000000               0.000000000               0.000000000               0.000290631               0.001842495               0.000426377              -0.000121325               0.000654601               0.000533275               0.000000000               0.000000000               0.000000000               0.000000000               0.000266835               0.001913727               0.000361026              -0.000139153               0.000684287               0.000545134               0.000000000               0.000000000               0.000000000               0.000000000               0.000251804               0.001979271               0.000302101              -0.000152982               0.000710744               0.000557762               0.000000000               0.000000000               0.000000000               0.000000000               0.000236041               0.002045686               0.000249121              -0.000167195               0.000737620               0.000570425               0.000000000               0.000000000               0.000000000               0.000000000               0.000220003               0.002113320               0.000205632              -0.000181664               0.000764988               0.000583324               0.000000000               0.000000000               0.000000000               0.000000000               0.000200512               0.002178680               0.000175400              -0.000197143               0.000791933               0.000594791               0.000000000               0.000000000               0.000000000               0.000000000               0.000179307               0.002235875               0.000152129              -0.000212244               0.000816032               0.000603788               0.000000000               0.000000000               0.000000000               0.000000000               0.000163235               0.002291104               0.000124090              -0.000225174               0.000838752               0.000613577               0.000000000               0.000000000               0.000000000               0.000000000               0.000153976               0.002354876               0.000088209              -0.000236618               0.000863823               0.000627206               0.000000000               0.000000000               0.000000000               0.000000000               0.000147681               0.002431585               0.000051955              -0.000248567               0.000893376               0.000644809               0.000000000               0.000000000               0.000000000               0.000000000               0.000141600               0.002526231               0.000022628              -0.000262678               0.000929628               0.000666950               0.000000000               0.000000000               0.000000000               0.000000000               0.000127575               0.002570620               0.000005749              -0.000273486               0.000948027               0.000674540               0.000000000               0.000000000               0.000000000               0.000000000               0.000594069               0.000467237               0.000463611               0.000164369               0.000100954               0.000265323               0.000000000               0.000000000               0.000000000               0.000000000               0.000595318               0.000736574               0.000557153               0.000131171               0.000201798               0.000332969               0.000000000               0.000000000               0.000000000               0.000000000               0.000522539               0.001102814               0.000606766               0.000058099               0.000348234               0.000406333               0.000000000               0.000000000               0.000000000               0.000000000               0.000463844               0.001359071               0.000562311               0.000004057               0.000451667               0.000455723               0.000000000               0.000000000               0.000000000               0.000000000               0.000410910               0.001538719               0.000500131              -0.000038249               0.000525651               0.000487402               0.000000000               0.000000000               0.000000000               0.000000000               0.000364249               0.001668018               0.000437467              -0.000071909               0.000579970               0.000508061               0.000000000               0.000000000               0.000000000               0.000000000               0.000330022               0.001767182               0.000377726              -0.000097140               0.000621434               0.000524295               0.000000000               0.000000000               0.000000000               0.000000000               0.000303906               0.001852555               0.000321858              -0.000117604               0.000656714               0.000539109               0.000000000               0.000000000               0.000000000               0.000000000               0.000283752               0.001937543               0.000271019              -0.000135785               0.000691103               0.000555317               0.000000000               0.000000000               0.000000000               0.000000000               0.000267460               0.002023887               0.000228728              -0.000152688               0.000725518               0.000572830               0.000000000               0.000000000               0.000000000               0.000000000               0.000252103               0.002109165               0.000197959              -0.000169107               0.000759417               0.000590310               0.000000000               0.000000000               0.000000000               0.000000000               0.000231747               0.002187474               0.000173991              -0.000186529               0.000791327               0.000604798               0.000000000               0.000000000               0.000000000               0.000000000               0.000211607               0.002255471               0.000148219              -0.000202581               0.000819343               0.000616762               0.000000000               0.000000000               0.000000000               0.000000000               0.000198183               0.002324893               0.000114734              -0.000216292               0.000847054               0.000630762               0.000000000               0.000000000               0.000000000               0.000000000               0.000192213               0.002412555               0.000073963              -0.000229489               0.000880673               0.000651184               0.000000000               0.000000000               0.000000000               0.000000000               0.000184764               0.002517768               0.000034154              -0.000245434               0.000921059               0.000675625               0.000000000               0.000000000               0.000000000               0.000000000               0.000168304               0.002565681               0.000012309              -0.000257596               0.000941084               0.000683488               0.000000000               0.000000000               0.000000000               0.000000000               0.000465030               0.000279198               0.000320664               0.000139485               0.000046570               0.000186055               0.000000000               0.000000000               0.000000000               0.000000000               0.000572910               0.000522672               0.000432465               0.000149506               0.000124387               0.000273892               0.000000000               0.000000000               0.000000000               0.000000000               0.000583749               0.000856341               0.000510734               0.000111862               0.000248157               0.000360019               0.000000000               0.000000000               0.000000000               0.000000000               0.000549653               0.001121377               0.000493888               0.000065947               0.000351806               0.000417753               0.000000000               0.000000000               0.000000000               0.000000000               0.000502102               0.001326201               0.000450941               0.000022512               0.000434558               0.000457071               0.000000000               0.000000000               0.000000000               0.000000000               0.000450271               0.001482857               0.000402402              -0.000016506               0.000499783               0.000483277               0.000000000               0.000000000               0.000000000               0.000000000               0.000404657               0.001610168               0.000352969              -0.000049525               0.000553225               0.000503701               0.000000000               0.000000000               0.000000000               0.000000000               0.000367805               0.001720585               0.000304472              -0.000077146               0.000599238               0.000522092               0.000000000               0.000000000               0.000000000               0.000000000               0.000337627               0.001820780               0.000261392              -0.000100987               0.000640583               0.000539596               0.000000000               0.000000000               0.000000000               0.000000000               0.000316174               0.001919994               0.000226609              -0.000121434               0.000680470               0.000559036               0.000000000               0.000000000               0.000000000               0.000000000               0.000302969               0.002022007               0.000198623              -0.000139137               0.000720375               0.000581237               0.000000000               0.000000000               0.000000000               0.000000000               0.000288606               0.002121744               0.000175130              -0.000156990               0.000759571               0.000602581               0.000000000               0.000000000               0.000000000               0.000000000               0.000271278               0.002210643               0.000153441              -0.000174601               0.000795074               0.000620473               0.000000000               0.000000000               0.000000000               0.000000000               0.000255982               0.002294210               0.000124585              -0.000190782               0.000828323               0.000637541               0.000000000               0.000000000               0.000000000               0.000000000               0.000248564               0.002391409               0.000085264              -0.000205714               0.000865700               0.000659986               0.000000000               0.000000000               0.000000000               0.000000000               0.000247803               0.002506409               0.000042024              -0.000220375               0.000908919               0.000688545               0.000000000               0.000000000               0.000000000               0.000000000               0.000238064               0.002561522               0.000018372              -0.000230916               0.000930804               0.000699888               0.000000000               0.000000000               0.000000000               0.000000000               0.000348463               0.000153399               0.000196188               0.000111498               0.000013966               0.000125464               0.000000000               0.000000000               0.000000000               0.000000000               0.000543868               0.000361230               0.000293621               0.000158795               0.000067477               0.000226272               0.000000000               0.000000000               0.000000000               0.000000000               0.000632062               0.000654532               0.000369809               0.000155205               0.000166440               0.000321645               0.000000000               0.000000000               0.000000000               0.000000000               0.000627352               0.000918703               0.000369708               0.000120418               0.000266092               0.000386510               0.000000000               0.000000000               0.000000000               0.000000000               0.000585414               0.001136319               0.000344632               0.000077490               0.000352939               0.000430429               0.000000000               0.000000000               0.000000000               0.000000000               0.000531853               0.001313050               0.000312236               0.000035313               0.000425908               0.000461221               0.000000000               0.000000000               0.000000000               0.000000000               0.000478680               0.001463386               0.000277202              -0.000003419               0.000488930               0.000485511               0.000000000               0.000000000               0.000000000               0.000000000               0.000434786               0.001594976               0.000240451              -0.000036328               0.000543763               0.000507435               0.000000000               0.000000000               0.000000000               0.000000000               0.000397448               0.001710322               0.000207976              -0.000064747               0.000591684               0.000526937               0.000000000               0.000000000               0.000000000               0.000000000               0.000368313               0.001819682               0.000185426              -0.000089343               0.000636335               0.000546993               0.000000000               0.000000000               0.000000000               0.000000000               0.000349665               0.001930521               0.000166920              -0.000110190               0.000680231               0.000570040               0.000000000               0.000000000               0.000000000               0.000000000               0.000339760               0.002046153               0.000146955              -0.000128359               0.000724831               0.000596472               0.000000000               0.000000000               0.000000000               0.000000000               0.000324956               0.002159849               0.000126350              -0.000148122               0.000769316               0.000621194               0.000000000               0.000000000               0.000000000               0.000000000               0.000310807               0.002267465               0.000104771              -0.000166880               0.000811441               0.000644561               0.000000000               0.000000000               0.000000000               0.000000000               0.000312187               0.002376497               0.000077113              -0.000179991               0.000852155               0.000672163               0.000000000               0.000000000               0.000000000               0.000000000               0.000327370               0.002498935               0.000041024              -0.000189603               0.000896171               0.000706568               0.000000000               0.000000000               0.000000000               0.000000000               0.000332042               0.002561918               0.000020059              -0.000195723               0.000919205               0.000723482               0.000000000               0.000000000               0.000000000               0.000000000               0.000269721               0.000083954               0.000092903               0.000090650              -0.000002233               0.000088418               0.000000000               0.000000000               0.000000000               0.000000000               0.000521600               0.000262248               0.000148532               0.000162817               0.000033143               0.000195960               0.000000000               0.000000000               0.000000000               0.000000000               0.000664047               0.000523191               0.000194587               0.000183617               0.000113190               0.000296807               0.000000000               0.000000000               0.000000000               0.000000000               0.000680498               0.000779836               0.000198338               0.000157706               0.000207374               0.000365080               0.000000000               0.000000000               0.000000000               0.000000000               0.000646366               0.001003987               0.000187043               0.000116888               0.000295697               0.000412584               0.000000000               0.000000000               0.000000000               0.000000000               0.000591863               0.001192304               0.000171259               0.000072910               0.000373127               0.000446037               0.000000000               0.000000000               0.000000000               0.000000000               0.000534477               0.001355041               0.000153592               0.000031048               0.000441326               0.000472375               0.000000000               0.000000000               0.000000000               0.000000000               0.000484391               0.001500252               0.000134171              -0.000005885               0.000502041               0.000496156               0.000000000               0.000000000               0.000000000               0.000000000               0.000445463               0.001630170               0.000115571              -0.000036723               0.000555625               0.000518903               0.000000000               0.000000000               0.000000000               0.000000000               0.000413398               0.001749584               0.000104043              -0.000063674               0.000604414               0.000540740               0.000000000               0.000000000               0.000000000               0.000000000               0.000385900               0.001865298               0.000098155              -0.000088449               0.000651243               0.000562794               0.000000000               0.000000000               0.000000000               0.000000000               0.000367401               0.001986754               0.000086109              -0.000110569               0.000699101               0.000588532               0.000000000               0.000000000               0.000000000               0.000000000               0.000358814               0.002115565               0.000068544              -0.000129890               0.000748478               0.000618588               0.000000000               0.000000000               0.000000000               0.000000000               0.000359153               0.002246397               0.000058995              -0.000146117               0.000797497               0.000651380               0.000000000               0.000000000               0.000000000               0.000000000               0.000371627               0.002375294               0.000048658              -0.000157551               0.000844274               0.000686723               0.000000000               0.000000000               0.000000000               0.000000000               0.000400433               0.002505434               0.000026102              -0.000163016               0.000889475               0.000726459               0.000000000               0.000000000               0.000000000               0.000000000               0.000421346               0.002571646               0.000012036              -0.000163450               0.000911690               0.000748240               0.000000000               0.000000000               0.000000000               0.000000000               0.000241643               0.000062009              -0.000000000               0.000082864              -0.000006952               0.000075912               0.000000000               0.000000000               0.000000000               0.000000000               0.000512964               0.000228051               0.000000000               0.000163854               0.000021398               0.000185252               0.000000000               0.000000000               0.000000000               0.000000000               0.000674971               0.000476199               0.000000000               0.000193587               0.000094202               0.000287790               0.000000000               0.000000000               0.000000000               0.000000000               0.000698540               0.000730004              -0.000000000               0.000170700               0.000186432               0.000357132               0.000000000               0.000000000               0.000000000               0.000000000               0.000668440               0.000956279              -0.000000000               0.000131129               0.000275047               0.000406176               0.000000000               0.000000000               0.000000000               0.000000000               0.000614640               0.001148385              -0.000000000               0.000086941               0.000353811               0.000440752               0.000000000               0.000000000               0.000000000               0.000000000               0.000556470               0.001317625               0.000000000               0.000043973               0.000424546               0.000468519               0.000000000               0.000000000               0.000000000               0.000000000               0.000503075               0.001466124               0.000000000               0.000005387               0.000486907               0.000492295               0.000000000               0.000000000               0.000000000               0.000000000               0.000461837               0.001596646              -0.000000000              -0.000026392               0.000541007               0.000514616               0.000000000               0.000000000               0.000000000               0.000000000               0.000431224               0.001722753               0.000000000              -0.000053635               0.000592123               0.000538489               0.000000000               0.000000000               0.000000000               0.000000000               0.000400751               0.001844930              -0.000000000              -0.000080334               0.000641749               0.000561414               0.000000000               0.000000000               0.000000000               0.000000000               0.000372824               0.001964658              -0.000000000              -0.000105773               0.000690137               0.000584364               0.000000000               0.000000000               0.000000000               0.000000000               0.000368120               0.002094164               0.000000000              -0.000123725               0.000739289               0.000615564               0.000000000               0.000000000               0.000000000               0.000000000               0.000381864               0.002236549               0.000000000              -0.000136369               0.000790965               0.000654596               0.000000000               0.000000000               0.000000000               0.000000000               0.000398599               0.002380217              -0.000000000              -0.000148052               0.000842749               0.000694696               0.000000000               0.000000000               0.000000000               0.000000000               0.000431507               0.002514741              -0.000000000              -0.000152527               0.000889081               0.000736554               0.000000000               0.000000000               0.000000000               0.000000000               0.000460612               0.002580360              -0.000000000              -0.000149815               0.000910050               0.000760234               0.000000000               0.000000000               0.000000000               0.000000000               0.000364839               0.004222346               0.000000000              -0.000390978               0.001537760               0.001146783               0.000000000               0.000000000               0.000000000               0.000000000               0.000418305               0.003524990              -0.000000000              -0.000283758               0.001269571               0.000985813               0.000000000               0.000000000               0.000000000               0.000000000               0.000598081               0.002961013               0.000000000              -0.000145846               0.001035610               0.000889764               0.000000000               0.000000000               0.000000000               0.000000000               0.000638589               0.002649444               0.000000000              -0.000091709               0.000913709               0.000821999               0.000000000               0.000000000               0.000000000               0.000000000               0.000621771               0.002470416              -0.000000000              -0.000075638               0.000848676               0.000773039               0.000000000               0.000000000               0.000000000               0.000000000               0.000578883               0.002364614               0.000000000              -0.000078495               0.000814362               0.000735867               0.000000000               0.000000000               0.000000000               0.000000000               0.000523147               0.002302766              -0.000000000              -0.000091666               0.000798136               0.000706471               0.000000000               0.000000000               0.000000000               0.000000000               0.000464299               0.002271636              -0.000000000              -0.000109842               0.000793819               0.000683976               0.000000000               0.000000000               0.000000000               0.000000000               0.000401935               0.002254909              -0.000000000              -0.000131138               0.000795341               0.000664204               0.000000000               0.000000000               0.000000000               0.000000000               0.000336170               0.002249425              -0.000000000              -0.000155114               0.000801505               0.000646392               0.000000000               0.000000000               0.000000000               0.000000000               0.000274433               0.002251594               0.000000000              -0.000178536               0.000810036               0.000631500               0.000000000               0.000000000               0.000000000               0.000000000               0.000220460               0.002264038               0.000000000              -0.000200332               0.000821449               0.000621117               0.000000000               0.000000000               0.000000000               0.000000000               0.000167483               0.002282140               0.000000000              -0.000222461               0.000834859               0.000612399               0.000000000               0.000000000               0.000000000               0.000000000               0.000116969               0.002309914               0.000000000              -0.000244875               0.000851589               0.000606714               0.000000000               0.000000000               0.000000000               0.000000000               0.000071674               0.002341296               0.000000000              -0.000265784               0.000869019               0.000603235               0.000000000               0.000000000               0.000000000               0.000000000               0.000033338               0.002372446               0.000000000              -0.000284053               0.000885492               0.000601439               0.000000000               0.000000000               0.000000000               0.000000000               0.000018960               0.002395970               0.000000000              -0.000292385               0.000896110               0.000603725               0.000000000               0.000000000               0.000000000               0.000000000               0.000392450               0.004159082              -0.000330637              -0.000372716               0.001510585               0.001137870               0.000000000               0.000000000               0.000000000               0.000000000               0.000430877               0.003479706              -0.000221367              -0.000273384               0.001251018               0.000977634               0.000000000               0.000000000               0.000000000               0.000000000               0.000593276               0.002936148              -0.000106929              -0.000144540               0.001026886               0.000882347               0.000000000               0.000000000               0.000000000               0.000000000               0.000624566               0.002636989              -0.000051470              -0.000095411               0.000910791               0.000815380               0.000000000               0.000000000               0.000000000               0.000000000               0.000604786               0.002464433              -0.000023712              -0.000081259               0.000848556               0.000767297               0.000000000               0.000000000               0.000000000               0.000000000               0.000561422               0.002363411              -0.000010122              -0.000084893               0.000816093               0.000731200               0.000000000               0.000000000               0.000000000               0.000000000               0.000506354               0.002304561              -0.000003009              -0.000098187               0.000800908               0.000702721               0.000000000               0.000000000               0.000000000               0.000000000               0.000447555               0.002271143              -0.000000409              -0.000116059               0.000795727               0.000679667               0.000000000               0.000000000               0.000000000               0.000000000               0.000386541               0.002255462              -0.000000404              -0.000136979               0.000797473               0.000660494               0.000000000               0.000000000               0.000000000               0.000000000               0.000325584               0.002250008              -0.000001141              -0.000159156               0.000803047               0.000643891               0.000000000               0.000000000               0.000000000               0.000000000               0.000266777               0.002252941              -0.000000957              -0.000181576               0.000811498               0.000629922               0.000000000               0.000000000               0.000000000               0.000000000               0.000211037               0.002263464              -0.000000217              -0.000203793               0.000822412               0.000618618               0.000000000               0.000000000               0.000000000               0.000000000               0.000159191               0.002283083               0.000002523              -0.000225688               0.000836249               0.000610561               0.000000000               0.000000000               0.000000000               0.000000000               0.000110971               0.002310030               0.000005019              -0.000247139               0.000852382               0.000605243               0.000000000               0.000000000               0.000000000               0.000000000               0.000067928               0.002339604               0.000002099              -0.000266977               0.000868852               0.000601876               0.000000000               0.000000000               0.000000000               0.000000000               0.000030861               0.002367753              -0.000000458              -0.000284396               0.000884042               0.000599646               0.000000000               0.000000000               0.000000000               0.000000000               0.000017029               0.002389606              -0.000001219              -0.000292314               0.000893965               0.000601651               0.000000000               0.000000000               0.000000000               0.000000000               0.000466882               0.003975204              -0.000628133              -0.000321819               0.001432328               0.001110508               0.000000000               0.000000000               0.000000000               0.000000000               0.000461281               0.003346797              -0.000421082              -0.000245369               0.001197377               0.000952008               0.000000000               0.000000000               0.000000000               0.000000000               0.000575975               0.002862158              -0.000205319              -0.000141779               0.001001303               0.000859524               0.000000000               0.000000000               0.000000000               0.000000000               0.000584796               0.002596538              -0.000103031              -0.000105269               0.000900594               0.000795325               0.000000000               0.000000000               0.000000000               0.000000000               0.000555308               0.002442438              -0.000052602              -0.000097064               0.000846493               0.000749428               0.000000000               0.000000000               0.000000000               0.000000000               0.000510365               0.002351542              -0.000027098              -0.000102556               0.000818025               0.000715469               0.000000000               0.000000000               0.000000000               0.000000000               0.000457572               0.002297820              -0.000015154              -0.000115638               0.000804478               0.000688840               0.000000000               0.000000000               0.000000000               0.000000000               0.000403303               0.002268045              -0.000010027              -0.000132267               0.000800096               0.000667830               0.000000000               0.000000000               0.000000000               0.000000000               0.000347778               0.002253294              -0.000008635              -0.000151244               0.000801505               0.000650261               0.000000000               0.000000000               0.000000000               0.000000000               0.000292629               0.002248058              -0.000009418              -0.000171271               0.000806435               0.000635164               0.000000000               0.000000000               0.000000000               0.000000000               0.000238086               0.002251702              -0.000009343              -0.000192180               0.000814620               0.000622440               0.000000000               0.000000000               0.000000000               0.000000000               0.000186329               0.002263683              -0.000006862              -0.000213087               0.000825582               0.000612496               0.000000000               0.000000000               0.000000000               0.000000000               0.000139968               0.002283028              -0.000001337              -0.000232890               0.000838632               0.000605742               0.000000000               0.000000000               0.000000000               0.000000000               0.000096235               0.002305305               0.000001813              -0.000252074               0.000852452               0.000600378               0.000000000               0.000000000               0.000000000               0.000000000               0.000058256               0.002327717              -0.000003212              -0.000269118               0.000865604               0.000596486               0.000000000               0.000000000               0.000000000               0.000000000               0.000027511               0.002349583              -0.000006444              -0.000283380               0.000877647               0.000594266               0.000000000               0.000000000               0.000000000               0.000000000               0.000016364               0.002367364              -0.000006192              -0.000289783               0.000885708               0.000595925               0.000000000               0.000000000               0.000000000               0.000000000               0.000568473               0.003686157              -0.000868132              -0.000247592               0.001311237               0.001063645               0.000000000               0.000000000               0.000000000               0.000000000               0.000498010               0.003138742              -0.000582933              -0.000205589               0.001114766               0.000909177               0.000000000               0.000000000               0.000000000               0.000000000               0.000543098               0.002746850              -0.000288966              -0.000139694               0.000962172               0.000822478               0.000000000               0.000000000               0.000000000               0.000000000               0.000522102               0.002531875              -0.000154576              -0.000120696               0.000884182               0.000763486               0.000000000               0.000000000               0.000000000               0.000000000               0.000483747               0.002407611              -0.000089833              -0.000119546               0.000842377               0.000722832               0.000000000               0.000000000               0.000000000               0.000000000               0.000439987               0.002332781              -0.000057272              -0.000126602               0.000819787               0.000693184               0.000000000               0.000000000               0.000000000               0.000000000               0.000392435               0.002288098              -0.000040759              -0.000138849               0.000808975               0.000670126               0.000000000               0.000000000               0.000000000               0.000000000               0.000346160               0.002263366              -0.000032948              -0.000153110               0.000805485               0.000652374               0.000000000               0.000000000               0.000000000               0.000000000               0.000298692               0.002248975              -0.000029925              -0.000169112               0.000806022               0.000636910               0.000000000               0.000000000               0.000000000               0.000000000               0.000249825               0.002244126              -0.000028020              -0.000186831               0.000810311               0.000623480               0.000000000               0.000000000               0.000000000               0.000000000               0.000201911               0.002248952              -0.000024054              -0.000205402               0.000818111               0.000612709               0.000000000               0.000000000               0.000000000               0.000000000               0.000154847               0.002261117              -0.000018486              -0.000224572               0.000828555               0.000603984               0.000000000               0.000000000               0.000000000               0.000000000               0.000113109               0.002277410              -0.000011902              -0.000242260               0.000839882               0.000597623               0.000000000               0.000000000               0.000000000               0.000000000               0.000079592               0.002293413              -0.000008421              -0.000256829               0.000850073               0.000593244               0.000000000               0.000000000               0.000000000               0.000000000               0.000051833               0.002307638              -0.000013208              -0.000269017               0.000858877               0.000589860               0.000000000               0.000000000               0.000000000               0.000000000               0.000026303               0.002321888              -0.000014446              -0.000280371               0.000867412               0.000587040               0.000000000               0.000000000               0.000000000               0.000000000               0.000015811               0.002333622              -0.000012701              -0.000285773               0.000873124               0.000587351               0.000000000               0.000000000               0.000000000               0.000000000               0.000675130               0.003319485              -0.001035111              -0.000161763               0.001160404               0.000998642               0.000000000               0.000000000               0.000000000               0.000000000               0.000530797               0.002883817              -0.000699226              -0.000161429               0.001015072               0.000853644               0.000000000               0.000000000               0.000000000               0.000000000               0.000497834               0.002613422              -0.000358238              -0.000139990               0.000917795               0.000777806               0.000000000               0.000000000               0.000000000               0.000000000               0.000449824               0.002460056              -0.000207902              -0.000138823               0.000866285               0.000727462               0.000000000               0.000000000               0.000000000               0.000000000               0.000404919               0.002367409              -0.000136061              -0.000144081               0.000837156               0.000693074               0.000000000               0.000000000               0.000000000               0.000000000               0.000363947               0.002309430              -0.000099321              -0.000152198               0.000820535               0.000668337               0.000000000               0.000000000               0.000000000               0.000000000               0.000325610               0.002274271              -0.000078957              -0.000162180               0.000812142               0.000649963               0.000000000               0.000000000               0.000000000               0.000000000               0.000288662               0.002250965              -0.000066596              -0.000173122               0.000808021               0.000634900               0.000000000               0.000000000               0.000000000               0.000000000               0.000249228               0.002238460              -0.000058882              -0.000186347               0.000808262               0.000621915               0.000000000               0.000000000               0.000000000               0.000000000               0.000208029               0.002235123              -0.000051039              -0.000201379               0.000812160               0.000610781               0.000000000               0.000000000               0.000000000               0.000000000               0.000167771               0.002242688              -0.000041486              -0.000217421               0.000820029               0.000602608               0.000000000               0.000000000               0.000000000               0.000000000               0.000127016               0.002255169              -0.000030795              -0.000234264               0.000829804               0.000595539               0.000000000               0.000000000               0.000000000               0.000000000               0.000092919               0.002269917              -0.000022655              -0.000248895               0.000839596               0.000590702               0.000000000               0.000000000               0.000000000               0.000000000               0.000068624               0.002279126              -0.000018965              -0.000259156               0.000846087               0.000586930               0.000000000               0.000000000               0.000000000               0.000000000               0.000048117               0.002286990              -0.000020570              -0.000267829               0.000851599               0.000583769               0.000000000               0.000000000               0.000000000               0.000000000               0.000025445               0.002295191              -0.000018608              -0.000277356               0.000857508               0.000580152               0.000000000               0.000000000               0.000000000               0.000000000               0.000015078               0.002301952              -0.000015343              -0.000282089               0.000861339               0.000579250               0.000000000               0.000000000               0.000000000               0.000000000               0.000765933               0.002913445              -0.001123088              -0.000076957               0.000996791               0.000919834               0.000000000               0.000000000               0.000000000               0.000000000               0.000553153               0.002613376              -0.000771406              -0.000119240               0.000910863               0.000791623               0.000000000               0.000000000               0.000000000               0.000000000               0.000445472               0.002476344              -0.000416677              -0.000142491               0.000872937               0.000730446               0.000000000               0.000000000               0.000000000               0.000000000               0.000376519               0.002382867              -0.000263391              -0.000156663               0.000846502               0.000689839               0.000000000               0.000000000               0.000000000               0.000000000               0.000328355               0.002318022              -0.000189223              -0.000166619               0.000828206               0.000661587               0.000000000               0.000000000               0.000000000               0.000000000               0.000294382               0.002276745              -0.000147914              -0.000174200               0.000816974               0.000642774               0.000000000               0.000000000               0.000000000               0.000000000               0.000266434               0.002249977              -0.000121092              -0.000181334               0.000810430               0.000629096               0.000000000               0.000000000               0.000000000               0.000000000               0.000238862               0.002233042              -0.000102507              -0.000189557               0.000807526               0.000617969               0.000000000               0.000000000               0.000000000               0.000000000               0.000207487               0.002225605              -0.000087364              -0.000200393               0.000808659               0.000608266               0.000000000               0.000000000               0.000000000               0.000000000               0.000173181               0.002228953              -0.000071618              -0.000213676               0.000814202               0.000600527               0.000000000               0.000000000               0.000000000               0.000000000               0.000140014               0.002240593              -0.000053436              -0.000227568               0.000822713               0.000595145               0.000000000               0.000000000               0.000000000               0.000000000               0.000108143               0.002256722              -0.000037116              -0.000241536               0.000832745               0.000591209               0.000000000               0.000000000               0.000000000               0.000000000               0.000081864               0.002268183              -0.000029063              -0.000252823               0.000840328               0.000587505               0.000000000               0.000000000               0.000000000               0.000000000               0.000063559               0.002272425              -0.000025751              -0.000260218               0.000844207               0.000583989               0.000000000               0.000000000               0.000000000               0.000000000               0.000045057               0.002274258              -0.000022265              -0.000267385               0.000847207               0.000579822               0.000000000               0.000000000               0.000000000               0.000000000               0.000024003               0.002278316              -0.000016446              -0.000275788               0.000851361               0.000575573               0.000000000               0.000000000               0.000000000               0.000000000               0.000015113               0.002284088              -0.000012718              -0.000279843               0.000854636               0.000574793               0.000000000               0.000000000               0.000000000               0.000000000               0.000825746               0.002497508              -0.001140208              -0.000002535               0.000833339               0.000830804               0.000000000               0.000000000               0.000000000               0.000000000               0.000560957               0.002341767              -0.000806498              -0.000082363               0.000808035               0.000725672               0.000000000               0.000000000               0.000000000               0.000000000               0.000391126               0.002335112              -0.000465916              -0.000145217               0.000826768               0.000681552               0.000000000               0.000000000               0.000000000               0.000000000               0.000309934               0.002296985              -0.000317973              -0.000170898               0.000822620               0.000651722               0.000000000               0.000000000               0.000000000               0.000000000               0.000264228               0.002261622              -0.000241726              -0.000183617               0.000815072               0.000631455               0.000000000               0.000000000               0.000000000               0.000000000               0.000239254               0.002239717              -0.000193848              -0.000190244               0.000809980               0.000619736               0.000000000               0.000000000               0.000000000               0.000000000               0.000220377               0.002224577              -0.000159793              -0.000195430               0.000806662               0.000611231               0.000000000               0.000000000               0.000000000               0.000000000               0.000200432               0.002219557              -0.000133959              -0.000202282               0.000807272               0.000604990               0.000000000               0.000000000               0.000000000               0.000000000               0.000177701               0.002224308              -0.000109664              -0.000211400               0.000811895               0.000600495               0.000000000               0.000000000               0.000000000               0.000000000               0.000150333               0.002237121              -0.000085197              -0.000223265               0.000820121               0.000596856               0.000000000               0.000000000               0.000000000               0.000000000               0.000122732               0.002251845              -0.000059523              -0.000235455               0.000829093               0.000593637               0.000000000               0.000000000               0.000000000               0.000000000               0.000098085               0.002264639              -0.000039080              -0.000246297               0.000836971               0.000590674               0.000000000               0.000000000               0.000000000               0.000000000               0.000077194               0.002268928              -0.000031320              -0.000254667               0.000841191               0.000586523               0.000000000               0.000000000               0.000000000               0.000000000               0.000060948               0.002271267              -0.000027932              -0.000261052               0.000844099               0.000583047               0.000000000               0.000000000               0.000000000               0.000000000               0.000042675               0.002276600              -0.000021961              -0.000268571               0.000848383               0.000579812               0.000000000               0.000000000               0.000000000               0.000000000               0.000021437               0.002288614              -0.000013778              -0.000278037               0.000855543               0.000577506               0.000000000               0.000000000               0.000000000               0.000000000               0.000014493               0.002301952              -0.000010740              -0.000282309               0.000861413               0.000579104               0.000000000               0.000000000               0.000000000               0.000000000               0.000855482               0.002091898              -0.001096290               0.000059317               0.000677520               0.000736836               0.000000000               0.000000000               0.000000000               0.000000000               0.000556184               0.002079594              -0.000809209              -0.000051381               0.000710318               0.000658937               0.000000000               0.000000000               0.000000000               0.000000000               0.000344231               0.002194208              -0.000508257              -0.000145189               0.000779792               0.000634602               0.000000000               0.000000000               0.000000000               0.000000000               0.000261486               0.002207980              -0.000368155              -0.000177940               0.000795299               0.000617359               0.000000000               0.000000000               0.000000000               0.000000000               0.000222223               0.002204833              -0.000287802              -0.000192270               0.000799027               0.000606757               0.000000000               0.000000000               0.000000000               0.000000000               0.000203681               0.002202152              -0.000232821              -0.000198888               0.000800339               0.000601451               0.000000000               0.000000000               0.000000000               0.000000000               0.000190356               0.002203894              -0.000190576              -0.000204103               0.000802658               0.000598555               0.000000000               0.000000000               0.000000000               0.000000000               0.000174318               0.002214611              -0.000154319              -0.000211457               0.000808682               0.000597225               0.000000000               0.000000000               0.000000000               0.000000000               0.000155738               0.002232837              -0.000120943              -0.000220702               0.000817839               0.000597137               0.000000000               0.000000000               0.000000000               0.000000000               0.000131374               0.002251862              -0.000090977              -0.000232217               0.000828019               0.000595802               0.000000000               0.000000000               0.000000000               0.000000000               0.000105440               0.002266822              -0.000063505              -0.000243812               0.000836870               0.000593058               0.000000000               0.000000000               0.000000000               0.000000000               0.000086354               0.002274444              -0.000041931              -0.000251922               0.000842115               0.000590192               0.000000000               0.000000000               0.000000000               0.000000000               0.000073702               0.002281301              -0.000031630              -0.000257524               0.000846267               0.000588744               0.000000000               0.000000000               0.000000000               0.000000000               0.000060314               0.002298184              -0.000024959              -0.000264655               0.000854272               0.000589617               0.000000000               0.000000000               0.000000000               0.000000000               0.000040503               0.002327093              -0.000016927              -0.000275697               0.000867589               0.000591892               0.000000000               0.000000000               0.000000000               0.000000000               0.000020053               0.002365715              -0.000008985              -0.000288194               0.000884629               0.000596435               0.000000000               0.000000000               0.000000000               0.000000000               0.000015091               0.002395933              -0.000008249              -0.000293832               0.000896580               0.000602749               0.000000000               0.000000000               0.000000000               0.000000000               0.000866364               0.001726719              -0.001008967               0.000109044               0.000539219               0.000648263               0.000000000               0.000000000               0.000000000               0.000000000               0.000558463               0.001840375              -0.000795711              -0.000020624               0.000620327               0.000599702               0.000000000               0.000000000               0.000000000               0.000000000               0.000324991               0.002063914              -0.000555879              -0.000136118               0.000733337               0.000597219               0.000000000               0.000000000               0.000000000               0.000000000               0.000243076               0.002129288              -0.000420186              -0.000175007               0.000768091               0.000593084               0.000000000               0.000000000               0.000000000               0.000000000               0.000208183               0.002157611              -0.000334331              -0.000191632               0.000783074               0.000591442               0.000000000               0.000000000               0.000000000               0.000000000               0.000191974               0.002174513              -0.000271623              -0.000199824               0.000791438               0.000591615               0.000000000               0.000000000               0.000000000               0.000000000               0.000182447               0.002194243              -0.000220026              -0.000205862               0.000800028               0.000594166               0.000000000               0.000000000               0.000000000               0.000000000               0.000169014               0.002218285              -0.000173850              -0.000213905               0.000810722               0.000596818               0.000000000               0.000000000               0.000000000               0.000000000               0.000148015               0.002245206              -0.000134817              -0.000225144               0.000823443               0.000598298               0.000000000               0.000000000               0.000000000               0.000000000               0.000122809               0.002269795              -0.000103090              -0.000237671               0.000835814               0.000598144               0.000000000               0.000000000               0.000000000               0.000000000               0.000101339               0.002289053              -0.000076231              -0.000248129               0.000845720               0.000597591               0.000000000               0.000000000               0.000000000               0.000000000               0.000088704               0.002302425              -0.000052142              -0.000254538               0.000852313               0.000597775               0.000000000               0.000000000               0.000000000               0.000000000               0.000079805               0.002321337              -0.000033519              -0.000260240               0.000860518               0.000600278               0.000000000               0.000000000               0.000000000               0.000000000               0.000069640               0.002359830              -0.000021081              -0.000268863               0.000876223               0.000607360               0.000000000               0.000000000               0.000000000               0.000000000               0.000055455               0.002414298              -0.000009267              -0.000280991               0.000898422               0.000617431               0.000000000               0.000000000               0.000000000               0.000000000               0.000040604               0.002480264              -0.000000527              -0.000294806               0.000925015               0.000630209               0.000000000               0.000000000               0.000000000               0.000000000               0.000033055               0.002518954               0.000001476              -0.000302473               0.000940467               0.000637994               0.000000000               0.000000000               0.000000000               0.000000000               0.000850233               0.001363083              -0.000899433               0.000148450               0.000404873               0.000553322               0.000000000               0.000000000               0.000000000               0.000000000               0.000577105               0.001558079              -0.000775918               0.000021653               0.000512136               0.000533790               0.000000000               0.000000000               0.000000000               0.000000000               0.000344324               0.001861363              -0.000611591              -0.000103549               0.000654964               0.000551415               0.000000000               0.000000000               0.000000000               0.000000000               0.000257979               0.001987488              -0.000484804              -0.000151694               0.000713054               0.000561360               0.000000000               0.000000000               0.000000000               0.000000000               0.000221580               0.002054803              -0.000395068              -0.000173758               0.000742847               0.000569089               0.000000000               0.000000000               0.000000000               0.000000000               0.000202682               0.002095855              -0.000325359              -0.000185976               0.000760603               0.000574627               0.000000000               0.000000000               0.000000000               0.000000000               0.000189971               0.002128530              -0.000265107              -0.000194827               0.000774445               0.000579619               0.000000000               0.000000000               0.000000000               0.000000000               0.000176069               0.002163023              -0.000211532              -0.000204352               0.000789118               0.000584766               0.000000000               0.000000000               0.000000000               0.000000000               0.000160249               0.002201606              -0.000167626              -0.000215107               0.000805563               0.000590457               0.000000000               0.000000000               0.000000000               0.000000000               0.000136644               0.002237197              -0.000132598              -0.000228408               0.000821861               0.000593453               0.000000000               0.000000000               0.000000000               0.000000000               0.000114080               0.002270818              -0.000105378              -0.000241071               0.000837289               0.000596217               0.000000000               0.000000000               0.000000000               0.000000000               0.000100298               0.002299290              -0.000079665              -0.000249799               0.000849689               0.000599890               0.000000000               0.000000000               0.000000000               0.000000000               0.000095280               0.002333861              -0.000055665              -0.000256002               0.000863280               0.000607278               0.000000000               0.000000000               0.000000000               0.000000000               0.000091169               0.002380331              -0.000036176              -0.000263352               0.000881220               0.000617868               0.000000000               0.000000000               0.000000000               0.000000000               0.000084685               0.002445837              -0.000017491              -0.000273972               0.000906595               0.000632623               0.000000000               0.000000000               0.000000000               0.000000000               0.000078220               0.002534242              -0.000003874              -0.000287447               0.000940555               0.000653108               0.000000000               0.000000000               0.000000000               0.000000000               0.000067459               0.002575427               0.000002944              -0.000296630               0.000957344               0.000660713               0.000000000               0.000000000               0.000000000               0.000000000               0.000796672               0.001018970              -0.000768415               0.000171379               0.000282527               0.000453905               0.000000000               0.000000000               0.000000000               0.000000000               0.000597908               0.001271720              -0.000735258               0.000065249               0.000402153               0.000467401               0.000000000               0.000000000               0.000000000               0.000000000               0.000393633               0.001627797              -0.000651465              -0.000055863               0.000561214               0.000505351               0.000000000               0.000000000               0.000000000               0.000000000               0.000306548               0.001812361              -0.000546343              -0.000111590               0.000641311               0.000529721               0.000000000               0.000000000               0.000000000               0.000000000               0.000261173               0.001921131              -0.000457830              -0.000142201               0.000687771               0.000545570               0.000000000               0.000000000               0.000000000               0.000000000               0.000236429               0.001988796              -0.000384435              -0.000159938               0.000716238               0.000556300               0.000000000               0.000000000               0.000000000               0.000000000               0.000219752               0.002037606              -0.000318645              -0.000172294               0.000736626               0.000564333               0.000000000               0.000000000               0.000000000               0.000000000               0.000206493               0.002085746              -0.000260520              -0.000183283               0.000756336               0.000573053               0.000000000               0.000000000               0.000000000               0.000000000               0.000192298               0.002136050              -0.000211420              -0.000194894               0.000776974               0.000582080               0.000000000               0.000000000               0.000000000               0.000000000               0.000173494               0.002186206              -0.000170718              -0.000208215               0.000798133               0.000589918               0.000000000               0.000000000               0.000000000               0.000000000               0.000150749               0.002234096              -0.000142197              -0.000222731               0.000818935               0.000596204               0.000000000               0.000000000               0.000000000               0.000000000               0.000132954               0.002274995              -0.000117639              -0.000234516               0.000836496               0.000601980               0.000000000               0.000000000               0.000000000               0.000000000               0.000125572               0.002318882              -0.000090699              -0.000242770               0.000853877               0.000611106               0.000000000               0.000000000               0.000000000               0.000000000               0.000121045               0.002372815              -0.000061612              -0.000251209               0.000874667               0.000623458               0.000000000               0.000000000               0.000000000               0.000000000               0.000115233               0.002443632              -0.000032806              -0.000262241               0.000901949               0.000639708               0.000000000               0.000000000               0.000000000               0.000000000               0.000110767               0.002533492              -0.000011062              -0.000275148               0.000936205               0.000661057               0.000000000               0.000000000               0.000000000               0.000000000               0.000098976               0.002574768               0.000000720              -0.000284729               0.000953157               0.000668428               0.000000000               0.000000000               0.000000000               0.000000000               0.000708830               0.000715789              -0.000617934               0.000176335               0.000179815               0.000356150               0.000000000               0.000000000               0.000000000               0.000000000               0.000603344               0.000991878              -0.000660945               0.000102268               0.000296533               0.000398801               0.000000000               0.000000000               0.000000000               0.000000000               0.000455819               0.001367868              -0.000652573              -0.000000052               0.000455969               0.000455916               0.000000000               0.000000000               0.000000000               0.000000000               0.000379454               0.001598068              -0.000576758              -0.000057464               0.000551839               0.000494375               0.000000000               0.000000000               0.000000000               0.000000000               0.000325695               0.001744442              -0.000497956              -0.000095920               0.000613448               0.000517528               0.000000000               0.000000000               0.000000000               0.000000000               0.000290631               0.001842495              -0.000426377              -0.000121325               0.000654601               0.000533275               0.000000000               0.000000000               0.000000000               0.000000000               0.000266835               0.001913727              -0.000361026              -0.000139153               0.000684287               0.000545134               0.000000000               0.000000000               0.000000000               0.000000000               0.000251804               0.001979271              -0.000302101              -0.000152982               0.000710744               0.000557762               0.000000000               0.000000000               0.000000000               0.000000000               0.000236041               0.002045686              -0.000249121              -0.000167195               0.000737620               0.000570425               0.000000000               0.000000000               0.000000000               0.000000000               0.000220003               0.002113320              -0.000205632              -0.000181664               0.000764988               0.000583324               0.000000000               0.000000000               0.000000000               0.000000000               0.000200512               0.002178680              -0.000175400              -0.000197143               0.000791933               0.000594791               0.000000000               0.000000000               0.000000000               0.000000000               0.000179307               0.002235875              -0.000152129              -0.000212244               0.000816032               0.000603788               0.000000000               0.000000000               0.000000000               0.000000000               0.000163235               0.002291104              -0.000124090              -0.000225174               0.000838752               0.000613577               0.000000000               0.000000000               0.000000000               0.000000000               0.000153976               0.002354876              -0.000088209              -0.000236618               0.000863823               0.000627206               0.000000000               0.000000000               0.000000000               0.000000000               0.000147681               0.002431585              -0.000051955              -0.000248567               0.000893376               0.000644809               0.000000000               0.000000000               0.000000000               0.000000000               0.000141600               0.002526231              -0.000022628              -0.000262678               0.000929628               0.000666950               0.000000000               0.000000000               0.000000000               0.000000000               0.000127575               0.002570620              -0.000005749              -0.000273486               0.000948027               0.000674540               0.000000000               0.000000000               0.000000000               0.000000000               0.000594069               0.000467237              -0.000463611               0.000164369               0.000100954               0.000265323               0.000000000               0.000000000               0.000000000               0.000000000               0.000595318               0.000736574              -0.000557153               0.000131171               0.000201798               0.000332969               0.000000000               0.000000000               0.000000000               0.000000000               0.000522539               0.001102814              -0.000606766               0.000058099               0.000348234               0.000406333               0.000000000               0.000000000               0.000000000               0.000000000               0.000463844               0.001359071              -0.000562311               0.000004057               0.000451667               0.000455723               0.000000000               0.000000000               0.000000000               0.000000000               0.000410910               0.001538719              -0.000500131              -0.000038249               0.000525651               0.000487402               0.000000000               0.000000000               0.000000000               0.000000000               0.000364249               0.001668018              -0.000437467              -0.000071909               0.000579970               0.000508061               0.000000000               0.000000000               0.000000000               0.000000000               0.000330022               0.001767182              -0.000377726              -0.000097140               0.000621434               0.000524295               0.000000000               0.000000000               0.000000000               0.000000000               0.000303906               0.001852555              -0.000321858              -0.000117604               0.000656714               0.000539109               0.000000000               0.000000000               0.000000000               0.000000000               0.000283752               0.001937543              -0.000271019              -0.000135785               0.000691103               0.000555317               0.000000000               0.000000000               0.000000000               0.000000000               0.000267460               0.002023887              -0.000228728              -0.000152688               0.000725518               0.000572830               0.000000000               0.000000000               0.000000000               0.000000000               0.000252103               0.002109165              -0.000197959              -0.000169107               0.000759417               0.000590310               0.000000000               0.000000000               0.000000000               0.000000000               0.000231747               0.002187474              -0.000173991              -0.000186529               0.000791327               0.000604798               0.000000000               0.000000000               0.000000000               0.000000000               0.000211607               0.002255471              -0.000148219              -0.000202581               0.000819343               0.000616762               0.000000000               0.000000000               0.000000000               0.000000000               0.000198183               0.002324893              -0.000114734              -0.000216292               0.000847054               0.000630762               0.000000000               0.000000000               0.000000000               0.000000000               0.000192213               0.002412555              -0.000073963              -0.000229489               0.000880673               0.000651184               0.000000000               0.000000000               0.000000000               0.000000000               0.000184764               0.002517768              -0.000034154              -0.000245434               0.000921059               0.000675625               0.000000000               0.000000000               0.000000000               0.000000000               0.000168304               0.002565681              -0.000012309              -0.000257596               0.000941084               0.000683488               0.000000000               0.000000000               0.000000000               0.000000000               0.000465030               0.000279198              -0.000320664               0.000139485               0.000046570               0.000186055               0.000000000               0.000000000               0.000000000               0.000000000               0.000572910               0.000522672              -0.000432465               0.000149506               0.000124387               0.000273892               0.000000000               0.000000000               0.000000000               0.000000000               0.000583749               0.000856341              -0.000510734               0.000111862               0.000248157               0.000360019               0.000000000               0.000000000               0.000000000               0.000000000               0.000549653               0.001121377              -0.000493888               0.000065947               0.000351806               0.000417753               0.000000000               0.000000000               0.000000000               0.000000000               0.000502102               0.001326201              -0.000450941               0.000022512               0.000434558               0.000457071               0.000000000               0.000000000               0.000000000               0.000000000               0.000450271               0.001482857              -0.000402402              -0.000016506               0.000499783               0.000483277               0.000000000               0.000000000               0.000000000               0.000000000               0.000404657               0.001610168              -0.000352969              -0.000049525               0.000553225               0.000503701               0.000000000               0.000000000               0.000000000               0.000000000               0.000367805               0.001720585              -0.000304472              -0.000077146               0.000599238               0.000522092               0.000000000               0.000000000               0.000000000               0.000000000               0.000337627               0.001820780              -0.000261392              -0.000100987               0.000640583               0.000539596               0.000000000               0.000000000               0.000000000               0.000000000               0.000316174               0.001919994              -0.000226609              -0.000121434               0.000680470               0.000559036               0.000000000               0.000000000               0.000000000               0.000000000               0.000302969               0.002022007              -0.000198623              -0.000139137               0.000720375               0.000581237               0.000000000               0.000000000               0.000000000               0.000000000               0.000288606               0.002121744              -0.000175130              -0.000156990               0.000759571               0.000602581               0.000000000               0.000000000               0.000000000               0.000000000               0.000271278               0.002210643              -0.000153441              -0.000174601               0.000795074               0.000620473               0.000000000               0.000000000               0.000000000               0.000000000               0.000255982               0.002294210              -0.000124585              -0.000190782               0.000828323               0.000637541               0.000000000               0.000000000               0.000000000               0.000000000               0.000248564               0.002391409              -0.000085264              -0.000205714               0.000865700               0.000659986               0.000000000               0.000000000               0.000000000               0.000000000               0.000247803               0.002506409              -0.000042024              -0.000220375               0.000908919               0.000688545               0.000000000               0.000000000               0.000000000               0.000000000               0.000238064               0.002561522              -0.000018372              -0.000230916               0.000930804               0.000699888               0.000000000               0.000000000               0.000000000               0.000000000               0.000348463               0.000153399              -0.000196188               0.000111498               0.000013966               0.000125464               0.000000000               0.000000000               0.000000000               0.000000000               0.000543868               0.000361230              -0.000293621               0.000158795               0.000067477               0.000226272               0.000000000               0.000000000               0.000000000               0.000000000               0.000632062               0.000654532              -0.000369809               0.000155205               0.000166440               0.000321645               0.000000000               0.000000000               0.000000000               0.000000000               0.000627352               0.000918703              -0.000369708               0.000120418               0.000266092               0.000386510               0.000000000               0.000000000               0.000000000               0.000000000               0.000585414               0.001136319              -0.000344632               0.000077490               0.000352939               0.000430429               0.000000000               0.000000000               0.000000000               0.000000000               0.000531853               0.001313050              -0.000312236               0.000035313               0.000425908               0.000461221               0.000000000               0.000000000               0.000000000               0.000000000               0.000478680               0.001463386              -0.000277202              -0.000003419               0.000488930               0.000485511               0.000000000               0.000000000               0.000000000               0.000000000               0.000434786               0.001594976              -0.000240451              -0.000036328               0.000543763               0.000507435               0.000000000               0.000000000               0.000000000               0.000000000               0.000397448               0.001710322              -0.000207976              -0.000064747               0.000591684               0.000526937               0.000000000               0.000000000               0.000000000               0.000000000               0.000368313               0.001819682              -0.000185426              -0.000089343               0.000636335               0.000546993               0.000000000               0.000000000               0.000000000               0.000000000               0.000349665               0.001930521              -0.000166920              -0.000110190               0.000680231               0.000570040               0.000000000               0.000000000               0.000000000               0.000000000               0.000339760               0.002046153              -0.000146955              -0.000128359               0.000724831               0.000596472               0.000000000               0.000000000               0.000000000               0.000000000               0.000324956               0.002159849              -0.000126350              -0.000148122               0.000769316               0.000621194               0.000000000               0.000000000               0.000000000               0.000000000               0.000310807               0.002267465              -0.000104771              -0.000166880               0.000811441               0.000644561               0.000000000               0.000000000               0.000000000               0.000000000               0.000312187               0.002376497              -0.000077113              -0.000179991               0.000852155               0.000672163               0.000000000               0.000000000               0.000000000               0.000000000               0.000327370               0.002498935              -0.000041024              -0.000189603               0.000896171               0.000706568               0.000000000               0.000000000               0.000000000               0.000000000               0.000332042               0.002561918              -0.000020059              -0.000195723               0.000919205               0.000723482               0.000000000               0.000000000               0.000000000               0.000000000               0.000269721               0.000083954              -0.000092903               0.000090650              -0.000002233               0.000088418               0.000000000               0.000000000               0.000000000               0.000000000               0.000521600               0.000262248              -0.000148532               0.000162817               0.000033143               0.000195960               0.000000000               0.000000000               0.000000000               0.000000000               0.000664047               0.000523191              -0.000194587               0.000183617               0.000113190               0.000296807               0.000000000               0.000000000               0.000000000               0.000000000               0.000680498               0.000779836              -0.000198338               0.000157706               0.000207374               0.000365080               0.000000000               0.000000000               0.000000000               0.000000000               0.000646366               0.001003987              -0.000187043               0.000116888               0.000295697               0.000412584               0.000000000               0.000000000               0.000000000               0.000000000               0.000591863               0.001192304              -0.000171259               0.000072910               0.000373127               0.000446037               0.000000000               0.000000000               0.000000000               0.000000000               0.000534477               0.001355041              -0.000153592               0.000031048               0.000441326               0.000472375               0.000000000               0.000000000               0.000000000               0.000000000               0.000484391               0.001500252              -0.000134171              -0.000005885               0.000502041               0.000496156               0.000000000               0.000000000               0.000000000               0.000000000               0.000445463               0.001630170              -0.000115571              -0.000036723               0.000555625               0.000518903               0.000000000               0.000000000               0.000000000               0.000000000               0.000413398               0.001749584              -0.000104043              -0.000063674               0.000604414               0.000540740               0.000000000               0.000000000               0.000000000               0.000000000               0.000385900               0.001865298              -0.000098155              -0.000088449               0.000651243               0.000562794               0.000000000               0.000000000               0.000000000               0.000000000               0.000367401               0.001986754              -0.000086109              -0.000110569               0.000699101               0.000588532               0.000000000               0.000000000               0.000000000               0.000000000               0.000358814               0.002115565              -0.000068544              -0.000129890               0.000748478               0.000618588               0.000000000               0.000000000               0.000000000               0.000000000               0.000359153               0.002246397              -0.000058995              -0.000146117               0.000797497               0.000651380               0.000000000               0.000000000               0.000000000               0.000000000               0.000371627               0.002375294              -0.000048658              -0.000157551               0.000844274               0.000686723               0.000000000               0.000000000               0.000000000               0.000000000               0.000400433               0.002505434              -0.000026102              -0.000163016               0.000889475               0.000726459               0.000000000               0.000000000               0.000000000               0.000000000               0.000421346               0.002571646              -0.000012036              -0.000163450               0.000911690               0.000748240               0.000000000               0.000000000               0.000000000               0.000000000               0.000000000               0.000000000               0.000000000               0.000000000               0.000000000               0.000000000               0.000000000               0.000000000               0.000000000               0.000000000               0.000000000               0.000000000               0.000000000               0.000000000               0.000000000               0.000000000               0.000000000               0.000000000               0.000000000               0.000000000               0.000000000               0.000000000               0.000000000               0.000000000               0.000000000               0.000000000               0.000000000               0.000000000               0.000000000               0.000000000               0.000000000               0.000000000               0.000000000               0.000000000               0.000000000               0.000000000               0.000000000               0.000000000               0.000000000               0.000000000               0.000000000               0.000000000               0.000000000               0.000000000               0.000000000               0.000000000               0.000000000               0.000000000               0.000000000               0.000000000               0.000000000               0.000000000               0.000000000               0.000000000               0.000000000               0.000000000               0.000000000               0.000000000               0.000000000               0.000000000               0.000000000               0.000000000               0.000000000               0.000000000               0.000000000               0.000000000               0.000000000               0.000000000               0.000000000               0.000000000               0.000000000               0.000000000               0.000000000               0.000000000               0.000000000               0.000000000               0.000000000               0.000000000               0.000000000               0.000000000               0.000000000               0.000000000               0.000000000               0.000000000               0.000000000               0.000000000               0.000000000               0.000000000               0.000000000               0.000000000               0.000000000               0.000000000               0.000000000               0.000000000               0.000000000               0.000000000               0.000000000               0.000000000               0.000000000               0.000000000               0.000000000               0.000000000               0.000000000               0.000000000               0.000000000               0.000000000               0.000000000               0.000000000               0.000000000               0.000000000               0.000000000               0.000000000               0.000000000               0.000000000               0.000000000               0.000000000               0.000000000               0.000000000               0.000000000               0.000000000               0.000000000               0.000000000               0.000000000               0.000000000               0.000000000               0.000000000               0.000000000               0.000000000               0.000000000               0.000000000               0.000000000               0.000000000               0.000000000               0.000000000               0.000000000               0.000000000               0.000000000               0.000000000               0.000000000               0.000000000               0.000000000               0.000000000               0.000000000               0.000000000               0.000000000               0.000000000               0.000000000               0.000000000               0.000000000               0.000000000               0.000000000               0.000000000               0.000000000               0.000000000               0.000000000               0.000000000               0.000000000               0.000000000               0.000000000               0.000000000               0.000000000               0.000000000               0.000000000               0.000000000               0.000000000               0.000000000               0.000000000               0.000000000               0.000000000               0.000000000               0.000000000               0.000000000               0.000000000               0.000000000               0.000000000               0.000000000               0.000000000               0.000000000               0.000000000               0.000000000               0.000000000               0.000000000               0.000000000               0.000000000               0.000000000               0.000000000               0.000000000               0.000000000               0.000000000               0.000000000               0.000000000               0.000000000               0.000000000               0.000000000               0.000000000               0.000000000               0.000000000               0.000000000               0.000000000               0.000000000               0.000000000               0.000000000               0.000000000               0.000000000               0.000000000               0.000000000               0.000000000               0.000000000               0.000000000               0.000000000               0.000000000               0.000000000               0.000000000               0.000000000               0.000000000               0.000000000               0.000000000               0.000000000               0.000000000               0.000000000               0.000000000               0.000000000               0.000000000               0.000000000               0.000000000               0.000000000               0.000000000               0.000000000               0.000000000               0.000000000               0.000000000               0.000000000               0.000000000               0.000000000               0.000000000               0.000000000               0.000000000               0.000000000               0.000000000               0.000000000               0.000000000               0.000000000               0.000000000               0.000000000               0.000000000               0.000000000               0.000000000               0.000000000               0.000000000               0.000000000               0.000000000               0.000000000               0.000000000               0.000000000               0.000000000               0.000000000               0.000000000               0.000000000               0.000000000               0.000000000               0.000000000               0.000000000               0.000000000               0.000000000               0.000000000               0.000000000               0.000000000               0.000000000               0.000000000               0.000000000               0.000000000               0.000000000               0.000000000               0.000000000               0.000000000               0.000000000               0.000000000               0.000000000               0.000000000               0.000000000               0.000000000               0.000000000               0.000000000               0.000000000               0.000000000               0.000000000               0.000000000               0.000000000               0.000000000               0.000000000               0.000000000               0.000000000               0.000000000               0.000000000               0.000000000               0.000000000               0.000000000               0.000000000               0.000000000               0.000000000               0.000000000               0.000000000               0.000000000               0.000000000               0.000000000               0.000000000               0.000000000               0.000000000               0.000000000               0.000000000               0.000000000               0.000000000               0.000000000               0.000000000               0.000000000               0.000000000               0.000000000               0.000000000               0.000000000               0.000000000               0.000000000               0.000000000               0.000000000               0.000000000               0.000000000               0.000000000               0.000000000               0.000000000               0.000000000               0.000000000               0.000000000               0.000000000               0.000000000               0.000000000               0.000000000               0.000000000               0.000000000               0.000000000               0.000000000               0.000000000               0.000392450               0.004159082               0.000330637              -0.000372716               0.001510585               0.001137870               0.000000000               0.000000000               0.000000000               0.000000000               0.000430877               0.003479706               0.000221367              -0.000273384               0.001251018               0.000977634               0.000000000               0.000000000               0.000000000               0.000000000               0.000593276               0.002936148               0.000106929              -0.000144540               0.001026886               0.000882347               0.000000000               0.000000000               0.000000000               0.000000000               0.000624566               0.002636989               0.000051470              -0.000095411               0.000910791               0.000815380               0.000000000               0.000000000               0.000000000               0.000000000               0.000604786               0.002464433               0.000023712              -0.000081259               0.000848556               0.000767297               0.000000000               0.000000000               0.000000000               0.000000000               0.000561422               0.002363411               0.000010122              -0.000084893               0.000816093               0.000731200               0.000000000               0.000000000               0.000000000               0.000000000               0.000506354               0.002304561               0.000003009              -0.000098187               0.000800908               0.000702721               0.000000000               0.000000000               0.000000000               0.000000000               0.000447555               0.002271143               0.000000409              -0.000116059               0.000795727               0.000679667               0.000000000               0.000000000               0.000000000               0.000000000               0.000386541               0.002255462               0.000000404              -0.000136979               0.000797473               0.000660494               0.000000000               0.000000000               0.000000000               0.000000000               0.000325584               0.002250008               0.000001141              -0.000159156               0.000803047               0.000643891               0.000000000               0.000000000               0.000000000               0.000000000               0.000266777               0.002252941               0.000000957              -0.000181576               0.000811498               0.000629922               0.000000000               0.000000000               0.000000000               0.000000000               0.000211037               0.002263464               0.000000217              -0.000203793               0.000822412               0.000618618               0.000000000               0.000000000               0.000000000               0.000000000               0.000159191               0.002283083              -0.000002523              -0.000225688               0.000836249               0.000610561               0.000000000               0.000000000               0.000000000               0.000000000               0.000110971               0.002310030              -0.000005019              -0.000247139               0.000852382               0.000605243               0.000000000               0.000000000               0.000000000               0.000000000               0.000067928               0.002339604              -0.000002099              -0.000266977               0.000868852               0.000601876               0.000000000               0.000000000               0.000000000               0.000000000               0.000030861               0.002367753               0.000000458              -0.000284396               0.000884042               0.000599646               0.000000000               0.000000000               0.000000000               0.000000000               0.000017029               0.002389606               0.000001219              -0.000292314               0.000893965               0.000601651               0.000000000               0.000000000               0.000000000               0.000000000               0.000466882               0.003975204               0.000628133              -0.000321819               0.001432328               0.001110508               0.000000000               0.000000000               0.000000000               0.000000000               0.000461281               0.003346797               0.000421082              -0.000245369               0.001197377               0.000952008               0.000000000               0.000000000               0.000000000               0.000000000               0.000575975               0.002862158               0.000205319              -0.000141779               0.001001303               0.000859524               0.000000000               0.000000000               0.000000000               0.000000000               0.000584796               0.002596538               0.000103031              -0.000105269               0.000900594               0.000795325               0.000000000               0.000000000               0.000000000               0.000000000               0.000555308               0.002442438               0.000052602              -0.000097064               0.000846493               0.000749428               0.000000000               0.000000000               0.000000000               0.000000000               0.000510365               0.002351542               0.000027098              -0.000102556               0.000818025               0.000715469               0.000000000               0.000000000               0.000000000               0.000000000               0.000457572               0.002297820               0.000015154              -0.000115638               0.000804478               0.000688840               0.000000000               0.000000000               0.000000000               0.000000000               0.000403303               0.002268045               0.000010027              -0.000132267               0.000800096               0.000667830               0.000000000               0.000000000               0.000000000               0.000000000               0.000347778               0.002253294               0.000008635              -0.000151244               0.000801505               0.000650261               0.000000000               0.000000000               0.000000000               0.000000000               0.000292629               0.002248058               0.000009418              -0.000171271               0.000806435               0.000635164               0.000000000               0.000000000               0.000000000               0.000000000               0.000238086               0.002251702               0.000009343              -0.000192180               0.000814620               0.000622440               0.000000000               0.000000000               0.000000000               0.000000000               0.000186329               0.002263683               0.000006862              -0.000213087               0.000825582               0.000612496               0.000000000               0.000000000               0.000000000               0.000000000               0.000139968               0.002283028               0.000001337              -0.000232890               0.000838632               0.000605742               0.000000000               0.000000000               0.000000000               0.000000000               0.000096235               0.002305305              -0.000001813              -0.000252074               0.000852452               0.000600378               0.000000000               0.000000000               0.000000000               0.000000000               0.000058256               0.002327717               0.000003212              -0.000269118               0.000865604               0.000596486               0.000000000               0.000000000               0.000000000               0.000000000               0.000027511               0.002349583               0.000006444              -0.000283380               0.000877647               0.000594266               0.000000000               0.000000000               0.000000000               0.000000000               0.000016364               0.002367364               0.000006192              -0.000289783               0.000885708               0.000595925               0.000000000               0.000000000               0.000000000               0.000000000               0.000568473               0.003686157               0.000868132              -0.000247592               0.001311237               0.001063645               0.000000000               0.000000000               0.000000000               0.000000000               0.000498010               0.003138742               0.000582933              -0.000205589               0.001114766               0.000909177               0.000000000               0.000000000               0.000000000               0.000000000               0.000543098               0.002746850               0.000288966              -0.000139694               0.000962172               0.000822478               0.000000000               0.000000000               0.000000000               0.000000000               0.000522102               0.002531875               0.000154576              -0.000120696               0.000884182               0.000763486               0.000000000               0.000000000               0.000000000               0.000000000               0.000483747               0.002407611               0.000089833              -0.000119546               0.000842377               0.000722832               0.000000000               0.000000000               0.000000000               0.000000000               0.000439987               0.002332781               0.000057272              -0.000126602               0.000819787               0.000693184               0.000000000               0.000000000               0.000000000               0.000000000               0.000392435               0.002288098               0.000040759              -0.000138849               0.000808975               0.000670126               0.000000000               0.000000000               0.000000000               0.000000000               0.000346160               0.002263366               0.000032948              -0.000153110               0.000805485               0.000652374               0.000000000               0.000000000               0.000000000               0.000000000               0.000298692               0.002248975               0.000029925              -0.000169112               0.000806022               0.000636910               0.000000000               0.000000000               0.000000000               0.000000000               0.000249825               0.002244126               0.000028020              -0.000186831               0.000810311               0.000623480               0.000000000               0.000000000               0.000000000               0.000000000               0.000201911               0.002248952               0.000024054              -0.000205402               0.000818111               0.000612709               0.000000000               0.000000000               0.000000000               0.000000000               0.000154847               0.002261117               0.000018486              -0.000224572               0.000828555               0.000603984               0.000000000               0.000000000               0.000000000               0.000000000               0.000113109               0.002277410               0.000011902              -0.000242260               0.000839882               0.000597623               0.000000000               0.000000000               0.000000000               0.000000000               0.000079592               0.002293413               0.000008421              -0.000256829               0.000850073               0.000593244               0.000000000               0.000000000               0.000000000               0.000000000               0.000051833               0.002307638               0.000013208              -0.000269017               0.000858877               0.000589860               0.000000000               0.000000000               0.000000000               0.000000000               0.000026303               0.002321888               0.000014446              -0.000280371               0.000867412               0.000587040               0.000000000               0.000000000               0.000000000               0.000000000               0.000015811               0.002333622               0.000012701              -0.000285773               0.000873124               0.000587351               0.000000000               0.000000000               0.000000000               0.000000000               0.000675130               0.003319485               0.001035111              -0.000161763               0.001160404               0.000998642               0.000000000               0.000000000               0.000000000               0.000000000               0.000530797               0.002883817               0.000699226              -0.000161429               0.001015072               0.000853644               0.000000000               0.000000000               0.000000000               0.000000000               0.000497834               0.002613422               0.000358238              -0.000139990               0.000917795               0.000777806               0.000000000               0.000000000               0.000000000               0.000000000               0.000449824               0.002460056               0.000207902              -0.000138823               0.000866285               0.000727462               0.000000000               0.000000000               0.000000000               0.000000000               0.000404919               0.002367409               0.000136061              -0.000144081               0.000837156               0.000693074               0.000000000               0.000000000               0.000000000               0.000000000               0.000363947               0.002309430               0.000099321              -0.000152198               0.000820535               0.000668337               0.000000000               0.000000000               0.000000000               0.000000000               0.000325610               0.002274271               0.000078957              -0.000162180               0.000812142               0.000649963               0.000000000               0.000000000               0.000000000               0.000000000               0.000288662               0.002250965               0.000066596              -0.000173122               0.000808021               0.000634900               0.000000000               0.000000000               0.000000000               0.000000000               0.000249228               0.002238460               0.000058882              -0.000186347               0.000808262               0.000621915               0.000000000               0.000000000               0.000000000               0.000000000               0.000208029               0.002235123               0.000051039              -0.000201379               0.000812160               0.000610781               0.000000000               0.000000000               0.000000000               0.000000000               0.000167771               0.002242688               0.000041486              -0.000217421               0.000820029               0.000602608               0.000000000               0.000000000               0.000000000               0.000000000               0.000127016               0.002255169               0.000030795              -0.000234264               0.000829804               0.000595539               0.000000000               0.000000000               0.000000000               0.000000000               0.000092919               0.002269917               0.000022655              -0.000248895               0.000839596               0.000590702               0.000000000               0.000000000               0.000000000               0.000000000               0.000068624               0.002279126               0.000018965              -0.000259156               0.000846087               0.000586930               0.000000000               0.000000000               0.000000000               0.000000000               0.000048117               0.002286990               0.000020570              -0.000267829               0.000851599               0.000583769               0.000000000               0.000000000               0.000000000               0.000000000               0.000025445               0.002295191               0.000018608              -0.000277356               0.000857508               0.000580152               0.000000000               0.000000000               0.000000000               0.000000000               0.000015078               0.002301952               0.000015343              -0.000282089               0.000861339               0.000579250               0.000000000               0.000000000               0.000000000               0.000000000               0.000765933               0.002913445               0.001123088              -0.000076957               0.000996791               0.000919834               0.000000000               0.000000000               0.000000000               0.000000000               0.000553153               0.002613376               0.000771406              -0.000119240               0.000910863               0.000791623               0.000000000               0.000000000               0.000000000               0.000000000               0.000445472               0.002476344               0.000416677              -0.000142491               0.000872937               0.000730446               0.000000000               0.000000000               0.000000000               0.000000000               0.000376519               0.002382867               0.000263391              -0.000156663               0.000846502               0.000689839               0.000000000               0.000000000               0.000000000               0.000000000               0.000328355               0.002318022               0.000189223              -0.000166619               0.000828206               0.000661587               0.000000000               0.000000000               0.000000000               0.000000000               0.000294382               0.002276745               0.000147914              -0.000174200               0.000816974               0.000642774               0.000000000               0.000000000               0.000000000               0.000000000               0.000266434               0.002249977               0.000121092              -0.000181334               0.000810430               0.000629096               0.000000000               0.000000000               0.000000000               0.000000000               0.000238862               0.002233042               0.000102507              -0.000189557               0.000807526               0.000617969               0.000000000               0.000000000               0.000000000               0.000000000               0.000207487               0.002225605               0.000087364              -0.000200393               0.000808659               0.000608266               0.000000000               0.000000000               0.000000000               0.000000000               0.000173181               0.002228953               0.000071618              -0.000213676               0.000814202               0.000600527               0.000000000               0.000000000               0.000000000               0.000000000               0.000140014               0.002240593               0.000053436              -0.000227568               0.000822713               0.000595145               0.000000000               0.000000000               0.000000000               0.000000000               0.000108143               0.002256722               0.000037116              -0.000241536               0.000832745               0.000591209               0.000000000               0.000000000               0.000000000               0.000000000               0.000081864               0.002268183               0.000029063              -0.000252823               0.000840328               0.000587505               0.000000000               0.000000000               0.000000000               0.000000000               0.000063559               0.002272425               0.000025751              -0.000260218               0.000844207               0.000583989               0.000000000               0.000000000               0.000000000               0.000000000               0.000045057               0.002274258               0.000022265              -0.000267385               0.000847207               0.000579822               0.000000000               0.000000000               0.000000000               0.000000000               0.000024003               0.002278316               0.000016446              -0.000275788               0.000851361               0.000575573               0.000000000               0.000000000               0.000000000               0.000000000               0.000015113               0.002284088               0.000012718              -0.000279843               0.000854636               0.000574793               0.000000000               0.000000000               0.000000000               0.000000000               0.000825746               0.002497508               0.001140208              -0.000002535               0.000833339               0.000830804               0.000000000               0.000000000               0.000000000               0.000000000               0.000560957               0.002341767               0.000806498              -0.000082363               0.000808035               0.000725672               0.000000000               0.000000000               0.000000000               0.000000000               0.000391126               0.002335112               0.000465916              -0.000145217               0.000826768               0.000681552               0.000000000               0.000000000               0.000000000               0.000000000               0.000309934               0.002296985               0.000317973              -0.000170898               0.000822620               0.000651722               0.000000000               0.000000000               0.000000000               0.000000000               0.000264228               0.002261622               0.000241726              -0.000183617               0.000815072               0.000631455               0.000000000               0.000000000               0.000000000               0.000000000               0.000239254               0.002239717               0.000193848              -0.000190244               0.000809980               0.000619736               0.000000000               0.000000000               0.000000000               0.000000000               0.000220377               0.002224577               0.000159793              -0.000195430               0.000806662               0.000611231               0.000000000               0.000000000               0.000000000               0.000000000               0.000200432               0.002219557               0.000133959              -0.000202282               0.000807272               0.000604990               0.000000000               0.000000000               0.000000000               0.000000000               0.000177701               0.002224308               0.000109664              -0.000211400               0.000811895               0.000600495               0.000000000               0.000000000               0.000000000               0.000000000               0.000150333               0.002237121               0.000085197              -0.000223265               0.000820121               0.000596856               0.000000000               0.000000000               0.000000000               0.000000000               0.000122732               0.002251845               0.000059523              -0.000235455               0.000829093               0.000593637               0.000000000               0.000000000               0.000000000               0.000000000               0.000098085               0.002264639               0.000039080              -0.000246297               0.000836971               0.000590674               0.000000000               0.000000000               0.000000000               0.000000000               0.000077194               0.002268928               0.000031320              -0.000254667               0.000841191               0.000586523               0.000000000               0.000000000               0.000000000               0.000000000               0.000060948               0.002271267               0.000027932              -0.000261052               0.000844099               0.000583047               0.000000000               0.000000000               0.000000000               0.000000000               0.000042675               0.002276600               0.000021961              -0.000268571               0.000848383               0.000579812               0.000000000               0.000000000               0.000000000               0.000000000               0.000021437               0.002288614               0.000013778              -0.000278037               0.000855543               0.000577506               0.000000000               0.000000000               0.000000000               0.000000000               0.000014493               0.002301952               0.000010740              -0.000282309               0.000861413               0.000579104               0.000000000               0.000000000               0.000000000               0.000000000               0.000855482               0.002091898               0.001096290               0.000059317               0.000677520               0.000736836               0.000000000               0.000000000               0.000000000               0.000000000               0.000556184               0.002079594               0.000809209              -0.000051381               0.000710318               0.000658937               0.000000000               0.000000000               0.000000000               0.000000000               0.000344231               0.002194208               0.000508257              -0.000145189               0.000779792               0.000634602               0.000000000               0.000000000               0.000000000               0.000000000               0.000261486               0.002207980               0.000368155              -0.000177940               0.000795299               0.000617359               0.000000000               0.000000000               0.000000000               0.000000000               0.000222223               0.002204833               0.000287802              -0.000192270               0.000799027               0.000606757               0.000000000               0.000000000               0.000000000               0.000000000               0.000203681               0.002202152               0.000232821              -0.000198888               0.000800339               0.000601451               0.000000000               0.000000000               0.000000000               0.000000000               0.000190356               0.002203894               0.000190576              -0.000204103               0.000802658               0.000598555               0.000000000               0.000000000               0.000000000               0.000000000               0.000174318               0.002214611               0.000154319              -0.000211457               0.000808682               0.000597225               0.000000000               0.000000000               0.000000000               0.000000000               0.000155738               0.002232837               0.000120943              -0.000220702               0.000817839               0.000597137               0.000000000               0.000000000               0.000000000               0.000000000               0.000131374               0.002251862               0.000090977              -0.000232217               0.000828019               0.000595802               0.000000000               0.000000000               0.000000000               0.000000000               0.000105440               0.002266822               0.000063505              -0.000243812               0.000836870               0.000593058               0.000000000               0.000000000               0.000000000               0.000000000               0.000086354               0.002274444               0.000041931              -0.000251922               0.000842115               0.000590192               0.000000000               0.000000000               0.000000000               0.000000000               0.000073702               0.002281301               0.000031630              -0.000257524               0.000846267               0.000588744               0.000000000               0.000000000               0.000000000               0.000000000               0.000060314               0.002298184               0.000024959              -0.000264655               0.000854272               0.000589617               0.000000000               0.000000000               0.000000000               0.000000000               0.000040503               0.002327093               0.000016927              -0.000275697               0.000867589               0.000591892               0.000000000               0.000000000               0.000000000               0.000000000               0.000020053               0.002365715               0.000008985              -0.000288194               0.000884629               0.000596435               0.000000000               0.000000000               0.000000000               0.000000000               0.000015091               0.002395933               0.000008249              -0.000293832               0.000896580               0.000602749               0.000000000               0.000000000               0.000000000               0.000000000               0.000866364               0.001726719               0.001008967               0.000109044               0.000539219               0.000648263               0.000000000               0.000000000               0.000000000               0.000000000               0.000558463               0.001840375               0.000795711              -0.000020624               0.000620327               0.000599702               0.000000000               0.000000000               0.000000000               0.000000000               0.000324991               0.002063914               0.000555879              -0.000136118               0.000733337               0.000597219               0.000000000               0.000000000               0.000000000               0.000000000               0.000243076               0.002129288               0.000420186              -0.000175007               0.000768091               0.000593084               0.000000000               0.000000000               0.000000000               0.000000000               0.000208183               0.002157611               0.000334331              -0.000191632               0.000783074               0.000591442               0.000000000               0.000000000               0.000000000               0.000000000               0.000191974               0.002174513               0.000271623              -0.000199824               0.000791438               0.000591615               0.000000000               0.000000000               0.000000000               0.000000000               0.000182447               0.002194243               0.000220026              -0.000205862               0.000800028               0.000594166               0.000000000               0.000000000               0.000000000               0.000000000               0.000169014               0.002218285               0.000173850              -0.000213905               0.000810722               0.000596818               0.000000000               0.000000000               0.000000000               0.000000000               0.000148015               0.002245206               0.000134817              -0.000225144               0.000823443               0.000598298               0.000000000               0.000000000               0.000000000               0.000000000               0.000122809               0.002269795               0.000103090              -0.000237671               0.000835814               0.000598144               0.000000000               0.000000000               0.000000000               0.000000000               0.000101339               0.002289053               0.000076231              -0.000248129               0.000845720               0.000597591               0.000000000               0.000000000               0.000000000               0.000000000               0.000088704               0.002302425               0.000052142              -0.000254538               0.000852313               0.000597775               0.000000000               0.000000000               0.000000000               0.000000000               0.000079805               0.002321337               0.000033519              -0.000260240               0.000860518               0.000600278               0.000000000               0.000000000               0.000000000               0.000000000               0.000069640               0.002359830               0.000021081              -0.000268863               0.000876223               0.000607360               0.000000000               0.000000000               0.000000000               0.000000000               0.000055455               0.002414298               0.000009267              -0.000280991               0.000898422               0.000617431               0.000000000               0.000000000               0.000000000               0.000000000               0.000040604               0.002480264               0.000000527              -0.000294806               0.000925015               0.000630209               0.000000000               0.000000000               0.000000000               0.000000000               0.000033055               0.002518954              -0.000001476              -0.000302473               0.000940467               0.000637994               0.000000000               0.000000000               0.000000000               0.000000000               0.000850233               0.001363083               0.000899433               0.000148450               0.000404873               0.000553322               0.000000000               0.000000000               0.000000000               0.000000000               0.000577105               0.001558079               0.000775918               0.000021653               0.000512136               0.000533790               0.000000000               0.000000000               0.000000000               0.000000000               0.000344324               0.001861363               0.000611591              -0.000103549               0.000654964               0.000551415               0.000000000               0.000000000               0.000000000               0.000000000               0.000257979               0.001987488               0.000484804              -0.000151694               0.000713054               0.000561360               0.000000000               0.000000000               0.000000000               0.000000000               0.000221580               0.002054803               0.000395068              -0.000173758               0.000742847               0.000569089               0.000000000               0.000000000               0.000000000               0.000000000               0.000202682               0.002095855               0.000325359              -0.000185976               0.000760603               0.000574627               0.000000000               0.000000000               0.000000000               0.000000000               0.000189971               0.002128530               0.000265107              -0.000194827               0.000774445               0.000579619               0.000000000               0.000000000               0.000000000               0.000000000               0.000176069               0.002163023               0.000211532              -0.000204352               0.000789118               0.000584766               0.000000000               0.000000000               0.000000000               0.000000000               0.000160249               0.002201606               0.000167626              -0.000215107               0.000805563               0.000590457               0.000000000               0.000000000               0.000000000               0.000000000               0.000136644               0.002237197               0.000132598              -0.000228408               0.000821861               0.000593453               0.000000000               0.000000000               0.000000000               0.000000000               0.000114080               0.002270818               0.000105378              -0.000241071               0.000837289               0.000596217               0.000000000               0.000000000               0.000000000               0.000000000               0.000100298               0.002299290               0.000079665              -0.000249799               0.000849689               0.000599890               0.000000000               0.000000000               0.000000000               0.000000000               0.000095280               0.002333861               0.000055665              -0.000256002               0.000863280               0.000607278               0.000000000               0.000000000               0.000000000               0.000000000               0.000091169               0.002380331               0.000036176              -0.000263352               0.000881220               0.000617868               0.000000000               0.000000000               0.000000000               0.000000000               0.000084685               0.002445837               0.000017491              -0.000273972               0.000906595               0.000632623               0.000000000               0.000000000               0.000000000               0.000000000               0.000078220               0.002534242               0.000003874              -0.000287447               0.000940555               0.000653108               0.000000000               0.000000000               0.000000000               0.000000000               0.000067459               0.002575427              -0.000002944              -0.000296630               0.000957344               0.000660713               0.000000000               0.000000000               0.000000000               0.000000000               0.000796672               0.001018970               0.000768415               0.000171379               0.000282527               0.000453905               0.000000000               0.000000000               0.000000000               0.000000000               0.000597908               0.001271720               0.000735258               0.000065249               0.000402153               0.000467401               0.000000000               0.000000000               0.000000000               0.000000000               0.000393633               0.001627797               0.000651465              -0.000055863               0.000561214               0.000505351               0.000000000               0.000000000               0.000000000               0.000000000               0.000306548               0.001812361               0.000546343              -0.000111590               0.000641311               0.000529721               0.000000000               0.000000000               0.000000000               0.000000000               0.000261173               0.001921131               0.000457830              -0.000142201               0.000687771               0.000545570               0.000000000               0.000000000               0.000000000               0.000000000               0.000236429               0.001988796               0.000384435              -0.000159938               0.000716238               0.000556300               0.000000000               0.000000000               0.000000000               0.000000000               0.000219752               0.002037606               0.000318645              -0.000172294               0.000736626               0.000564333               0.000000000               0.000000000               0.000000000               0.000000000               0.000206493               0.002085746               0.000260520              -0.000183283               0.000756336               0.000573053               0.000000000               0.000000000               0.000000000               0.000000000               0.000192298               0.002136050               0.000211420              -0.000194894               0.000776974               0.000582080               0.000000000               0.000000000               0.000000000               0.000000000               0.000173494               0.002186206               0.000170718              -0.000208215               0.000798133               0.000589918               0.000000000               0.000000000               0.000000000               0.000000000               0.000150749               0.002234096               0.000142197              -0.000222731               0.000818935               0.000596204               0.000000000               0.000000000               0.000000000               0.000000000               0.000132954               0.002274995               0.000117639              -0.000234516               0.000836496               0.000601980               0.000000000               0.000000000               0.000000000               0.000000000               0.000125572               0.002318882               0.000090699              -0.000242770               0.000853877               0.000611106               0.000000000               0.000000000               0.000000000               0.000000000               0.000121045               0.002372815               0.000061612              -0.000251209               0.000874667               0.000623458               0.000000000               0.000000000               0.000000000               0.000000000               0.000115233               0.002443632               0.000032806              -0.000262241               0.000901949               0.000639708               0.000000000               0.000000000               0.000000000               0.000000000               0.000110767               0.002533492               0.000011062              -0.000275148               0.000936205               0.000661057               0.000000000               0.000000000               0.000000000               0.000000000               0.000098976               0.002574768              -0.000000720              -0.000284729               0.000953157               0.000668428               0.000000000               0.000000000               0.000000000               0.000000000               0.000708830               0.000715789               0.000617934               0.000176335               0.000179815               0.000356150               0.000000000               0.000000000               0.000000000               0.000000000               0.000603344               0.000991878               0.000660945               0.000102268               0.000296533               0.000398801               0.000000000               0.000000000               0.000000000               0.000000000               0.000455819               0.001367868               0.000652573              -0.000000052               0.000455969               0.000455916               0.000000000               0.000000000               0.000000000               0.000000000               0.000379454               0.001598068               0.000576758              -0.000057464               0.000551839               0.000494375               0.000000000               0.000000000               0.000000000               0.000000000               0.000325695               0.001744442               0.000497956              -0.000095920               0.000613448               0.000517528               0.000000000               0.000000000               0.000000000               0.000000000               0.000290631               0.001842495               0.000426377              -0.000121325               0.000654601               0.000533275               0.000000000               0.000000000               0.000000000               0.000000000               0.000266835               0.001913727               0.000361026              -0.000139153               0.000684287               0.000545134               0.000000000               0.000000000               0.000000000               0.000000000               0.000251804               0.001979271               0.000302101              -0.000152982               0.000710744               0.000557762               0.000000000               0.000000000               0.000000000               0.000000000               0.000236041               0.002045686               0.000249121              -0.000167195               0.000737620               0.000570425               0.000000000               0.000000000               0.000000000               0.000000000               0.000220003               0.002113320               0.000205632              -0.000181664               0.000764988               0.000583324               0.000000000               0.000000000               0.000000000               0.000000000               0.000200512               0.002178680               0.000175400              -0.000197143               0.000791933               0.000594791               0.000000000               0.000000000               0.000000000               0.000000000               0.000179307               0.002235875               0.000152129              -0.000212244               0.000816032               0.000603788               0.000000000               0.000000000               0.000000000               0.000000000               0.000163235               0.002291104               0.000124090              -0.000225174               0.000838752               0.000613577               0.000000000               0.000000000               0.000000000               0.000000000               0.000153976               0.002354876               0.000088209              -0.000236618               0.000863823               0.000627206               0.000000000               0.000000000               0.000000000               0.000000000               0.000147681               0.002431585               0.000051955              -0.000248567               0.000893376               0.000644809               0.000000000               0.000000000               0.000000000               0.000000000               0.000141600               0.002526231               0.000022628              -0.000262678               0.000929628               0.000666950               0.000000000               0.000000000               0.000000000               0.000000000               0.000127575               0.002570620               0.000005749              -0.000273486               0.000948027               0.000674540               0.000000000               0.000000000               0.000000000               0.000000000               0.000594069               0.000467237               0.000463611               0.000164369               0.000100954               0.000265323               0.000000000               0.000000000               0.000000000               0.000000000               0.000595318               0.000736574               0.000557153               0.000131171               0.000201798               0.000332969               0.000000000               0.000000000               0.000000000               0.000000000               0.000522539               0.001102814               0.000606766               0.000058099               0.000348234               0.000406333               0.000000000               0.000000000               0.000000000               0.000000000               0.000463844               0.001359071               0.000562311               0.000004057               0.000451667               0.000455723               0.000000000               0.000000000               0.000000000               0.000000000               0.000410910               0.001538719               0.000500131              -0.000038249               0.000525651               0.000487402               0.000000000               0.000000000               0.000000000               0.000000000               0.000364249               0.001668018               0.000437467              -0.000071909               0.000579970               0.000508061               0.000000000               0.000000000               0.000000000               0.000000000               0.000330022               0.001767182               0.000377726              -0.000097140               0.000621434               0.000524295               0.000000000               0.000000000               0.000000000               0.000000000               0.000303906               0.001852555               0.000321858              -0.000117604               0.000656714               0.000539109               0.000000000               0.000000000               0.000000000               0.000000000               0.000283752               0.001937543               0.000271019              -0.000135785               0.000691103               0.000555317               0.000000000               0.000000000               0.000000000               0.000000000               0.000267460               0.002023887               0.000228728              -0.000152688               0.000725518               0.000572830               0.000000000               0.000000000               0.000000000               0.000000000               0.000252103               0.002109165               0.000197959              -0.000169107               0.000759417               0.000590310               0.000000000               0.000000000               0.000000000               0.000000000               0.000231747               0.002187474               0.000173991              -0.000186529               0.000791327               0.000604798               0.000000000               0.000000000               0.000000000               0.000000000               0.000211607               0.002255471               0.000148219              -0.000202581               0.000819343               0.000616762               0.000000000               0.000000000               0.000000000               0.000000000               0.000198183               0.002324893               0.000114734              -0.000216292               0.000847054               0.000630762               0.000000000               0.000000000               0.000000000               0.000000000               0.000192213               0.002412555               0.000073963              -0.000229489               0.000880673               0.000651184               0.000000000               0.000000000               0.000000000               0.000000000               0.000184764               0.002517768               0.000034154              -0.000245434               0.000921059               0.000675625               0.000000000               0.000000000               0.000000000               0.000000000               0.000168304               0.002565681               0.000012309              -0.000257596               0.000941084               0.000683488               0.000000000               0.000000000               0.000000000               0.000000000               0.000465030               0.000279198               0.000320664               0.000139485               0.000046570               0.000186055               0.000000000               0.000000000               0.000000000               0.000000000               0.000572910               0.000522672               0.000432465               0.000149506               0.000124387               0.000273892               0.000000000               0.000000000               0.000000000               0.000000000               0.000583749               0.000856341               0.000510734               0.000111862               0.000248157               0.000360019               0.000000000               0.000000000               0.000000000               0.000000000               0.000549653               0.001121377               0.000493888               0.000065947               0.000351806               0.000417753               0.000000000               0.000000000               0.000000000               0.000000000               0.000502102               0.001326201               0.000450941               0.000022512               0.000434558               0.000457071               0.000000000               0.000000000               0.000000000               0.000000000               0.000450271               0.001482857               0.000402402              -0.000016506               0.000499783               0.000483277               0.000000000               0.000000000               0.000000000               0.000000000               0.000404657               0.001610168               0.000352969              -0.000049525               0.000553225               0.000503701               0.000000000               0.000000000               0.000000000               0.000000000               0.000367805               0.001720585               0.000304472              -0.000077146               0.000599238               0.000522092               0.000000000               0.000000000               0.000000000               0.000000000               0.000337627               0.001820780               0.000261392              -0.000100987               0.000640583               0.000539596               0.000000000               0.000000000               0.000000000               0.000000000               0.000316174               0.001919994               0.000226609              -0.000121434               0.000680470               0.000559036               0.000000000               0.000000000               0.000000000               0.000000000               0.000302969               0.002022007               0.000198623              -0.000139137               0.000720375               0.000581237               0.000000000               0.000000000               0.000000000               0.000000000               0.000288606               0.002121744               0.000175130              -0.000156990               0.000759571               0.000602581               0.000000000               0.000000000               0.000000000               0.000000000               0.000271278               0.002210643               0.000153441              -0.000174601               0.000795074               0.000620473               0.000000000               0.000000000               0.000000000               0.000000000               0.000255982               0.002294210               0.000124585              -0.000190782               0.000828323               0.000637541               0.000000000               0.000000000               0.000000000               0.000000000               0.000248564               0.002391409               0.000085264              -0.000205714               0.000865700               0.000659986               0.000000000               0.000000000               0.000000000               0.000000000               0.000247803               0.002506409               0.000042024              -0.000220375               0.000908919               0.000688545               0.000000000               0.000000000               0.000000000               0.000000000               0.000238064               0.002561522               0.000018372              -0.000230916               0.000930804               0.000699888               0.000000000               0.000000000               0.000000000               0.000000000               0.000348463               0.000153399               0.000196188               0.000111498               0.000013966               0.000125464               0.000000000               0.000000000               0.000000000               0.000000000               0.000543868               0.000361230               0.000293621               0.000158795               0.000067477               0.000226272               0.000000000               0.000000000               0.000000000               0.000000000               0.000632062               0.000654532               0.000369809               0.000155205               0.000166440               0.000321645               0.000000000               0.000000000               0.000000000               0.000000000               0.000627352               0.000918703               0.000369708               0.000120418               0.000266092               0.000386510               0.000000000               0.000000000               0.000000000               0.000000000               0.000585414               0.001136319               0.000344632               0.000077490               0.000352939               0.000430429               0.000000000               0.000000000               0.000000000               0.000000000               0.000531853               0.001313050               0.000312236               0.000035313               0.000425908               0.000461221               0.000000000               0.000000000               0.000000000               0.000000000               0.000478680               0.001463386               0.000277202              -0.000003419               0.000488930               0.000485511               0.000000000               0.000000000               0.000000000               0.000000000               0.000434786               0.001594976               0.000240451              -0.000036328               0.000543763               0.000507435               0.000000000               0.000000000               0.000000000               0.000000000               0.000397448               0.001710322               0.000207976              -0.000064747               0.000591684               0.000526937               0.000000000               0.000000000               0.000000000               0.000000000               0.000368313               0.001819682               0.000185426              -0.000089343               0.000636335               0.000546993               0.000000000               0.000000000               0.000000000               0.000000000               0.000349665               0.001930521               0.000166920              -0.000110190               0.000680231               0.000570040               0.000000000               0.000000000               0.000000000               0.000000000               0.000339760               0.002046153               0.000146955              -0.000128359               0.000724831               0.000596472               0.000000000               0.000000000               0.000000000               0.000000000               0.000324956               0.002159849               0.000126350              -0.000148122               0.000769316               0.000621194               0.000000000               0.000000000               0.000000000               0.000000000               0.000310807               0.002267465               0.000104771              -0.000166880               0.000811441               0.000644561               0.000000000               0.000000000               0.000000000               0.000000000               0.000312187               0.002376497               0.000077113              -0.000179991               0.000852155               0.000672163               0.000000000               0.000000000               0.000000000               0.000000000               0.000327370               0.002498935               0.000041024              -0.000189603               0.000896171               0.000706568               0.000000000               0.000000000               0.000000000               0.000000000               0.000332042               0.002561918               0.000020059              -0.000195723               0.000919205               0.000723482               0.000000000               0.000000000               0.000000000               0.000000000               0.000269721               0.000083954               0.000092903               0.000090650              -0.000002233               0.000088418               0.000000000               0.000000000               0.000000000               0.000000000               0.000521600               0.000262248               0.000148532               0.000162817               0.000033143               0.000195960               0.000000000               0.000000000               0.000000000               0.000000000               0.000664047               0.000523191               0.000194587               0.000183617               0.000113190               0.000296807               0.000000000               0.000000000               0.000000000               0.000000000               0.000680498               0.000779836               0.000198338               0.000157706               0.000207374               0.000365080               0.000000000               0.000000000               0.000000000               0.000000000               0.000646366               0.001003987               0.000187043               0.000116888               0.000295697               0.000412584               0.000000000               0.000000000               0.000000000               0.000000000               0.000591863               0.001192304               0.000171259               0.000072910               0.000373127               0.000446037               0.000000000               0.000000000               0.000000000               0.000000000               0.000534477               0.001355041               0.000153592               0.000031048               0.000441326               0.000472375               0.000000000               0.000000000               0.000000000               0.000000000               0.000484391               0.001500252               0.000134171              -0.000005885               0.000502041               0.000496156               0.000000000               0.000000000               0.000000000               0.000000000               0.000445463               0.001630170               0.000115571              -0.000036723               0.000555625               0.000518903               0.000000000               0.000000000               0.000000000               0.000000000               0.000413398               0.001749584               0.000104043              -0.000063674               0.000604414               0.000540740               0.000000000               0.000000000               0.000000000               0.000000000               0.000385900               0.001865298               0.000098155              -0.000088449               0.000651243               0.000562794               0.000000000               0.000000000               0.000000000               0.000000000               0.000367401               0.001986754               0.000086109              -0.000110569               0.000699101               0.000588532               0.000000000               0.000000000               0.000000000               0.000000000               0.000358814               0.002115565               0.000068544              -0.000129890               0.000748478               0.000618588               0.000000000               0.000000000               0.000000000               0.000000000               0.000359153               0.002246397               0.000058995              -0.000146117               0.000797497               0.000651380               0.000000000               0.000000000               0.000000000               0.000000000               0.000371627               0.002375294               0.000048658              -0.000157551               0.000844274               0.000686723               0.000000000               0.000000000               0.000000000               0.000000000               0.000400433               0.002505434               0.000026102              -0.000163016               0.000889475               0.000726459               0.000000000               0.000000000               0.000000000               0.000000000               0.000421346               0.002571646               0.000012036              -0.000163450               0.000911690               0.000748240               0.000000000               0.000000000               0.000000000               0.000000000               0.000000000               0.000000000               0.000000000               0.000000000               0.000000000               0.000000000               0.000000000               0.000000000               0.000000000               0.000000000               0.000000000               0.000000000               0.000000000               0.000000000               0.000000000               0.000000000               0.000000000               0.000000000               0.000000000               0.000000000               0.000000000               0.000000000               0.000000000               0.000000000               0.000000000               0.000000000               0.000000000               0.000000000               0.000000000               0.000000000               0.000000000               0.000000000               0.000000000               0.000000000               0.000000000               0.000000000               0.000000000               0.000000000               0.000000000               0.000000000               0.000000000               0.000000000               0.000000000               0.000000000               0.000000000               0.000000000               0.000000000               0.000000000               0.000000000               0.000000000               0.000000000               0.000000000               0.000000000               0.000000000               0.000000000               0.000000000               0.000000000               0.000000000               0.000000000               0.000000000               0.000000000               0.000000000               0.000000000               0.000000000               0.000000000               0.000000000               0.000000000               0.000000000               0.000000000               0.000000000               0.000000000               0.000000000               0.000000000               0.000000000               0.000000000               0.000000000               0.000000000               0.000000000               0.000000000               0.000000000               0.000000000               0.000000000               0.000000000               0.000000000               0.000000000               0.000000000               0.000000000               0.000000000               0.000000000               0.000000000               0.000000000               0.000000000               0.000000000               0.000000000               0.000000000               0.000000000               0.000000000               0.000000000               0.000000000               0.000000000               0.000000000               0.000000000               0.000000000               0.000000000               0.000000000               0.000000000               0.000000000               0.000000000               0.000000000               0.000000000               0.000000000               0.000000000               0.000000000               0.000000000               0.000000000               0.000000000               0.000000000               0.000000000               0.000000000               0.000000000               0.000000000               0.000000000               0.000000000               0.000000000               0.000000000               0.000000000               0.000000000               0.000000000               0.000000000               0.000000000               0.000000000               0.000000000               0.000000000               0.000000000               0.000000000               0.000000000               0.000000000               0.000000000               0.000000000               0.000000000               0.000000000               0.000000000               0.000000000               0.000000000               0.000000000               0.000000000               0.000000000               0.000000000               0.000000000               0.000000000               0.000000000               0.000000000               0.000000000               0.000000000               0.000000000               0.000000000               0.000000000               0.000000000               0.000000000               0.000000000               0.000000000               0.000000000               0.000000000               0.000000000               0.000000000               0.000000000               0.000000000               0.000000000               0.000000000               0.000000000 </DataArray>
</PointData>
</Piece>
</UnstructuredGrid> </VTKFile>
