<?xml version="1.0"?>
<VTKFile type="UnstructuredGrid" version="0.1">
<UnstructuredGrid>
<Piece NumberOfPoints="      1156" NumberOfCells="      1024">
<Points>
<DataArray type="Float64"                                    Name="coordinates"                                                      NumberOfComponents=" 3" format="ascii">
              0.133000000               0.000000000               0.000000000               0.155937500               0.000000000               0.000000000               0.178875000               0.000000000               0.000000000               0.201812500               0.000000000               0.000000000               0.224750000               0.000000000               0.000000000               0.247687500               0.000000000               0.000000000               0.270625000               0.000000000               0.000000000               0.293562500               0.000000000               0.000000000               0.316500000               0.000000000               0.000000000               0.339437500               0.000000000               0.000000000               0.362375000               0.000000000               0.000000000               0.385312500               0.000000000               0.000000000               0.408250000               0.000000000               0.000000000               0.431187500               0.000000000               0.000000000               0.454125000               0.000000000               0.000000000               0.477062500               0.000000000               0.000000000               0.500000000               0.000000000               0.000000000               0.132359569               0.013036280               0.000000000               0.155337096               0.016127762               0.000000000               0.178314623               0.019219245               0.000000000               0.201292150               0.022310727               0.000000000               0.224269676               0.025402210               0.000000000               0.247247203               0.028493692               0.000000000               0.270224730               0.031585175               0.000000000               0.293202257               0.034676657               0.000000000               0.316179784               0.037768140               0.000000000               0.339157311               0.040859622               0.000000000               0.362134838               0.043951105               0.000000000               0.385112365               0.047042587               0.000000000               0.408089892               0.050134070               0.000000000               0.431067419               0.053225552               0.000000000               0.454044946               0.056317035               0.000000000               0.477022473               0.059408517               0.000000000               0.500000000               0.062500000               0.000000000               0.130444442               0.025947013               0.000000000               0.153541665               0.032137825               0.000000000               0.176638887               0.038328636               0.000000000               0.199736109               0.044519448               0.000000000               0.222833332               0.050710260               0.000000000               0.245930554               0.056901071               0.000000000               0.269027776               0.063091883               0.000000000               0.292124999               0.069282695               0.000000000               0.315222221               0.075473506               0.000000000               0.338319444               0.081664318               0.000000000               0.361416666               0.087855130               0.000000000               0.384513888               0.094045942               0.000000000               0.407611111               0.100236753               0.000000000               0.430708333               0.106427565               0.000000000               0.453805555               0.112618377               0.000000000               0.476902778               0.118809188               0.000000000               0.500000000               0.125000000               0.000000000               0.127273065               0.038607862               0.000000000               0.150568498               0.047913621               0.000000000               0.173863932               0.057219379               0.000000000               0.197159365               0.066525138               0.000000000               0.220454798               0.075830897               0.000000000               0.243750232               0.085136655               0.000000000               0.267045665               0.094442414               0.000000000               0.290341099               0.103748172               0.000000000               0.313636532               0.113053931               0.000000000               0.336931966               0.122359690               0.000000000               0.360227399               0.131665448               0.000000000               0.383522833               0.140971207               0.000000000               0.406818266               0.150276966               0.000000000               0.430113700               0.159582724               0.000000000               0.453409133               0.168888483               0.000000000               0.476704567               0.178194241               0.000000000               0.500000000               0.187500000               0.000000000               0.122875978               0.050896897               0.000000000               0.146446229               0.063340840               0.000000000               0.170016481               0.075784784               0.000000000               0.193586732               0.088228728               0.000000000               0.217156983               0.100672672               0.000000000               0.240727235               0.113116616               0.000000000               0.264297486               0.125560560               0.000000000               0.287867738               0.138004504               0.000000000               0.311437989               0.150448448               0.000000000               0.335008240               0.162892392               0.000000000               0.358578492               0.175336336               0.000000000               0.382148743               0.187780280               0.000000000               0.405718994               0.200224224               0.000000000               0.429289246               0.212668168               0.000000000               0.452859497               0.225112112               0.000000000               0.476429749               0.237556056               0.000000000               0.500000000               0.250000000               0.000000000               0.117295528               0.062695766               0.000000000               0.141214558               0.078308531               0.000000000               0.165133587               0.093921295               0.000000000               0.189052617               0.109534060               0.000000000               0.212971646               0.125146824               0.000000000               0.236890676               0.140759589               0.000000000               0.260809705               0.156372354               0.000000000               0.284728735               0.171985118               0.000000000               0.308647764               0.187597883               0.000000000               0.332566794               0.203210648               0.000000000               0.356485823               0.218823412               0.000000000               0.380404853               0.234436177               0.000000000               0.404323882               0.250048941               0.000000000               0.428242912               0.265661706               0.000000000               0.452161941               0.281274471               0.000000000               0.476080971               0.296887235               0.000000000               0.500000000               0.312500000               0.000000000               0.110585458               0.073890841               0.000000000               0.134923867               0.092710163               0.000000000               0.159262276               0.111529486               0.000000000               0.183600685               0.130348808               0.000000000               0.207939094               0.149168131               0.000000000               0.232277503               0.167987453               0.000000000               0.256615912               0.186806776               0.000000000               0.280954320               0.205626098               0.000000000               0.305292729               0.224445420               0.000000000               0.329631138               0.243264743               0.000000000               0.353969547               0.262084065               0.000000000               0.378307956               0.280903388               0.000000000               0.402646365               0.299722710               0.000000000               0.426984773               0.318542033               0.000000000               0.451323182               0.337361355               0.000000000               0.475661591               0.356180678               0.000000000               0.500000000               0.375000000               0.000000000               0.102810390               0.084374307               0.000000000               0.127634741               0.106444663               0.000000000               0.152459092               0.128515018               0.000000000               0.177283442               0.150585374               0.000000000               0.202107793               0.172655730               0.000000000               0.226932143               0.194726086               0.000000000               0.251756494               0.216796442               0.000000000               0.276580845               0.238866798               0.000000000               0.301405195               0.260937153               0.000000000               0.326229546               0.283007509               0.000000000               0.351053896               0.305077865               0.000000000               0.375878247               0.327148221               0.000000000               0.400702598               0.349218577               0.000000000               0.425526948               0.371288933               0.000000000               0.450351299               0.393359288               0.000000000               0.475175649               0.415429644               0.000000000               0.500000000               0.437500000               0.000000000               0.094045202               0.094045202               0.000000000               0.119417377               0.119417377               0.000000000               0.144789552               0.144789552               0.000000000               0.170161727               0.170161727               0.000000000               0.195533901               0.195533901               0.000000000               0.220906076               0.220906076               0.000000000               0.246278251               0.246278251               0.000000000               0.271650426               0.271650426               0.000000000               0.297022601               0.297022601               0.000000000               0.322394776               0.322394776               0.000000000               0.347766951               0.347766951               0.000000000               0.373139126               0.373139126               0.000000000               0.398511300               0.398511300               0.000000000               0.423883475               0.423883475               0.000000000               0.449255650               0.449255650               0.000000000               0.474627825               0.474627825               0.000000000               0.500000000               0.500000000               0.000000000               0.084374307               0.102810390               0.000000000               0.106444663               0.127634741               0.000000000               0.128515018               0.152459092               0.000000000               0.150585374               0.177283442               0.000000000               0.172655730               0.202107793               0.000000000               0.194726086               0.226932143               0.000000000               0.216796442               0.251756494               0.000000000               0.238866798               0.276580845               0.000000000               0.260937153               0.301405195               0.000000000               0.283007509               0.326229546               0.000000000               0.305077865               0.351053896               0.000000000               0.327148221               0.375878247               0.000000000               0.349218577               0.400702598               0.000000000               0.371288933               0.425526948               0.000000000               0.393359288               0.450351299               0.000000000               0.415429644               0.475175649               0.000000000               0.437500000               0.500000000               0.000000000               0.073890841               0.110585458               0.000000000               0.092710163               0.134923867               0.000000000               0.111529486               0.159262276               0.000000000               0.130348808               0.183600685               0.000000000               0.149168131               0.207939094               0.000000000               0.167987453               0.232277503               0.000000000               0.186806776               0.256615912               0.000000000               0.205626098               0.280954320               0.000000000               0.224445420               0.305292729               0.000000000               0.243264743               0.329631138               0.000000000               0.262084065               0.353969547               0.000000000               0.280903388               0.378307956               0.000000000               0.299722710               0.402646365               0.000000000               0.318542033               0.426984773               0.000000000               0.337361355               0.451323182               0.000000000               0.356180678               0.475661591               0.000000000               0.375000000               0.500000000               0.000000000               0.062695766               0.117295528               0.000000000               0.078308531               0.141214558               0.000000000               0.093921295               0.165133587               0.000000000               0.109534060               0.189052617               0.000000000               0.125146824               0.212971646               0.000000000               0.140759589               0.236890676               0.000000000               0.156372354               0.260809705               0.000000000               0.171985118               0.284728735               0.000000000               0.187597883               0.308647764               0.000000000               0.203210648               0.332566794               0.000000000               0.218823412               0.356485823               0.000000000               0.234436177               0.380404853               0.000000000               0.250048941               0.404323882               0.000000000               0.265661706               0.428242912               0.000000000               0.281274471               0.452161941               0.000000000               0.296887235               0.476080971               0.000000000               0.312500000               0.500000000               0.000000000               0.050896897               0.122875978               0.000000000               0.063340840               0.146446229               0.000000000               0.075784784               0.170016481               0.000000000               0.088228728               0.193586732               0.000000000               0.100672672               0.217156983               0.000000000               0.113116616               0.240727235               0.000000000               0.125560560               0.264297486               0.000000000               0.138004504               0.287867738               0.000000000               0.150448448               0.311437989               0.000000000               0.162892392               0.335008240               0.000000000               0.175336336               0.358578492               0.000000000               0.187780280               0.382148743               0.000000000               0.200224224               0.405718994               0.000000000               0.212668168               0.429289246               0.000000000               0.225112112               0.452859497               0.000000000               0.237556056               0.476429749               0.000000000               0.250000000               0.500000000               0.000000000               0.038607862               0.127273065               0.000000000               0.047913621               0.150568498               0.000000000               0.057219379               0.173863932               0.000000000               0.066525138               0.197159365               0.000000000               0.075830897               0.220454798               0.000000000               0.085136655               0.243750232               0.000000000               0.094442414               0.267045665               0.000000000               0.103748172               0.290341099               0.000000000               0.113053931               0.313636532               0.000000000               0.122359690               0.336931966               0.000000000               0.131665448               0.360227399               0.000000000               0.140971207               0.383522833               0.000000000               0.150276966               0.406818266               0.000000000               0.159582724               0.430113700               0.000000000               0.168888483               0.453409133               0.000000000               0.178194241               0.476704567               0.000000000               0.187500000               0.500000000               0.000000000               0.025947013               0.130444442               0.000000000               0.032137825               0.153541665               0.000000000               0.038328636               0.176638887               0.000000000               0.044519448               0.199736109               0.000000000               0.050710260               0.222833332               0.000000000               0.056901071               0.245930554               0.000000000               0.063091883               0.269027776               0.000000000               0.069282695               0.292124999               0.000000000               0.075473506               0.315222221               0.000000000               0.081664318               0.338319444               0.000000000               0.087855130               0.361416666               0.000000000               0.094045942               0.384513888               0.000000000               0.100236753               0.407611111               0.000000000               0.106427565               0.430708333               0.000000000               0.112618377               0.453805555               0.000000000               0.118809188               0.476902778               0.000000000               0.125000000               0.500000000               0.000000000               0.013036280               0.132359569               0.000000000               0.016127762               0.155337096               0.000000000               0.019219245               0.178314623               0.000000000               0.022310727               0.201292150               0.000000000               0.025402210               0.224269676               0.000000000               0.028493692               0.247247203               0.000000000               0.031585175               0.270224730               0.000000000               0.034676657               0.293202257               0.000000000               0.037768140               0.316179784               0.000000000               0.040859622               0.339157311               0.000000000               0.043951105               0.362134838               0.000000000               0.047042587               0.385112365               0.000000000               0.050134070               0.408089892               0.000000000               0.053225552               0.431067419               0.000000000               0.056317035               0.454044946               0.000000000               0.059408517               0.477022473               0.000000000               0.062500000               0.500000000               0.000000000               0.000000000               0.133000000               0.000000000               0.000000000               0.155937500               0.000000000               0.000000000               0.178875000               0.000000000               0.000000000               0.201812500               0.000000000               0.000000000               0.224750000               0.000000000               0.000000000               0.247687500               0.000000000               0.000000000               0.270625000               0.000000000               0.000000000               0.293562500               0.000000000               0.000000000               0.316500000               0.000000000               0.000000000               0.339437500               0.000000000               0.000000000               0.362375000               0.000000000               0.000000000               0.385312500               0.000000000               0.000000000               0.408250000               0.000000000               0.000000000               0.431187500               0.000000000               0.000000000               0.454125000               0.000000000               0.000000000               0.477062500               0.000000000               0.000000000               0.500000000               0.000000000               0.133000000               0.000000000               0.000000000               0.155937500               0.000000000               0.000000000               0.178875000               0.000000000               0.000000000               0.201812500               0.000000000               0.000000000               0.224750000               0.000000000               0.000000000               0.247687500               0.000000000               0.000000000               0.270625000               0.000000000               0.000000000               0.293562500               0.000000000               0.000000000               0.316500000               0.000000000               0.000000000               0.339437500               0.000000000               0.000000000               0.362375000               0.000000000               0.000000000               0.385312500               0.000000000               0.000000000               0.408250000               0.000000000               0.000000000               0.431187500               0.000000000               0.000000000               0.454125000               0.000000000               0.000000000               0.477062500               0.000000000               0.000000000               0.500000000               0.000000000               0.000000000               0.132359569              -0.013036280               0.000000000               0.155337096              -0.016127762               0.000000000               0.178314623              -0.019219245               0.000000000               0.201292150              -0.022310727               0.000000000               0.224269676              -0.025402210               0.000000000               0.247247203              -0.028493692               0.000000000               0.270224730              -0.031585175               0.000000000               0.293202257              -0.034676657               0.000000000               0.316179784              -0.037768140               0.000000000               0.339157311              -0.040859622               0.000000000               0.362134838              -0.043951105               0.000000000               0.385112365              -0.047042587               0.000000000               0.408089892              -0.050134070               0.000000000               0.431067419              -0.053225552               0.000000000               0.454044946              -0.056317035               0.000000000               0.477022473              -0.059408517               0.000000000               0.500000000              -0.062500000               0.000000000               0.130444442              -0.025947013               0.000000000               0.153541665              -0.032137825               0.000000000               0.176638887              -0.038328636               0.000000000               0.199736109              -0.044519448               0.000000000               0.222833332              -0.050710260               0.000000000               0.245930554              -0.056901071               0.000000000               0.269027776              -0.063091883               0.000000000               0.292124999              -0.069282695               0.000000000               0.315222221              -0.075473506               0.000000000               0.338319444              -0.081664318               0.000000000               0.361416666              -0.087855130               0.000000000               0.384513888              -0.094045942               0.000000000               0.407611111              -0.100236753               0.000000000               0.430708333              -0.106427565               0.000000000               0.453805555              -0.112618377               0.000000000               0.476902778              -0.118809188               0.000000000               0.500000000              -0.125000000               0.000000000               0.127273065              -0.038607862               0.000000000               0.150568498              -0.047913621               0.000000000               0.173863932              -0.057219379               0.000000000               0.197159365              -0.066525138               0.000000000               0.220454798              -0.075830897               0.000000000               0.243750232              -0.085136655               0.000000000               0.267045665              -0.094442414               0.000000000               0.290341099              -0.103748172               0.000000000               0.313636532              -0.113053931               0.000000000               0.336931966              -0.122359690               0.000000000               0.360227399              -0.131665448               0.000000000               0.383522833              -0.140971207               0.000000000               0.406818266              -0.150276966               0.000000000               0.430113700              -0.159582724               0.000000000               0.453409133              -0.168888483               0.000000000               0.476704567              -0.178194241               0.000000000               0.500000000              -0.187500000               0.000000000               0.122875978              -0.050896897               0.000000000               0.146446229              -0.063340840               0.000000000               0.170016481              -0.075784784               0.000000000               0.193586732              -0.088228728               0.000000000               0.217156983              -0.100672672               0.000000000               0.240727235              -0.113116616               0.000000000               0.264297486              -0.125560560               0.000000000               0.287867738              -0.138004504               0.000000000               0.311437989              -0.150448448               0.000000000               0.335008240              -0.162892392               0.000000000               0.358578492              -0.175336336               0.000000000               0.382148743              -0.187780280               0.000000000               0.405718994              -0.200224224               0.000000000               0.429289246              -0.212668168               0.000000000               0.452859497              -0.225112112               0.000000000               0.476429749              -0.237556056               0.000000000               0.500000000              -0.250000000               0.000000000               0.117295528              -0.062695766               0.000000000               0.141214558              -0.078308531               0.000000000               0.165133587              -0.093921295               0.000000000               0.189052617              -0.109534060               0.000000000               0.212971646              -0.125146824               0.000000000               0.236890676              -0.140759589               0.000000000               0.260809705              -0.156372354               0.000000000               0.284728735              -0.171985118               0.000000000               0.308647764              -0.187597883               0.000000000               0.332566794              -0.203210648               0.000000000               0.356485823              -0.218823412               0.000000000               0.380404853              -0.234436177               0.000000000               0.404323882              -0.250048941               0.000000000               0.428242912              -0.265661706               0.000000000               0.452161941              -0.281274471               0.000000000               0.476080971              -0.296887235               0.000000000               0.500000000              -0.312500000               0.000000000               0.110585458              -0.073890841               0.000000000               0.134923867              -0.092710163               0.000000000               0.159262276              -0.111529486               0.000000000               0.183600685              -0.130348808               0.000000000               0.207939094              -0.149168131               0.000000000               0.232277503              -0.167987453               0.000000000               0.256615912              -0.186806776               0.000000000               0.280954320              -0.205626098               0.000000000               0.305292729              -0.224445420               0.000000000               0.329631138              -0.243264743               0.000000000               0.353969547              -0.262084065               0.000000000               0.378307956              -0.280903388               0.000000000               0.402646365              -0.299722710               0.000000000               0.426984773              -0.318542033               0.000000000               0.451323182              -0.337361355               0.000000000               0.475661591              -0.356180678               0.000000000               0.500000000              -0.375000000               0.000000000               0.102810390              -0.084374307               0.000000000               0.127634741              -0.106444663               0.000000000               0.152459092              -0.128515018               0.000000000               0.177283442              -0.150585374               0.000000000               0.202107793              -0.172655730               0.000000000               0.226932143              -0.194726086               0.000000000               0.251756494              -0.216796442               0.000000000               0.276580845              -0.238866798               0.000000000               0.301405195              -0.260937153               0.000000000               0.326229546              -0.283007509               0.000000000               0.351053896              -0.305077865               0.000000000               0.375878247              -0.327148221               0.000000000               0.400702598              -0.349218577               0.000000000               0.425526948              -0.371288933               0.000000000               0.450351299              -0.393359288               0.000000000               0.475175649              -0.415429644               0.000000000               0.500000000              -0.437500000               0.000000000               0.094045202              -0.094045202               0.000000000               0.119417377              -0.119417377               0.000000000               0.144789552              -0.144789552               0.000000000               0.170161727              -0.170161727               0.000000000               0.195533901              -0.195533901               0.000000000               0.220906076              -0.220906076               0.000000000               0.246278251              -0.246278251               0.000000000               0.271650426              -0.271650426               0.000000000               0.297022601              -0.297022601               0.000000000               0.322394776              -0.322394776               0.000000000               0.347766951              -0.347766951               0.000000000               0.373139126              -0.373139126               0.000000000               0.398511300              -0.398511300               0.000000000               0.423883475              -0.423883475               0.000000000               0.449255650              -0.449255650               0.000000000               0.474627825              -0.474627825               0.000000000               0.500000000              -0.500000000               0.000000000               0.084374307              -0.102810390               0.000000000               0.106444663              -0.127634741               0.000000000               0.128515018              -0.152459092               0.000000000               0.150585374              -0.177283442               0.000000000               0.172655730              -0.202107793               0.000000000               0.194726086              -0.226932143               0.000000000               0.216796442              -0.251756494               0.000000000               0.238866798              -0.276580845               0.000000000               0.260937153              -0.301405195               0.000000000               0.283007509              -0.326229546               0.000000000               0.305077865              -0.351053896               0.000000000               0.327148221              -0.375878247               0.000000000               0.349218577              -0.400702598               0.000000000               0.371288933              -0.425526948               0.000000000               0.393359288              -0.450351299               0.000000000               0.415429644              -0.475175649               0.000000000               0.437500000              -0.500000000               0.000000000               0.073890841              -0.110585458               0.000000000               0.092710163              -0.134923867               0.000000000               0.111529486              -0.159262276               0.000000000               0.130348808              -0.183600685               0.000000000               0.149168131              -0.207939094               0.000000000               0.167987453              -0.232277503               0.000000000               0.186806776              -0.256615912               0.000000000               0.205626098              -0.280954320               0.000000000               0.224445420              -0.305292729               0.000000000               0.243264743              -0.329631138               0.000000000               0.262084065              -0.353969547               0.000000000               0.280903388              -0.378307956               0.000000000               0.299722710              -0.402646365               0.000000000               0.318542033              -0.426984773               0.000000000               0.337361355              -0.451323182               0.000000000               0.356180678              -0.475661591               0.000000000               0.375000000              -0.500000000               0.000000000               0.062695766              -0.117295528               0.000000000               0.078308531              -0.141214558               0.000000000               0.093921295              -0.165133587               0.000000000               0.109534060              -0.189052617               0.000000000               0.125146824              -0.212971646               0.000000000               0.140759589              -0.236890676               0.000000000               0.156372354              -0.260809705               0.000000000               0.171985118              -0.284728735               0.000000000               0.187597883              -0.308647764               0.000000000               0.203210648              -0.332566794               0.000000000               0.218823412              -0.356485823               0.000000000               0.234436177              -0.380404853               0.000000000               0.250048941              -0.404323882               0.000000000               0.265661706              -0.428242912               0.000000000               0.281274471              -0.452161941               0.000000000               0.296887235              -0.476080971               0.000000000               0.312500000              -0.500000000               0.000000000               0.050896897              -0.122875978               0.000000000               0.063340840              -0.146446229               0.000000000               0.075784784              -0.170016481               0.000000000               0.088228728              -0.193586732               0.000000000               0.100672672              -0.217156983               0.000000000               0.113116616              -0.240727235               0.000000000               0.125560560              -0.264297486               0.000000000               0.138004504              -0.287867738               0.000000000               0.150448448              -0.311437989               0.000000000               0.162892392              -0.335008240               0.000000000               0.175336336              -0.358578492               0.000000000               0.187780280              -0.382148743               0.000000000               0.200224224              -0.405718994               0.000000000               0.212668168              -0.429289246               0.000000000               0.225112112              -0.452859497               0.000000000               0.237556056              -0.476429749               0.000000000               0.250000000              -0.500000000               0.000000000               0.038607862              -0.127273065               0.000000000               0.047913621              -0.150568498               0.000000000               0.057219379              -0.173863932               0.000000000               0.066525138              -0.197159365               0.000000000               0.075830897              -0.220454798               0.000000000               0.085136655              -0.243750232               0.000000000               0.094442414              -0.267045665               0.000000000               0.103748172              -0.290341099               0.000000000               0.113053931              -0.313636532               0.000000000               0.122359690              -0.336931966               0.000000000               0.131665448              -0.360227399               0.000000000               0.140971207              -0.383522833               0.000000000               0.150276966              -0.406818266               0.000000000               0.159582724              -0.430113700               0.000000000               0.168888483              -0.453409133               0.000000000               0.178194241              -0.476704567               0.000000000               0.187500000              -0.500000000               0.000000000               0.025947013              -0.130444442               0.000000000               0.032137825              -0.153541665               0.000000000               0.038328636              -0.176638887               0.000000000               0.044519448              -0.199736109               0.000000000               0.050710260              -0.222833332               0.000000000               0.056901071              -0.245930554               0.000000000               0.063091883              -0.269027776               0.000000000               0.069282695              -0.292124999               0.000000000               0.075473506              -0.315222221               0.000000000               0.081664318              -0.338319444               0.000000000               0.087855130              -0.361416666               0.000000000               0.094045942              -0.384513888               0.000000000               0.100236753              -0.407611111               0.000000000               0.106427565              -0.430708333               0.000000000               0.112618377              -0.453805555               0.000000000               0.118809188              -0.476902778               0.000000000               0.125000000              -0.500000000               0.000000000               0.013036280              -0.132359569               0.000000000               0.016127762              -0.155337096               0.000000000               0.019219245              -0.178314623               0.000000000               0.022310727              -0.201292150               0.000000000               0.025402210              -0.224269676               0.000000000               0.028493692              -0.247247203               0.000000000               0.031585175              -0.270224730               0.000000000               0.034676657              -0.293202257               0.000000000               0.037768140              -0.316179784               0.000000000               0.040859622              -0.339157311               0.000000000               0.043951105              -0.362134838               0.000000000               0.047042587              -0.385112365               0.000000000               0.050134070              -0.408089892               0.000000000               0.053225552              -0.431067419               0.000000000               0.056317035              -0.454044946               0.000000000               0.059408517              -0.477022473               0.000000000               0.062500000              -0.500000000               0.000000000               0.000000000              -0.133000000               0.000000000               0.000000000              -0.155937500               0.000000000               0.000000000              -0.178875000               0.000000000               0.000000000              -0.201812500               0.000000000               0.000000000              -0.224750000               0.000000000               0.000000000              -0.247687500               0.000000000               0.000000000              -0.270625000               0.000000000               0.000000000              -0.293562500               0.000000000               0.000000000              -0.316500000               0.000000000               0.000000000              -0.339437500               0.000000000               0.000000000              -0.362375000               0.000000000               0.000000000              -0.385312500               0.000000000               0.000000000              -0.408250000               0.000000000               0.000000000              -0.431187500               0.000000000               0.000000000              -0.454125000               0.000000000               0.000000000              -0.477062500               0.000000000               0.000000000              -0.500000000               0.000000000              -0.133000000               0.000000000               0.000000000              -0.155937500               0.000000000               0.000000000              -0.178875000               0.000000000               0.000000000              -0.201812500               0.000000000               0.000000000              -0.224750000               0.000000000               0.000000000              -0.247687500               0.000000000               0.000000000              -0.270625000               0.000000000               0.000000000              -0.293562500               0.000000000               0.000000000              -0.316500000               0.000000000               0.000000000              -0.339437500               0.000000000               0.000000000              -0.362375000               0.000000000               0.000000000              -0.385312500               0.000000000               0.000000000              -0.408250000               0.000000000               0.000000000              -0.431187500               0.000000000               0.000000000              -0.454125000               0.000000000               0.000000000              -0.477062500               0.000000000               0.000000000              -0.500000000               0.000000000               0.000000000              -0.132359569              -0.013036280               0.000000000              -0.155337096              -0.016127762               0.000000000              -0.178314623              -0.019219245               0.000000000              -0.201292150              -0.022310727               0.000000000              -0.224269676              -0.025402210               0.000000000              -0.247247203              -0.028493692               0.000000000              -0.270224730              -0.031585175               0.000000000              -0.293202257              -0.034676657               0.000000000              -0.316179784              -0.037768140               0.000000000              -0.339157311              -0.040859622               0.000000000              -0.362134838              -0.043951105               0.000000000              -0.385112365              -0.047042587               0.000000000              -0.408089892              -0.050134070               0.000000000              -0.431067419              -0.053225552               0.000000000              -0.454044946              -0.056317035               0.000000000              -0.477022473              -0.059408517               0.000000000              -0.500000000              -0.062500000               0.000000000              -0.130444442              -0.025947013               0.000000000              -0.153541665              -0.032137825               0.000000000              -0.176638887              -0.038328636               0.000000000              -0.199736109              -0.044519448               0.000000000              -0.222833332              -0.050710260               0.000000000              -0.245930554              -0.056901071               0.000000000              -0.269027776              -0.063091883               0.000000000              -0.292124999              -0.069282695               0.000000000              -0.315222221              -0.075473506               0.000000000              -0.338319444              -0.081664318               0.000000000              -0.361416666              -0.087855130               0.000000000              -0.384513888              -0.094045942               0.000000000              -0.407611111              -0.100236753               0.000000000              -0.430708333              -0.106427565               0.000000000              -0.453805555              -0.112618377               0.000000000              -0.476902778              -0.118809188               0.000000000              -0.500000000              -0.125000000               0.000000000              -0.127273065              -0.038607862               0.000000000              -0.150568498              -0.047913621               0.000000000              -0.173863932              -0.057219379               0.000000000              -0.197159365              -0.066525138               0.000000000              -0.220454798              -0.075830897               0.000000000              -0.243750232              -0.085136655               0.000000000              -0.267045665              -0.094442414               0.000000000              -0.290341099              -0.103748172               0.000000000              -0.313636532              -0.113053931               0.000000000              -0.336931966              -0.122359690               0.000000000              -0.360227399              -0.131665448               0.000000000              -0.383522833              -0.140971207               0.000000000              -0.406818266              -0.150276966               0.000000000              -0.430113700              -0.159582724               0.000000000              -0.453409133              -0.168888483               0.000000000              -0.476704567              -0.178194241               0.000000000              -0.500000000              -0.187500000               0.000000000              -0.122875978              -0.050896897               0.000000000              -0.146446229              -0.063340840               0.000000000              -0.170016481              -0.075784784               0.000000000              -0.193586732              -0.088228728               0.000000000              -0.217156983              -0.100672672               0.000000000              -0.240727235              -0.113116616               0.000000000              -0.264297486              -0.125560560               0.000000000              -0.287867738              -0.138004504               0.000000000              -0.311437989              -0.150448448               0.000000000              -0.335008240              -0.162892392               0.000000000              -0.358578492              -0.175336336               0.000000000              -0.382148743              -0.187780280               0.000000000              -0.405718994              -0.200224224               0.000000000              -0.429289246              -0.212668168               0.000000000              -0.452859497              -0.225112112               0.000000000              -0.476429749              -0.237556056               0.000000000              -0.500000000              -0.250000000               0.000000000              -0.117295528              -0.062695766               0.000000000              -0.141214558              -0.078308531               0.000000000              -0.165133587              -0.093921295               0.000000000              -0.189052617              -0.109534060               0.000000000              -0.212971646              -0.125146824               0.000000000              -0.236890676              -0.140759589               0.000000000              -0.260809705              -0.156372354               0.000000000              -0.284728735              -0.171985118               0.000000000              -0.308647764              -0.187597883               0.000000000              -0.332566794              -0.203210648               0.000000000              -0.356485823              -0.218823412               0.000000000              -0.380404853              -0.234436177               0.000000000              -0.404323882              -0.250048941               0.000000000              -0.428242912              -0.265661706               0.000000000              -0.452161941              -0.281274471               0.000000000              -0.476080971              -0.296887235               0.000000000              -0.500000000              -0.312500000               0.000000000              -0.110585458              -0.073890841               0.000000000              -0.134923867              -0.092710163               0.000000000              -0.159262276              -0.111529486               0.000000000              -0.183600685              -0.130348808               0.000000000              -0.207939094              -0.149168131               0.000000000              -0.232277503              -0.167987453               0.000000000              -0.256615912              -0.186806776               0.000000000              -0.280954320              -0.205626098               0.000000000              -0.305292729              -0.224445420               0.000000000              -0.329631138              -0.243264743               0.000000000              -0.353969547              -0.262084065               0.000000000              -0.378307956              -0.280903388               0.000000000              -0.402646365              -0.299722710               0.000000000              -0.426984773              -0.318542033               0.000000000              -0.451323182              -0.337361355               0.000000000              -0.475661591              -0.356180678               0.000000000              -0.500000000              -0.375000000               0.000000000              -0.102810390              -0.084374307               0.000000000              -0.127634741              -0.106444663               0.000000000              -0.152459092              -0.128515018               0.000000000              -0.177283442              -0.150585374               0.000000000              -0.202107793              -0.172655730               0.000000000              -0.226932143              -0.194726086               0.000000000              -0.251756494              -0.216796442               0.000000000              -0.276580845              -0.238866798               0.000000000              -0.301405195              -0.260937153               0.000000000              -0.326229546              -0.283007509               0.000000000              -0.351053896              -0.305077865               0.000000000              -0.375878247              -0.327148221               0.000000000              -0.400702598              -0.349218577               0.000000000              -0.425526948              -0.371288933               0.000000000              -0.450351299              -0.393359288               0.000000000              -0.475175649              -0.415429644               0.000000000              -0.500000000              -0.437500000               0.000000000              -0.094045202              -0.094045202               0.000000000              -0.119417377              -0.119417377               0.000000000              -0.144789552              -0.144789552               0.000000000              -0.170161727              -0.170161727               0.000000000              -0.195533901              -0.195533901               0.000000000              -0.220906076              -0.220906076               0.000000000              -0.246278251              -0.246278251               0.000000000              -0.271650426              -0.271650426               0.000000000              -0.297022601              -0.297022601               0.000000000              -0.322394776              -0.322394776               0.000000000              -0.347766951              -0.347766951               0.000000000              -0.373139126              -0.373139126               0.000000000              -0.398511300              -0.398511300               0.000000000              -0.423883475              -0.423883475               0.000000000              -0.449255650              -0.449255650               0.000000000              -0.474627825              -0.474627825               0.000000000              -0.500000000              -0.500000000               0.000000000              -0.084374307              -0.102810390               0.000000000              -0.106444663              -0.127634741               0.000000000              -0.128515018              -0.152459092               0.000000000              -0.150585374              -0.177283442               0.000000000              -0.172655730              -0.202107793               0.000000000              -0.194726086              -0.226932143               0.000000000              -0.216796442              -0.251756494               0.000000000              -0.238866798              -0.276580845               0.000000000              -0.260937153              -0.301405195               0.000000000              -0.283007509              -0.326229546               0.000000000              -0.305077865              -0.351053896               0.000000000              -0.327148221              -0.375878247               0.000000000              -0.349218577              -0.400702598               0.000000000              -0.371288933              -0.425526948               0.000000000              -0.393359288              -0.450351299               0.000000000              -0.415429644              -0.475175649               0.000000000              -0.437500000              -0.500000000               0.000000000              -0.073890841              -0.110585458               0.000000000              -0.092710163              -0.134923867               0.000000000              -0.111529486              -0.159262276               0.000000000              -0.130348808              -0.183600685               0.000000000              -0.149168131              -0.207939094               0.000000000              -0.167987453              -0.232277503               0.000000000              -0.186806776              -0.256615912               0.000000000              -0.205626098              -0.280954320               0.000000000              -0.224445420              -0.305292729               0.000000000              -0.243264743              -0.329631138               0.000000000              -0.262084065              -0.353969547               0.000000000              -0.280903388              -0.378307956               0.000000000              -0.299722710              -0.402646365               0.000000000              -0.318542033              -0.426984773               0.000000000              -0.337361355              -0.451323182               0.000000000              -0.356180678              -0.475661591               0.000000000              -0.375000000              -0.500000000               0.000000000              -0.062695766              -0.117295528               0.000000000              -0.078308531              -0.141214558               0.000000000              -0.093921295              -0.165133587               0.000000000              -0.109534060              -0.189052617               0.000000000              -0.125146824              -0.212971646               0.000000000              -0.140759589              -0.236890676               0.000000000              -0.156372354              -0.260809705               0.000000000              -0.171985118              -0.284728735               0.000000000              -0.187597883              -0.308647764               0.000000000              -0.203210648              -0.332566794               0.000000000              -0.218823412              -0.356485823               0.000000000              -0.234436177              -0.380404853               0.000000000              -0.250048941              -0.404323882               0.000000000              -0.265661706              -0.428242912               0.000000000              -0.281274471              -0.452161941               0.000000000              -0.296887235              -0.476080971               0.000000000              -0.312500000              -0.500000000               0.000000000              -0.050896897              -0.122875978               0.000000000              -0.063340840              -0.146446229               0.000000000              -0.075784784              -0.170016481               0.000000000              -0.088228728              -0.193586732               0.000000000              -0.100672672              -0.217156983               0.000000000              -0.113116616              -0.240727235               0.000000000              -0.125560560              -0.264297486               0.000000000              -0.138004504              -0.287867738               0.000000000              -0.150448448              -0.311437989               0.000000000              -0.162892392              -0.335008240               0.000000000              -0.175336336              -0.358578492               0.000000000              -0.187780280              -0.382148743               0.000000000              -0.200224224              -0.405718994               0.000000000              -0.212668168              -0.429289246               0.000000000              -0.225112112              -0.452859497               0.000000000              -0.237556056              -0.476429749               0.000000000              -0.250000000              -0.500000000               0.000000000              -0.038607862              -0.127273065               0.000000000              -0.047913621              -0.150568498               0.000000000              -0.057219379              -0.173863932               0.000000000              -0.066525138              -0.197159365               0.000000000              -0.075830897              -0.220454798               0.000000000              -0.085136655              -0.243750232               0.000000000              -0.094442414              -0.267045665               0.000000000              -0.103748172              -0.290341099               0.000000000              -0.113053931              -0.313636532               0.000000000              -0.122359690              -0.336931966               0.000000000              -0.131665448              -0.360227399               0.000000000              -0.140971207              -0.383522833               0.000000000              -0.150276966              -0.406818266               0.000000000              -0.159582724              -0.430113700               0.000000000              -0.168888483              -0.453409133               0.000000000              -0.178194241              -0.476704567               0.000000000              -0.187500000              -0.500000000               0.000000000              -0.025947013              -0.130444442               0.000000000              -0.032137825              -0.153541665               0.000000000              -0.038328636              -0.176638887               0.000000000              -0.044519448              -0.199736109               0.000000000              -0.050710260              -0.222833332               0.000000000              -0.056901071              -0.245930554               0.000000000              -0.063091883              -0.269027776               0.000000000              -0.069282695              -0.292124999               0.000000000              -0.075473506              -0.315222221               0.000000000              -0.081664318              -0.338319444               0.000000000              -0.087855130              -0.361416666               0.000000000              -0.094045942              -0.384513888               0.000000000              -0.100236753              -0.407611111               0.000000000              -0.106427565              -0.430708333               0.000000000              -0.112618377              -0.453805555               0.000000000              -0.118809188              -0.476902778               0.000000000              -0.125000000              -0.500000000               0.000000000              -0.013036280              -0.132359569               0.000000000              -0.016127762              -0.155337096               0.000000000              -0.019219245              -0.178314623               0.000000000              -0.022310727              -0.201292150               0.000000000              -0.025402210              -0.224269676               0.000000000              -0.028493692              -0.247247203               0.000000000              -0.031585175              -0.270224730               0.000000000              -0.034676657              -0.293202257               0.000000000              -0.037768140              -0.316179784               0.000000000              -0.040859622              -0.339157311               0.000000000              -0.043951105              -0.362134838               0.000000000              -0.047042587              -0.385112365               0.000000000              -0.050134070              -0.408089892               0.000000000              -0.053225552              -0.431067419               0.000000000              -0.056317035              -0.454044946               0.000000000              -0.059408517              -0.477022473               0.000000000              -0.062500000              -0.500000000               0.000000000               0.000000000              -0.133000000               0.000000000               0.000000000              -0.155937500               0.000000000               0.000000000              -0.178875000               0.000000000               0.000000000              -0.201812500               0.000000000               0.000000000              -0.224750000               0.000000000               0.000000000              -0.247687500               0.000000000               0.000000000              -0.270625000               0.000000000               0.000000000              -0.293562500               0.000000000               0.000000000              -0.316500000               0.000000000               0.000000000              -0.339437500               0.000000000               0.000000000              -0.362375000               0.000000000               0.000000000              -0.385312500               0.000000000               0.000000000              -0.408250000               0.000000000               0.000000000              -0.431187500               0.000000000               0.000000000              -0.454125000               0.000000000               0.000000000              -0.477062500               0.000000000               0.000000000              -0.500000000               0.000000000              -0.133000000               0.000000000               0.000000000              -0.155937500               0.000000000               0.000000000              -0.178875000               0.000000000               0.000000000              -0.201812500               0.000000000               0.000000000              -0.224750000               0.000000000               0.000000000              -0.247687500               0.000000000               0.000000000              -0.270625000               0.000000000               0.000000000              -0.293562500               0.000000000               0.000000000              -0.316500000               0.000000000               0.000000000              -0.339437500               0.000000000               0.000000000              -0.362375000               0.000000000               0.000000000              -0.385312500               0.000000000               0.000000000              -0.408250000               0.000000000               0.000000000              -0.431187500               0.000000000               0.000000000              -0.454125000               0.000000000               0.000000000              -0.477062500               0.000000000               0.000000000              -0.500000000               0.000000000               0.000000000              -0.132359569               0.013036280               0.000000000              -0.155337096               0.016127762               0.000000000              -0.178314623               0.019219245               0.000000000              -0.201292150               0.022310727               0.000000000              -0.224269676               0.025402210               0.000000000              -0.247247203               0.028493692               0.000000000              -0.270224730               0.031585175               0.000000000              -0.293202257               0.034676657               0.000000000              -0.316179784               0.037768140               0.000000000              -0.339157311               0.040859622               0.000000000              -0.362134838               0.043951105               0.000000000              -0.385112365               0.047042587               0.000000000              -0.408089892               0.050134070               0.000000000              -0.431067419               0.053225552               0.000000000              -0.454044946               0.056317035               0.000000000              -0.477022473               0.059408517               0.000000000              -0.500000000               0.062500000               0.000000000              -0.130444442               0.025947013               0.000000000              -0.153541665               0.032137825               0.000000000              -0.176638887               0.038328636               0.000000000              -0.199736109               0.044519448               0.000000000              -0.222833332               0.050710260               0.000000000              -0.245930554               0.056901071               0.000000000              -0.269027776               0.063091883               0.000000000              -0.292124999               0.069282695               0.000000000              -0.315222221               0.075473506               0.000000000              -0.338319444               0.081664318               0.000000000              -0.361416666               0.087855130               0.000000000              -0.384513888               0.094045942               0.000000000              -0.407611111               0.100236753               0.000000000              -0.430708333               0.106427565               0.000000000              -0.453805555               0.112618377               0.000000000              -0.476902778               0.118809188               0.000000000              -0.500000000               0.125000000               0.000000000              -0.127273065               0.038607862               0.000000000              -0.150568498               0.047913621               0.000000000              -0.173863932               0.057219379               0.000000000              -0.197159365               0.066525138               0.000000000              -0.220454798               0.075830897               0.000000000              -0.243750232               0.085136655               0.000000000              -0.267045665               0.094442414               0.000000000              -0.290341099               0.103748172               0.000000000              -0.313636532               0.113053931               0.000000000              -0.336931966               0.122359690               0.000000000              -0.360227399               0.131665448               0.000000000              -0.383522833               0.140971207               0.000000000              -0.406818266               0.150276966               0.000000000              -0.430113700               0.159582724               0.000000000              -0.453409133               0.168888483               0.000000000              -0.476704567               0.178194241               0.000000000              -0.500000000               0.187500000               0.000000000              -0.122875978               0.050896897               0.000000000              -0.146446229               0.063340840               0.000000000              -0.170016481               0.075784784               0.000000000              -0.193586732               0.088228728               0.000000000              -0.217156983               0.100672672               0.000000000              -0.240727235               0.113116616               0.000000000              -0.264297486               0.125560560               0.000000000              -0.287867738               0.138004504               0.000000000              -0.311437989               0.150448448               0.000000000              -0.335008240               0.162892392               0.000000000              -0.358578492               0.175336336               0.000000000              -0.382148743               0.187780280               0.000000000              -0.405718994               0.200224224               0.000000000              -0.429289246               0.212668168               0.000000000              -0.452859497               0.225112112               0.000000000              -0.476429749               0.237556056               0.000000000              -0.500000000               0.250000000               0.000000000              -0.117295528               0.062695766               0.000000000              -0.141214558               0.078308531               0.000000000              -0.165133587               0.093921295               0.000000000              -0.189052617               0.109534060               0.000000000              -0.212971646               0.125146824               0.000000000              -0.236890676               0.140759589               0.000000000              -0.260809705               0.156372354               0.000000000              -0.284728735               0.171985118               0.000000000              -0.308647764               0.187597883               0.000000000              -0.332566794               0.203210648               0.000000000              -0.356485823               0.218823412               0.000000000              -0.380404853               0.234436177               0.000000000              -0.404323882               0.250048941               0.000000000              -0.428242912               0.265661706               0.000000000              -0.452161941               0.281274471               0.000000000              -0.476080971               0.296887235               0.000000000              -0.500000000               0.312500000               0.000000000              -0.110585458               0.073890841               0.000000000              -0.134923867               0.092710163               0.000000000              -0.159262276               0.111529486               0.000000000              -0.183600685               0.130348808               0.000000000              -0.207939094               0.149168131               0.000000000              -0.232277503               0.167987453               0.000000000              -0.256615912               0.186806776               0.000000000              -0.280954320               0.205626098               0.000000000              -0.305292729               0.224445420               0.000000000              -0.329631138               0.243264743               0.000000000              -0.353969547               0.262084065               0.000000000              -0.378307956               0.280903388               0.000000000              -0.402646365               0.299722710               0.000000000              -0.426984773               0.318542033               0.000000000              -0.451323182               0.337361355               0.000000000              -0.475661591               0.356180678               0.000000000              -0.500000000               0.375000000               0.000000000              -0.102810390               0.084374307               0.000000000              -0.127634741               0.106444663               0.000000000              -0.152459092               0.128515018               0.000000000              -0.177283442               0.150585374               0.000000000              -0.202107793               0.172655730               0.000000000              -0.226932143               0.194726086               0.000000000              -0.251756494               0.216796442               0.000000000              -0.276580845               0.238866798               0.000000000              -0.301405195               0.260937153               0.000000000              -0.326229546               0.283007509               0.000000000              -0.351053896               0.305077865               0.000000000              -0.375878247               0.327148221               0.000000000              -0.400702598               0.349218577               0.000000000              -0.425526948               0.371288933               0.000000000              -0.450351299               0.393359288               0.000000000              -0.475175649               0.415429644               0.000000000              -0.500000000               0.437500000               0.000000000              -0.094045202               0.094045202               0.000000000              -0.119417377               0.119417377               0.000000000              -0.144789552               0.144789552               0.000000000              -0.170161727               0.170161727               0.000000000              -0.195533901               0.195533901               0.000000000              -0.220906076               0.220906076               0.000000000              -0.246278251               0.246278251               0.000000000              -0.271650426               0.271650426               0.000000000              -0.297022601               0.297022601               0.000000000              -0.322394776               0.322394776               0.000000000              -0.347766951               0.347766951               0.000000000              -0.373139126               0.373139126               0.000000000              -0.398511300               0.398511300               0.000000000              -0.423883475               0.423883475               0.000000000              -0.449255650               0.449255650               0.000000000              -0.474627825               0.474627825               0.000000000              -0.500000000               0.500000000               0.000000000              -0.084374307               0.102810390               0.000000000              -0.106444663               0.127634741               0.000000000              -0.128515018               0.152459092               0.000000000              -0.150585374               0.177283442               0.000000000              -0.172655730               0.202107793               0.000000000              -0.194726086               0.226932143               0.000000000              -0.216796442               0.251756494               0.000000000              -0.238866798               0.276580845               0.000000000              -0.260937153               0.301405195               0.000000000              -0.283007509               0.326229546               0.000000000              -0.305077865               0.351053896               0.000000000              -0.327148221               0.375878247               0.000000000              -0.349218577               0.400702598               0.000000000              -0.371288933               0.425526948               0.000000000              -0.393359288               0.450351299               0.000000000              -0.415429644               0.475175649               0.000000000              -0.437500000               0.500000000               0.000000000              -0.073890841               0.110585458               0.000000000              -0.092710163               0.134923867               0.000000000              -0.111529486               0.159262276               0.000000000              -0.130348808               0.183600685               0.000000000              -0.149168131               0.207939094               0.000000000              -0.167987453               0.232277503               0.000000000              -0.186806776               0.256615912               0.000000000              -0.205626098               0.280954320               0.000000000              -0.224445420               0.305292729               0.000000000              -0.243264743               0.329631138               0.000000000              -0.262084065               0.353969547               0.000000000              -0.280903388               0.378307956               0.000000000              -0.299722710               0.402646365               0.000000000              -0.318542033               0.426984773               0.000000000              -0.337361355               0.451323182               0.000000000              -0.356180678               0.475661591               0.000000000              -0.375000000               0.500000000               0.000000000              -0.062695766               0.117295528               0.000000000              -0.078308531               0.141214558               0.000000000              -0.093921295               0.165133587               0.000000000              -0.109534060               0.189052617               0.000000000              -0.125146824               0.212971646               0.000000000              -0.140759589               0.236890676               0.000000000              -0.156372354               0.260809705               0.000000000              -0.171985118               0.284728735               0.000000000              -0.187597883               0.308647764               0.000000000              -0.203210648               0.332566794               0.000000000              -0.218823412               0.356485823               0.000000000              -0.234436177               0.380404853               0.000000000              -0.250048941               0.404323882               0.000000000              -0.265661706               0.428242912               0.000000000              -0.281274471               0.452161941               0.000000000              -0.296887235               0.476080971               0.000000000              -0.312500000               0.500000000               0.000000000              -0.050896897               0.122875978               0.000000000              -0.063340840               0.146446229               0.000000000              -0.075784784               0.170016481               0.000000000              -0.088228728               0.193586732               0.000000000              -0.100672672               0.217156983               0.000000000              -0.113116616               0.240727235               0.000000000              -0.125560560               0.264297486               0.000000000              -0.138004504               0.287867738               0.000000000              -0.150448448               0.311437989               0.000000000              -0.162892392               0.335008240               0.000000000              -0.175336336               0.358578492               0.000000000              -0.187780280               0.382148743               0.000000000              -0.200224224               0.405718994               0.000000000              -0.212668168               0.429289246               0.000000000              -0.225112112               0.452859497               0.000000000              -0.237556056               0.476429749               0.000000000              -0.250000000               0.500000000               0.000000000              -0.038607862               0.127273065               0.000000000              -0.047913621               0.150568498               0.000000000              -0.057219379               0.173863932               0.000000000              -0.066525138               0.197159365               0.000000000              -0.075830897               0.220454798               0.000000000              -0.085136655               0.243750232               0.000000000              -0.094442414               0.267045665               0.000000000              -0.103748172               0.290341099               0.000000000              -0.113053931               0.313636532               0.000000000              -0.122359690               0.336931966               0.000000000              -0.131665448               0.360227399               0.000000000              -0.140971207               0.383522833               0.000000000              -0.150276966               0.406818266               0.000000000              -0.159582724               0.430113700               0.000000000              -0.168888483               0.453409133               0.000000000              -0.178194241               0.476704567               0.000000000              -0.187500000               0.500000000               0.000000000              -0.025947013               0.130444442               0.000000000              -0.032137825               0.153541665               0.000000000              -0.038328636               0.176638887               0.000000000              -0.044519448               0.199736109               0.000000000              -0.050710260               0.222833332               0.000000000              -0.056901071               0.245930554               0.000000000              -0.063091883               0.269027776               0.000000000              -0.069282695               0.292124999               0.000000000              -0.075473506               0.315222221               0.000000000              -0.081664318               0.338319444               0.000000000              -0.087855130               0.361416666               0.000000000              -0.094045942               0.384513888               0.000000000              -0.100236753               0.407611111               0.000000000              -0.106427565               0.430708333               0.000000000              -0.112618377               0.453805555               0.000000000              -0.118809188               0.476902778               0.000000000              -0.125000000               0.500000000               0.000000000              -0.013036280               0.132359569               0.000000000              -0.016127762               0.155337096               0.000000000              -0.019219245               0.178314623               0.000000000              -0.022310727               0.201292150               0.000000000              -0.025402210               0.224269676               0.000000000              -0.028493692               0.247247203               0.000000000              -0.031585175               0.270224730               0.000000000              -0.034676657               0.293202257               0.000000000              -0.037768140               0.316179784               0.000000000              -0.040859622               0.339157311               0.000000000              -0.043951105               0.362134838               0.000000000              -0.047042587               0.385112365               0.000000000              -0.050134070               0.408089892               0.000000000              -0.053225552               0.431067419               0.000000000              -0.056317035               0.454044946               0.000000000              -0.059408517               0.477022473               0.000000000              -0.062500000               0.500000000               0.000000000               0.000000000               0.133000000               0.000000000               0.000000000               0.155937500               0.000000000               0.000000000               0.178875000               0.000000000               0.000000000               0.201812500               0.000000000               0.000000000               0.224750000               0.000000000               0.000000000               0.247687500               0.000000000               0.000000000               0.270625000               0.000000000               0.000000000               0.293562500               0.000000000               0.000000000               0.316500000               0.000000000               0.000000000               0.339437500               0.000000000               0.000000000               0.362375000               0.000000000               0.000000000               0.385312500               0.000000000               0.000000000               0.408250000               0.000000000               0.000000000               0.431187500               0.000000000               0.000000000               0.454125000               0.000000000               0.000000000               0.477062500               0.000000000               0.000000000               0.500000000               0.000000000 </DataArray>
</Points>
<Cells>
<DataArray type="Int32"                                    Name="connectivity"                                                      NumberOfComponents=" 1" format="ascii">
         0          1         18         17          1          2         19         18          2          3         20         19          3          4         21         20          4          5         22         21          5          6         23         22          6          7         24         23          7          8         25         24          8          9         26         25          9         10         27         26         10         11         28         27         11         12         29         28         12         13         30         29         13         14         31         30         14         15         32         31         15         16         33         32         17         18         35         34         18         19         36         35         19         20         37         36         20         21         38         37         21         22         39         38         22         23         40         39         23         24         41         40         24         25         42         41         25         26         43         42         26         27         44         43         27         28         45         44         28         29         46         45         29         30         47         46         30         31         48         47         31         32         49         48         32         33         50         49         34         35         52         51         35         36         53         52         36         37         54         53         37         38         55         54         38         39         56         55         39         40         57         56         40         41         58         57         41         42         59         58         42         43         60         59         43         44         61         60         44         45         62         61         45         46         63         62         46         47         64         63         47         48         65         64         48         49         66         65         49         50         67         66         51         52         69         68         52         53         70         69         53         54         71         70         54         55         72         71         55         56         73         72         56         57         74         73         57         58         75         74         58         59         76         75         59         60         77         76         60         61         78         77         61         62         79         78         62         63         80         79         63         64         81         80         64         65         82         81         65         66         83         82         66         67         84         83         68         69         86         85         69         70         87         86         70         71         88         87         71         72         89         88         72         73         90         89         73         74         91         90         74         75         92         91         75         76         93         92         76         77         94         93         77         78         95         94         78         79         96         95         79         80         97         96         80         81         98         97         81         82         99         98         82         83        100         99         83         84        101        100         85         86        103        102         86         87        104        103         87         88        105        104         88         89        106        105         89         90        107        106         90         91        108        107         91         92        109        108         92         93        110        109         93         94        111        110         94         95        112        111         95         96        113        112         96         97        114        113         97         98        115        114         98         99        116        115         99        100        117        116        100        101        118        117        102        103        120        119        103        104        121        120        104        105        122        121        105        106        123        122        106        107        124        123        107        108        125        124        108        109        126        125        109        110        127        126        110        111        128        127        111        112        129        128        112        113        130        129        113        114        131        130        114        115        132        131        115        116        133        132        116        117        134        133        117        118        135        134        119        120        137        136        120        121        138        137        121        122        139        138        122        123        140        139        123        124        141        140        124        125        142        141        125        126        143        142        126        127        144        143        127        128        145        144        128        129        146        145        129        130        147        146        130        131        148        147        131        132        149        148        132        133        150        149        133        134        151        150        134        135        152        151        136        137        154        153        137        138        155        154        138        139        156        155        139        140        157        156        140        141        158        157        141        142        159        158        142        143        160        159        143        144        161        160        144        145        162        161        145        146        163        162        146        147        164        163        147        148        165        164        148        149        166        165        149        150        167        166        150        151        168        167        151        152        169        168        153        154        171        170        154        155        172        171        155        156        173        172        156        157        174        173        157        158        175        174        158        159        176        175        159        160        177        176        160        161        178        177        161        162        179        178        162        163        180        179        163        164        181        180        164        165        182        181        165        166        183        182        166        167        184        183        167        168        185        184        168        169        186        185        170        171        188        187        171        172        189        188        172        173        190        189        173        174        191        190        174        175        192        191        175        176        193        192        176        177        194        193        177        178        195        194        178        179        196        195        179        180        197        196        180        181        198        197        181        182        199        198        182        183        200        199        183        184        201        200        184        185        202        201        185        186        203        202        187        188        205        204        188        189        206        205        189        190        207        206        190        191        208        207        191        192        209        208        192        193        210        209        193        194        211        210        194        195        212        211        195        196        213        212        196        197        214        213        197        198        215        214        198        199        216        215        199        200        217        216        200        201        218        217        201        202        219        218        202        203        220        219        204        205        222        221        205        206        223        222        206        207        224        223        207        208        225        224        208        209        226        225        209        210        227        226        210        211        228        227        211        212        229        228        212        213        230        229        213        214        231        230        214        215        232        231        215        216        233        232        216        217        234        233        217        218        235        234        218        219        236        235        219        220        237        236        221        222        239        238        222        223        240        239        223        224        241        240        224        225        242        241        225        226        243        242        226        227        244        243        227        228        245        244        228        229        246        245        229        230        247        246        230        231        248        247        231        232        249        248        232        233        250        249        233        234        251        250        234        235        252        251        235        236        253        252        236        237        254        253        238        239        256        255        239        240        257        256        240        241        258        257        241        242        259        258        242        243        260        259        243        244        261        260        244        245        262        261        245        246        263        262        246        247        264        263        247        248        265        264        248        249        266        265        249        250        267        266        250        251        268        267        251        252        269        268        252        253        270        269        253        254        271        270        255        256        273        272        256        257        274        273        257        258        275        274        258        259        276        275        259        260        277        276        260        261        278        277        261        262        279        278        262        263        280        279        263        264        281        280        264        265        282        281        265        266        283        282        266        267        284        283        267        268        285        284        268        269        286        285        269        270        287        286        270        271        288        287        306        307          1          0        307        308          2          1        308        309          3          2        309        310          4          3        310        311          5          4        311        312          6          5        312        313          7          6        313        314          8          7        314        315          9          8        315        316         10          9        316        317         11         10        317        318         12         11        318        319         13         12        319        320         14         13        320        321         15         14        321        322         16         15        323        324        307        306        324        325        308        307        325        326        309        308        326        327        310        309        327        328        311        310        328        329        312        311        329        330        313        312        330        331        314        313        331        332        315        314        332        333        316        315        333        334        317        316        334        335        318        317        335        336        319        318        336        337        320        319        337        338        321        320        338        339        322        321        340        341        324        323        341        342        325        324        342        343        326        325        343        344        327        326        344        345        328        327        345        346        329        328        346        347        330        329        347        348        331        330        348        349        332        331        349        350        333        332        350        351        334        333        351        352        335        334        352        353        336        335        353        354        337        336        354        355        338        337        355        356        339        338        357        358        341        340        358        359        342        341        359        360        343        342        360        361        344        343        361        362        345        344        362        363        346        345        363        364        347        346        364        365        348        347        365        366        349        348        366        367        350        349        367        368        351        350        368        369        352        351        369        370        353        352        370        371        354        353        371        372        355        354        372        373        356        355        374        375        358        357        375        376        359        358        376        377        360        359        377        378        361        360        378        379        362        361        379        380        363        362        380        381        364        363        381        382        365        364        382        383        366        365        383        384        367        366        384        385        368        367        385        386        369        368        386        387        370        369        387        388        371        370        388        389        372        371        389        390        373        372        391        392        375        374        392        393        376        375        393        394        377        376        394        395        378        377        395        396        379        378        396        397        380        379        397        398        381        380        398        399        382        381        399        400        383        382        400        401        384        383        401        402        385        384        402        403        386        385        403        404        387        386        404        405        388        387        405        406        389        388        406        407        390        389        408        409        392        391        409        410        393        392        410        411        394        393        411        412        395        394        412        413        396        395        413        414        397        396        414        415        398        397        415        416        399        398        416        417        400        399        417        418        401        400        418        419        402        401        419        420        403        402        420        421        404        403        421        422        405        404        422        423        406        405        423        424        407        406        425        426        409        408        426        427        410        409        427        428        411        410        428        429        412        411        429        430        413        412        430        431        414        413        431        432        415        414        432        433        416        415        433        434        417        416        434        435        418        417        435        436        419        418        436        437        420        419        437        438        421        420        438        439        422        421        439        440        423        422        440        441        424        423        442        443        426        425        443        444        427        426        444        445        428        427        445        446        429        428        446        447        430        429        447        448        431        430        448        449        432        431        449        450        433        432        450        451        434        433        451        452        435        434        452        453        436        435        453        454        437        436        454        455        438        437        455        456        439        438        456        457        440        439        457        458        441        440        459        460        443        442        460        461        444        443        461        462        445        444        462        463        446        445        463        464        447        446        464        465        448        447        465        466        449        448        466        467        450        449        467        468        451        450        468        469        452        451        469        470        453        452        470        471        454        453        471        472        455        454        472        473        456        455        473        474        457        456        474        475        458        457        476        477        460        459        477        478        461        460        478        479        462        461        479        480        463        462        480        481        464        463        481        482        465        464        482        483        466        465        483        484        467        466        484        485        468        467        485        486        469        468        486        487        470        469        487        488        471        470        488        489        472        471        489        490        473        472        490        491        474        473        491        492        475        474        493        494        477        476        494        495        478        477        495        496        479        478        496        497        480        479        497        498        481        480        498        499        482        481        499        500        483        482        500        501        484        483        501        502        485        484        502        503        486        485        503        504        487        486        504        505        488        487        505        506        489        488        506        507        490        489        507        508        491        490        508        509        492        491        510        511        494        493        511        512        495        494        512        513        496        495        513        514        497        496        514        515        498        497        515        516        499        498        516        517        500        499        517        518        501        500        518        519        502        501        519        520        503        502        520        521        504        503        521        522        505        504        522        523        506        505        523        524        507        506        524        525        508        507        525        526        509        508        527        528        511        510        528        529        512        511        529        530        513        512        530        531        514        513        531        532        515        514        532        533        516        515        533        534        517        516        534        535        518        517        535        536        519        518        536        537        520        519        537        538        521        520        538        539        522        521        539        540        523        522        540        541        524        523        541        542        525        524        542        543        526        525        544        545        528        527        545        546        529        528        546        547        530        529        547        548        531        530        548        549        532        531        549        550        533        532        550        551        534        533        551        552        535        534        552        553        536        535        553        554        537        536        554        555        538        537        555        556        539        538        556        557        540        539        557        558        541        540        558        559        542        541        559        560        543        542        561        562        545        544        562        563        546        545        563        564        547        546        564        565        548        547        565        566        549        548        566        567        550        549        567        568        551        550        568        569        552        551        569        570        553        552        570        571        554        553        571        572        555        554        572        573        556        555        573        574        557        556        574        575        558        557        575        576        559        558        576        577        560        559        578        579        596        595        579        580        597        596        580        581        598        597        581        582        599        598        582        583        600        599        583        584        601        600        584        585        602        601        585        586        603        602        586        587        604        603        587        588        605        604        588        589        606        605        589        590        607        606        590        591        608        607        591        592        609        608        592        593        610        609        593        594        611        610        595        596        613        612        596        597        614        613        597        598        615        614        598        599        616        615        599        600        617        616        600        601        618        617        601        602        619        618        602        603        620        619        603        604        621        620        604        605        622        621        605        606        623        622        606        607        624        623        607        608        625        624        608        609        626        625        609        610        627        626        610        611        628        627        612        613        630        629        613        614        631        630        614        615        632        631        615        616        633        632        616        617        634        633        617        618        635        634        618        619        636        635        619        620        637        636        620        621        638        637        621        622        639        638        622        623        640        639        623        624        641        640        624        625        642        641        625        626        643        642        626        627        644        643        627        628        645        644        629        630        647        646        630        631        648        647        631        632        649        648        632        633        650        649        633        634        651        650        634        635        652        651        635        636        653        652        636        637        654        653        637        638        655        654        638        639        656        655        639        640        657        656        640        641        658        657        641        642        659        658        642        643        660        659        643        644        661        660        644        645        662        661        646        647        664        663        647        648        665        664        648        649        666        665        649        650        667        666        650        651        668        667        651        652        669        668        652        653        670        669        653        654        671        670        654        655        672        671        655        656        673        672        656        657        674        673        657        658        675        674        658        659        676        675        659        660        677        676        660        661        678        677        661        662        679        678        663        664        681        680        664        665        682        681        665        666        683        682        666        667        684        683        667        668        685        684        668        669        686        685        669        670        687        686        670        671        688        687        671        672        689        688        672        673        690        689        673        674        691        690        674        675        692        691        675        676        693        692        676        677        694        693        677        678        695        694        678        679        696        695        680        681        698        697        681        682        699        698        682        683        700        699        683        684        701        700        684        685        702        701        685        686        703        702        686        687        704        703        687        688        705        704        688        689        706        705        689        690        707        706        690        691        708        707        691        692        709        708        692        693        710        709        693        694        711        710        694        695        712        711        695        696        713        712        697        698        715        714        698        699        716        715        699        700        717        716        700        701        718        717        701        702        719        718        702        703        720        719        703        704        721        720        704        705        722        721        705        706        723        722        706        707        724        723        707        708        725        724        708        709        726        725        709        710        727        726        710        711        728        727        711        712        729        728        712        713        730        729        714        715        732        731        715        716        733        732        716        717        734        733        717        718        735        734        718        719        736        735        719        720        737        736        720        721        738        737        721        722        739        738        722        723        740        739        723        724        741        740        724        725        742        741        725        726        743        742        726        727        744        743        727        728        745        744        728        729        746        745        729        730        747        746        731        732        749        748        732        733        750        749        733        734        751        750        734        735        752        751        735        736        753        752        736        737        754        753        737        738        755        754        738        739        756        755        739        740        757        756        740        741        758        757        741        742        759        758        742        743        760        759        743        744        761        760        744        745        762        761        745        746        763        762        746        747        764        763        748        749        766        765        749        750        767        766        750        751        768        767        751        752        769        768        752        753        770        769        753        754        771        770        754        755        772        771        755        756        773        772        756        757        774        773        757        758        775        774        758        759        776        775        759        760        777        776        760        761        778        777        761        762        779        778        762        763        780        779        763        764        781        780        765        766        783        782        766        767        784        783        767        768        785        784        768        769        786        785        769        770        787        786        770        771        788        787        771        772        789        788        772        773        790        789        773        774        791        790        774        775        792        791        775        776        793        792        776        777        794        793        777        778        795        794        778        779        796        795        779        780        797        796        780        781        798        797        782        783        800        799        783        784        801        800        784        785        802        801        785        786        803        802        786        787        804        803        787        788        805        804        788        789        806        805        789        790        807        806        790        791        808        807        791        792        809        808        792        793        810        809        793        794        811        810        794        795        812        811        795        796        813        812        796        797        814        813        797        798        815        814        799        800        817        816        800        801        818        817        801        802        819        818        802        803        820        819        803        804        821        820        804        805        822        821        805        806        823        822        806        807        824        823        807        808        825        824        808        809        826        825        809        810        827        826        810        811        828        827        811        812        829        828        812        813        830        829        813        814        831        830        814        815        832        831        816        817        834        833        817        818        835        834        818        819        836        835        819        820        837        836        820        821        838        837        821        822        839        838        822        823        840        839        823        824        841        840        824        825        842        841        825        826        843        842        826        827        844        843        827        828        845        844        828        829        846        845        829        830        847        846        830        831        848        847        831        832        849        848        833        834        562        561        834        835        563        562        835        836        564        563        836        837        565        564        837        838        566        565        838        839        567        566        839        840        568        567        840        841        569        568        841        842        570        569        842        843        571        570        843        844        572        571        844        845        573        572        845        846        574        573        846        847        575        574        847        848        576        575        848        849        577        576        884        885        579        578        885        886        580        579        886        887        581        580        887        888        582        581        888        889        583        582        889        890        584        583        890        891        585        584        891        892        586        585        892        893        587        586        893        894        588        587        894        895        589        588        895        896        590        589        896        897        591        590        897        898        592        591        898        899        593        592        899        900        594        593        901        902        885        884        902        903        886        885        903        904        887        886        904        905        888        887        905        906        889        888        906        907        890        889        907        908        891        890        908        909        892        891        909        910        893        892        910        911        894        893        911        912        895        894        912        913        896        895        913        914        897        896        914        915        898        897        915        916        899        898        916        917        900        899        918        919        902        901        919        920        903        902        920        921        904        903        921        922        905        904        922        923        906        905        923        924        907        906        924        925        908        907        925        926        909        908        926        927        910        909        927        928        911        910        928        929        912        911        929        930        913        912        930        931        914        913        931        932        915        914        932        933        916        915        933        934        917        916        935        936        919        918        936        937        920        919        937        938        921        920        938        939        922        921        939        940        923        922        940        941        924        923        941        942        925        924        942        943        926        925        943        944        927        926        944        945        928        927        945        946        929        928        946        947        930        929        947        948        931        930        948        949        932        931        949        950        933        932        950        951        934        933        952        953        936        935        953        954        937        936        954        955        938        937        955        956        939        938        956        957        940        939        957        958        941        940        958        959        942        941        959        960        943        942        960        961        944        943        961        962        945        944        962        963        946        945        963        964        947        946        964        965        948        947        965        966        949        948        966        967        950        949        967        968        951        950        969        970        953        952        970        971        954        953        971        972        955        954        972        973        956        955        973        974        957        956        974        975        958        957        975        976        959        958        976        977        960        959        977        978        961        960        978        979        962        961        979        980        963        962        980        981        964        963        981        982        965        964        982        983        966        965        983        984        967        966        984        985        968        967        986        987        970        969        987        988        971        970        988        989        972        971        989        990        973        972        990        991        974        973        991        992        975        974        992        993        976        975        993        994        977        976        994        995        978        977        995        996        979        978        996        997        980        979        997        998        981        980        998        999        982        981        999       1000        983        982       1000       1001        984        983       1001       1002        985        984       1003       1004        987        986       1004       1005        988        987       1005       1006        989        988       1006       1007        990        989       1007       1008        991        990       1008       1009        992        991       1009       1010        993        992       1010       1011        994        993       1011       1012        995        994       1012       1013        996        995       1013       1014        997        996       1014       1015        998        997       1015       1016        999        998       1016       1017       1000        999       1017       1018       1001       1000       1018       1019       1002       1001       1020       1021       1004       1003       1021       1022       1005       1004       1022       1023       1006       1005       1023       1024       1007       1006       1024       1025       1008       1007       1025       1026       1009       1008       1026       1027       1010       1009       1027       1028       1011       1010       1028       1029       1012       1011       1029       1030       1013       1012       1030       1031       1014       1013       1031       1032       1015       1014       1032       1033       1016       1015       1033       1034       1017       1016       1034       1035       1018       1017       1035       1036       1019       1018       1037       1038       1021       1020       1038       1039       1022       1021       1039       1040       1023       1022       1040       1041       1024       1023       1041       1042       1025       1024       1042       1043       1026       1025       1043       1044       1027       1026       1044       1045       1028       1027       1045       1046       1029       1028       1046       1047       1030       1029       1047       1048       1031       1030       1048       1049       1032       1031       1049       1050       1033       1032       1050       1051       1034       1033       1051       1052       1035       1034       1052       1053       1036       1035       1054       1055       1038       1037       1055       1056       1039       1038       1056       1057       1040       1039       1057       1058       1041       1040       1058       1059       1042       1041       1059       1060       1043       1042       1060       1061       1044       1043       1061       1062       1045       1044       1062       1063       1046       1045       1063       1064       1047       1046       1064       1065       1048       1047       1065       1066       1049       1048       1066       1067       1050       1049       1067       1068       1051       1050       1068       1069       1052       1051       1069       1070       1053       1052       1071       1072       1055       1054       1072       1073       1056       1055       1073       1074       1057       1056       1074       1075       1058       1057       1075       1076       1059       1058       1076       1077       1060       1059       1077       1078       1061       1060       1078       1079       1062       1061       1079       1080       1063       1062       1080       1081       1064       1063       1081       1082       1065       1064       1082       1083       1066       1065       1083       1084       1067       1066       1084       1085       1068       1067       1085       1086       1069       1068       1086       1087       1070       1069       1088       1089       1072       1071       1089       1090       1073       1072       1090       1091       1074       1073       1091       1092       1075       1074       1092       1093       1076       1075       1093       1094       1077       1076       1094       1095       1078       1077       1095       1096       1079       1078       1096       1097       1080       1079       1097       1098       1081       1080       1098       1099       1082       1081       1099       1100       1083       1082       1100       1101       1084       1083       1101       1102       1085       1084       1102       1103       1086       1085       1103       1104       1087       1086       1105       1106       1089       1088       1106       1107       1090       1089       1107       1108       1091       1090       1108       1109       1092       1091       1109       1110       1093       1092       1110       1111       1094       1093       1111       1112       1095       1094       1112       1113       1096       1095       1113       1114       1097       1096       1114       1115       1098       1097       1115       1116       1099       1098       1116       1117       1100       1099       1117       1118       1101       1100       1118       1119       1102       1101       1119       1120       1103       1102       1120       1121       1104       1103       1122       1123       1106       1105       1123       1124       1107       1106       1124       1125       1108       1107       1125       1126       1109       1108       1126       1127       1110       1109       1127       1128       1111       1110       1128       1129       1112       1111       1129       1130       1113       1112       1130       1131       1114       1113       1131       1132       1115       1114       1132       1133       1116       1115       1133       1134       1117       1116       1134       1135       1118       1117       1135       1136       1119       1118       1136       1137       1120       1119       1137       1138       1121       1120        272        273       1123       1122        273        274       1124       1123        274        275       1125       1124        275        276       1126       1125        276        277       1127       1126        277        278       1128       1127        278        279       1129       1128        279        280       1130       1129        280        281       1131       1130        281        282       1132       1131        282        283       1133       1132        283        284       1134       1133        284        285       1135       1134        285        286       1136       1135        286        287       1137       1136        287        288       1138       1137 </DataArray>
<DataArray type="Int32"                                    Name="offsets"                                                      NumberOfComponents=" 1" format="ascii">
         4          8         12         16         20         24         28         32         36         40         44         48         52         56         60         64         68         72         76         80         84         88         92         96        100        104        108        112        116        120        124        128        132        136        140        144        148        152        156        160        164        168        172        176        180        184        188        192        196        200        204        208        212        216        220        224        228        232        236        240        244        248        252        256        260        264        268        272        276        280        284        288        292        296        300        304        308        312        316        320        324        328        332        336        340        344        348        352        356        360        364        368        372        376        380        384        388        392        396        400        404        408        412        416        420        424        428        432        436        440        444        448        452        456        460        464        468        472        476        480        484        488        492        496        500        504        508        512        516        520        524        528        532        536        540        544        548        552        556        560        564        568        572        576        580        584        588        592        596        600        604        608        612        616        620        624        628        632        636        640        644        648        652        656        660        664        668        672        676        680        684        688        692        696        700        704        708        712        716        720        724        728        732        736        740        744        748        752        756        760        764        768        772        776        780        784        788        792        796        800        804        808        812        816        820        824        828        832        836        840        844        848        852        856        860        864        868        872        876        880        884        888        892        896        900        904        908        912        916        920        924        928        932        936        940        944        948        952        956        960        964        968        972        976        980        984        988        992        996       1000       1004       1008       1012       1016       1020       1024       1028       1032       1036       1040       1044       1048       1052       1056       1060       1064       1068       1072       1076       1080       1084       1088       1092       1096       1100       1104       1108       1112       1116       1120       1124       1128       1132       1136       1140       1144       1148       1152       1156       1160       1164       1168       1172       1176       1180       1184       1188       1192       1196       1200       1204       1208       1212       1216       1220       1224       1228       1232       1236       1240       1244       1248       1252       1256       1260       1264       1268       1272       1276       1280       1284       1288       1292       1296       1300       1304       1308       1312       1316       1320       1324       1328       1332       1336       1340       1344       1348       1352       1356       1360       1364       1368       1372       1376       1380       1384       1388       1392       1396       1400       1404       1408       1412       1416       1420       1424       1428       1432       1436       1440       1444       1448       1452       1456       1460       1464       1468       1472       1476       1480       1484       1488       1492       1496       1500       1504       1508       1512       1516       1520       1524       1528       1532       1536       1540       1544       1548       1552       1556       1560       1564       1568       1572       1576       1580       1584       1588       1592       1596       1600       1604       1608       1612       1616       1620       1624       1628       1632       1636       1640       1644       1648       1652       1656       1660       1664       1668       1672       1676       1680       1684       1688       1692       1696       1700       1704       1708       1712       1716       1720       1724       1728       1732       1736       1740       1744       1748       1752       1756       1760       1764       1768       1772       1776       1780       1784       1788       1792       1796       1800       1804       1808       1812       1816       1820       1824       1828       1832       1836       1840       1844       1848       1852       1856       1860       1864       1868       1872       1876       1880       1884       1888       1892       1896       1900       1904       1908       1912       1916       1920       1924       1928       1932       1936       1940       1944       1948       1952       1956       1960       1964       1968       1972       1976       1980       1984       1988       1992       1996       2000       2004       2008       2012       2016       2020       2024       2028       2032       2036       2040       2044       2048       2052       2056       2060       2064       2068       2072       2076       2080       2084       2088       2092       2096       2100       2104       2108       2112       2116       2120       2124       2128       2132       2136       2140       2144       2148       2152       2156       2160       2164       2168       2172       2176       2180       2184       2188       2192       2196       2200       2204       2208       2212       2216       2220       2224       2228       2232       2236       2240       2244       2248       2252       2256       2260       2264       2268       2272       2276       2280       2284       2288       2292       2296       2300       2304       2308       2312       2316       2320       2324       2328       2332       2336       2340       2344       2348       2352       2356       2360       2364       2368       2372       2376       2380       2384       2388       2392       2396       2400       2404       2408       2412       2416       2420       2424       2428       2432       2436       2440       2444       2448       2452       2456       2460       2464       2468       2472       2476       2480       2484       2488       2492       2496       2500       2504       2508       2512       2516       2520       2524       2528       2532       2536       2540       2544       2548       2552       2556       2560       2564       2568       2572       2576       2580       2584       2588       2592       2596       2600       2604       2608       2612       2616       2620       2624       2628       2632       2636       2640       2644       2648       2652       2656       2660       2664       2668       2672       2676       2680       2684       2688       2692       2696       2700       2704       2708       2712       2716       2720       2724       2728       2732       2736       2740       2744       2748       2752       2756       2760       2764       2768       2772       2776       2780       2784       2788       2792       2796       2800       2804       2808       2812       2816       2820       2824       2828       2832       2836       2840       2844       2848       2852       2856       2860       2864       2868       2872       2876       2880       2884       2888       2892       2896       2900       2904       2908       2912       2916       2920       2924       2928       2932       2936       2940       2944       2948       2952       2956       2960       2964       2968       2972       2976       2980       2984       2988       2992       2996       3000       3004       3008       3012       3016       3020       3024       3028       3032       3036       3040       3044       3048       3052       3056       3060       3064       3068       3072       3076       3080       3084       3088       3092       3096       3100       3104       3108       3112       3116       3120       3124       3128       3132       3136       3140       3144       3148       3152       3156       3160       3164       3168       3172       3176       3180       3184       3188       3192       3196       3200       3204       3208       3212       3216       3220       3224       3228       3232       3236       3240       3244       3248       3252       3256       3260       3264       3268       3272       3276       3280       3284       3288       3292       3296       3300       3304       3308       3312       3316       3320       3324       3328       3332       3336       3340       3344       3348       3352       3356       3360       3364       3368       3372       3376       3380       3384       3388       3392       3396       3400       3404       3408       3412       3416       3420       3424       3428       3432       3436       3440       3444       3448       3452       3456       3460       3464       3468       3472       3476       3480       3484       3488       3492       3496       3500       3504       3508       3512       3516       3520       3524       3528       3532       3536       3540       3544       3548       3552       3556       3560       3564       3568       3572       3576       3580       3584       3588       3592       3596       3600       3604       3608       3612       3616       3620       3624       3628       3632       3636       3640       3644       3648       3652       3656       3660       3664       3668       3672       3676       3680       3684       3688       3692       3696       3700       3704       3708       3712       3716       3720       3724       3728       3732       3736       3740       3744       3748       3752       3756       3760       3764       3768       3772       3776       3780       3784       3788       3792       3796       3800       3804       3808       3812       3816       3820       3824       3828       3832       3836       3840       3844       3848       3852       3856       3860       3864       3868       3872       3876       3880       3884       3888       3892       3896       3900       3904       3908       3912       3916       3920       3924       3928       3932       3936       3940       3944       3948       3952       3956       3960       3964       3968       3972       3976       3980       3984       3988       3992       3996       4000       4004       4008       4012       4016       4020       4024       4028       4032       4036       4040       4044       4048       4052       4056       4060       4064       4068       4072       4076       4080       4084       4088       4092       4096 </DataArray>
<DataArray type="UInt8"                                    Name="types"                                                      NumberOfComponents=" 1" format="ascii">
         9          9          9          9          9          9          9          9          9          9          9          9          9          9          9          9          9          9          9          9          9          9          9          9          9          9          9          9          9          9          9          9          9          9          9          9          9          9          9          9          9          9          9          9          9          9          9          9          9          9          9          9          9          9          9          9          9          9          9          9          9          9          9          9          9          9          9          9          9          9          9          9          9          9          9          9          9          9          9          9          9          9          9          9          9          9          9          9          9          9          9          9          9          9          9          9          9          9          9          9          9          9          9          9          9          9          9          9          9          9          9          9          9          9          9          9          9          9          9          9          9          9          9          9          9          9          9          9          9          9          9          9          9          9          9          9          9          9          9          9          9          9          9          9          9          9          9          9          9          9          9          9          9          9          9          9          9          9          9          9          9          9          9          9          9          9          9          9          9          9          9          9          9          9          9          9          9          9          9          9          9          9          9          9          9          9          9          9          9          9          9          9          9          9          9          9          9          9          9          9          9          9          9          9          9          9          9          9          9          9          9          9          9          9          9          9          9          9          9          9          9          9          9          9          9          9          9          9          9          9          9          9          9          9          9          9          9          9          9          9          9          9          9          9          9          9          9          9          9          9          9          9          9          9          9          9          9          9          9          9          9          9          9          9          9          9          9          9          9          9          9          9          9          9          9          9          9          9          9          9          9          9          9          9          9          9          9          9          9          9          9          9          9          9          9          9          9          9          9          9          9          9          9          9          9          9          9          9          9          9          9          9          9          9          9          9          9          9          9          9          9          9          9          9          9          9          9          9          9          9          9          9          9          9          9          9          9          9          9          9          9          9          9          9          9          9          9          9          9          9          9          9          9          9          9          9          9          9          9          9          9          9          9          9          9          9          9          9          9          9          9          9          9          9          9          9          9          9          9          9          9          9          9          9          9          9          9          9          9          9          9          9          9          9          9          9          9          9          9          9          9          9          9          9          9          9          9          9          9          9          9          9          9          9          9          9          9          9          9          9          9          9          9          9          9          9          9          9          9          9          9          9          9          9          9          9          9          9          9          9          9          9          9          9          9          9          9          9          9          9          9          9          9          9          9          9          9          9          9          9          9          9          9          9          9          9          9          9          9          9          9          9          9          9          9          9          9          9          9          9          9          9          9          9          9          9          9          9          9          9          9          9          9          9          9          9          9          9          9          9          9          9          9          9          9          9          9          9          9          9          9          9          9          9          9          9          9          9          9          9          9          9          9          9          9          9          9          9          9          9          9          9          9          9          9          9          9          9          9          9          9          9          9          9          9          9          9          9          9          9          9          9          9          9          9          9          9          9          9          9          9          9          9          9          9          9          9          9          9          9          9          9          9          9          9          9          9          9          9          9          9          9          9          9          9          9          9          9          9          9          9          9          9          9          9          9          9          9          9          9          9          9          9          9          9          9          9          9          9          9          9          9          9          9          9          9          9          9          9          9          9          9          9          9          9          9          9          9          9          9          9          9          9          9          9          9          9          9          9          9          9          9          9          9          9          9          9          9          9          9          9          9          9          9          9          9          9          9          9          9          9          9          9          9          9          9          9          9          9          9          9          9          9          9          9          9          9          9          9          9          9          9          9          9          9          9          9          9          9          9          9          9          9          9          9          9          9          9          9          9          9          9          9          9          9          9          9          9          9          9          9          9          9          9          9          9          9          9          9          9          9          9          9          9          9          9          9          9          9          9          9          9          9          9          9          9          9          9          9          9          9          9          9          9          9          9          9          9          9          9          9          9          9          9          9          9          9          9          9          9          9          9          9          9          9          9          9          9          9          9          9          9          9          9          9          9          9          9          9          9          9          9          9          9          9          9          9          9          9          9          9          9          9          9          9          9          9          9          9          9          9          9          9          9          9          9          9          9          9          9          9          9          9          9          9          9          9          9          9          9          9          9          9          9          9          9          9          9          9          9          9          9          9          9          9          9          9          9          9          9          9          9          9          9          9          9          9          9          9          9          9          9          9          9          9          9          9          9          9          9          9          9          9          9          9          9          9          9          9          9          9          9          9          9          9          9          9          9          9          9          9          9          9          9          9          9          9          9          9          9          9          9          9          9          9          9          9          9          9          9          9          9          9          9          9          9          9          9          9          9          9          9          9          9          9          9          9          9          9          9          9          9          9          9          9          9          9          9          9          9          9          9          9          9          9          9          9          9          9          9          9          9          9          9          9          9          9          9          9          9          9          9          9          9          9          9          9          9          9          9          9          9          9          9          9          9          9          9          9          9          9          9          9          9          9          9          9          9          9          9          9          9          9          9          9          9          9          9          9          9          9          9          9          9          9          9          9          9          9          9          9          9          9          9          9          9          9          9          9          9          9          9          9          9          9          9          9          9          9          9          9          9          9          9 </DataArray>
</Cells>
<CellData>
<DataArray type="Int32"                                    Name="material"                                                      NumberOfComponents=" 1" format="ascii">
         1          1          1          1          1          1          1          1          1          1          1          1          1          1          1          1          1          1          1          1          1          1          1          1          1          1          1          1          1          1          1          1          1          1          1          1          1          1          1          1          1          1          1          1          1          1          1          1          1          1          1          1          1          1          1          1          1          1          1          1          1          1          1          1          1          1          1          1          1          1          1          1          1          1          1          1          1          1          1          1          1          1          1          1          1          1          1          1          1          1          1          1          1          1          1          1          1          1          1          1          1          1          1          1          1          1          1          1          1          1          1          1          1          1          1          1          1          1          1          1          1          1          1          1          1          1          1          1          1          1          1          1          1          1          1          1          1          1          1          1          1          1          1          1          1          1          1          1          1          1          1          1          1          1          1          1          1          1          1          1          1          1          1          1          1          1          1          1          1          1          1          1          1          1          1          1          1          1          1          1          1          1          1          1          1          1          1          1          1          1          1          1          1          1          1          1          1          1          1          1          1          1          1          1          1          1          1          1          1          1          1          1          1          1          1          1          1          1          1          1          1          1          1          1          1          1          1          1          1          1          1          1          1          1          1          1          1          1          1          1          1          1          1          1          1          1          1          1          1          1          1          1          1          1          1          1          1          1          1          1          1          1          1          1          1          1          1          1          1          1          1          1          1          1          1          1          1          1          1          1          1          1          1          1          1          1          1          1          1          1          1          1          1          1          1          1          1          1          1          1          1          1          1          1          1          1          1          1          1          1          1          1          1          1          1          1          1          1          1          1          1          1          1          1          1          1          1          1          1          1          1          1          1          1          1          1          1          1          1          1          1          1          1          1          1          1          1          1          1          1          1          1          1          1          1          1          1          1          1          1          1          1          1          1          1          1          1          1          1          1          1          1          1          1          1          1          1          1          1          1          1          1          1          1          1          1          1          1          1          1          1          1          1          1          1          1          1          1          1          1          1          1          1          1          1          1          1          1          1          1          1          1          1          1          1          1          1          1          1          1          1          1          1          1          1          1          1          1          1          1          1          1          1          1          1          1          1          1          1          1          1          1          1          1          1          1          1          1          1          1          1          1          1          1          1          1          1          1          1          1          1          1          1          1          1          1          1          1          1          1          1          1          1          1          1          1          1          1          1          1          1          1          1          1          1          1          1          1          1          1          1          1          1          1          1          1          1          1          1          1          1          1          1          1          1          1          1          1          1          1          1          1          1          1          1          1          1          1          1          1          1          1          1          1          1          1          1          1          1          1          1          1          1          1          1          1          1          1          1          1          1          1          1          1          1          1          1          1          1          1          1          1          1          1          1          1          1          1          1          1          1          1          1          1          1          1          1          1          1          1          1          1          1          1          1          1          1          1          1          1          1          1          1          1          1          1          1          1          1          1          1          1          1          1          1          1          1          1          1          1          1          1          1          1          1          1          1          1          1          1          1          1          1          1          1          1          1          1          1          1          1          1          1          1          1          1          1          1          1          1          1          1          1          1          1          1          1          1          1          1          1          1          1          1          1          1          1          1          1          1          1          1          1          1          1          1          1          1          1          1          1          1          1          1          1          1          1          1          1          1          1          1          1          1          1          1          1          1          1          1          1          1          1          1          1          1          1          1          1          1          1          1          1          1          1          1          1          1          1          1          1          1          1          1          1          1          1          1          1          1          1          1          1          1          1          1          1          1          1          1          1          1          1          1          1          1          1          1          1          1          1          1          1          1          1          1          1          1          1          1          1          1          1          1          1          1          1          1          1          1          1          1          1          1          1          1          1          1          1          1          1          1          1          1          1          1          1          1          1          1          1          1          1          1          1          1          1          1          1          1          1          1          1          1          1          1          1          1          1          1          1          1          1          1          1          1          1          1          1          1          1          1          1          1          1          1          1          1          1          1          1          1          1          1          1          1          1          1          1          1          1          1          1          1          1          1          1          1          1          1          1          1          1          1          1          1          1          1          1          1          1          1          1          1          1          1          1          1          1          1          1          1          1          1          1          1          1          1          1          1          1          1          1          1          1          1          1          1          1          1          1          1          1          1          1          1          1          1          1          1          1          1          1          1          1          1          1          1          1          1          1          1          1          1          1          1          1          1          1          1          1          1          1          1          1          1          1          1          1          1          1          1          1          1          1          1          1          1          1          1          1          1          1          1          1          1          1          1          1          1          1          1          1          1          1          1          1          1          1          1          1          1          1          1          1          1          1          1          1          1          1          1          1          1          1          1          1          1          1          1          1          1          1          1          1          1          1          1          1          1          1          1          1          1          1          1          1          1          1          1          1          1          1          1          1          1          1          1          1          1          1          1          1          1          1          1          1          1          1          1          1          1          1          1          1          1          1          1          1          1          1          1          1          1          1          1          1          1          1          1          1          1          1          1 </DataArray>
</CellData>
<PointData>
<DataArray type="Float64"                                    Name="u"                                                      NumberOfComponents=" 3" format="ascii">
             -0.000299513               0.000000000               0.999999987              -0.000335755               0.000000000               0.999999987              -0.000352409              -0.000000000               0.999999987              -0.000361952               0.000000000               0.999999987              -0.000369318               0.000000000               0.999999987              -0.000376822               0.000000000               0.999999987              -0.000385429               0.000000000               0.999999987              -0.000395342               0.000000000               0.999999987              -0.000406518               0.000000000               0.999999987              -0.000418826               0.000000000               0.999999987              -0.000432120               0.000000000               0.999999987              -0.000446235               0.000000000               0.999999987              -0.000461095               0.000000000               0.999999987              -0.000476548               0.000000000               0.999999987              -0.000492303               0.000000000               0.999999987              -0.000508001               0.000000000               0.999999987              -0.000523248               0.000000000               0.999999987              -0.000297770               0.000091880               0.999999987              -0.000331891               0.000077816               0.999999987              -0.000347244               0.000072528               0.999999987              -0.000356007               0.000071860               0.999999987              -0.000363002               0.000073813               0.999999987              -0.000370281               0.000077517               0.999999987              -0.000378655               0.000082332               0.999999987              -0.000388372               0.000087657               0.999999987              -0.000399364               0.000093180               0.999999987              -0.000411471               0.000098726               0.999999987              -0.000424507               0.000103990               0.999999987              -0.000438324               0.000108912               0.999999987              -0.000452791               0.000113507               0.999999987              -0.000467648               0.000117585               0.999999987              -0.000482634               0.000120652               0.999999987              -0.000497563               0.000122376               0.999999987              -0.000512139               0.000122017               0.999999987              -0.000292699               0.000182753               0.999999987              -0.000320544               0.000154971               0.999999987              -0.000332177               0.000145044               0.999999987              -0.000338916               0.000144251               0.999999987              -0.000344924               0.000148588               0.999999987              -0.000351715               0.000156248               0.999999987              -0.000359841               0.000165909               0.999999987              -0.000369315               0.000176517               0.999999987              -0.000379957               0.000187460               0.999999987              -0.000391549               0.000198381               0.999999987              -0.000403863               0.000208990               0.999999987              -0.000416810               0.000219082               0.999999987              -0.000430187               0.000228420               0.999999987              -0.000443752               0.000236525               0.999999987              -0.000457243               0.000243023               0.999999987              -0.000470427               0.000247488               0.999999987              -0.000483221               0.000249081               0.999999987              -0.000284509               0.000271672               0.999999987              -0.000302419               0.000230857               0.999999987              -0.000308743               0.000217425               0.999999987              -0.000312897               0.000217438               0.999999987              -0.000317770               0.000224879               0.999999987              -0.000324229               0.000236809               0.999999987              -0.000332237               0.000251411               0.999999987              -0.000341551               0.000267227               0.999999987              -0.000351845               0.000283394               0.999999987              -0.000362924               0.000299618               0.999999987              -0.000374603               0.000315496               0.999999987              -0.000386584               0.000330681               0.999999987              -0.000398683               0.000344610               0.999999987              -0.000410630               0.000356965               0.999999987              -0.000422242               0.000367350               0.999999987              -0.000433339               0.000375423               0.999999987              -0.000443788               0.000380641               0.999999987              -0.000273377               0.000357803               0.999999987              -0.000278498               0.000305076               0.999999987              -0.000278906               0.000289580               0.999999987              -0.000280665               0.000291525               0.999999987              -0.000284895               0.000302637               0.999999987              -0.000291374               0.000319121               0.999999987              -0.000299559               0.000338631               0.999999987              -0.000308982               0.000359495               0.999999987              -0.000319234               0.000380751               0.999999987              -0.000329987               0.000402138               0.999999987              -0.000340890               0.000423034               0.999999987              -0.000351624               0.000442865               0.999999987              -0.000361983               0.000461293               0.999999987              -0.000371811               0.000478064               0.999999987              -0.000380950               0.000492863               0.999999987              -0.000389346               0.000505501               0.999999987              -0.000397139               0.000515662               0.999999987              -0.000259393               0.000440398               0.999999987              -0.000249957               0.000377474               0.999999987              -0.000244978               0.000361354               0.999999987              -0.000245228               0.000366069               0.999999987              -0.000249573               0.000381303               0.999999987              -0.000256743               0.000402405               0.999999987              -0.000265685               0.000426618               0.999999987              -0.000275643               0.000452233               0.999999987              -0.000285941               0.000478338               0.999999987              -0.000296265               0.000504406               0.999999987              -0.000306213               0.000529789               0.999999987              -0.000315453               0.000553936               0.999999987              -0.000323853               0.000576652               0.999999987              -0.000331353               0.000597781               0.999999987              -0.000338042               0.000617167               0.999999987              -0.000344039               0.000634594               0.999999987              -0.000349482               0.000650497               0.999999987              -0.000242735               0.000518648               0.999999987              -0.000218235               0.000447999               0.999999987              -0.000209220               0.000432524               0.999999987              -0.000209367               0.000440375               0.999999987              -0.000214933               0.000459765               0.999999987              -0.000223542               0.000485234               0.999999987              -0.000233562               0.000513901               0.999999987              -0.000244023               0.000544016               0.999999987              -0.000254361               0.000574424               0.999999987              -0.000264124               0.000604682               0.999999987              -0.000272961               0.000634100               0.999999987              -0.000280589               0.000662140               0.999999987              -0.000287068               0.000688737               0.999999987              -0.000292556               0.000713840               0.999999987              -0.000297097               0.000737233               0.999999987              -0.000300798               0.000759182               0.999999987              -0.000303843               0.000780063               0.999999987              -0.000223783               0.000591632               0.999999987              -0.000185064               0.000516457               0.999999987              -0.000173966               0.000502449               0.999999987              -0.000175591               0.000513380               0.999999987              -0.000183257               0.000536611               0.999999987              -0.000193509               0.000566250               0.999999987              -0.000204543               0.000599101               0.999999987              -0.000215377               0.000633200               0.999999987              -0.000225498               0.000667628               0.999999987              -0.000234403               0.000701729               0.999999987              -0.000241819               0.000734794               0.999999987              -0.000247725               0.000766321               0.999999987              -0.000252294               0.000796323               0.999999987              -0.000255506               0.000824880               0.999999987              -0.000257591               0.000851967               0.999999987              -0.000258683               0.000877848               0.999999987              -0.000259100               0.000902931               0.999999987              -0.000203422               0.000658035               0.999999987              -0.000151810               0.000582694               0.999999987              -0.000141363               0.000570174               0.999999987              -0.000145479               0.000583866               0.999999987              -0.000155490               0.000610715               0.999999987              -0.000167358               0.000644179               0.999999987              -0.000179242               0.000680846               0.999999987              -0.000190153               0.000718712               0.999999987              -0.000199605               0.000756866               0.999999987              -0.000207182               0.000794523               0.999999987              -0.000212776               0.000830773               0.999999987              -0.000216596               0.000865451               0.999999987              -0.000218691               0.000898621               0.999999987              -0.000219206               0.000930415               0.999999987              -0.000218519               0.000961046               0.999999987              -0.000217097               0.000990775               0.999999987              -0.000215369               0.001020020               0.999999987              -0.000182941               0.000720289               0.999999987              -0.000125226               0.000654042               0.999999987              -0.000111918               0.000636929               0.999999987              -0.000114385               0.000644845               0.999999987              -0.000123136               0.000666235               0.999999987              -0.000134095               0.000695133               0.999999987              -0.000145338               0.000728029               0.999999987              -0.000155651               0.000763035               0.999999987              -0.000164476               0.000799055               0.999999987              -0.000171845               0.000835245               0.999999987              -0.000177311               0.000870893               0.999999987              -0.000180885               0.000905554               0.999999987              -0.000182754               0.000939090               0.999999987              -0.000182839               0.000971590               0.999999987              -0.000181374               0.001003105               0.999999987              -0.000178646               0.001033861               0.999999987              -0.000175333               0.001063966               0.999999987              -0.000160355               0.000776612               0.999999987              -0.000101253               0.000722439               0.999999987              -0.000085109               0.000704748               0.999999987              -0.000085313               0.000708549               0.999999987              -0.000092370               0.000725362               0.999999987              -0.000102054               0.000750041               0.999999987              -0.000112269               0.000779432               0.999999987              -0.000121808               0.000811595               0.999999987              -0.000130010               0.000845270               0.999999987              -0.000136763               0.000879740               0.999999987              -0.000141895               0.000914298               0.999999987              -0.000145137               0.000948460               0.999999987              -0.000146616               0.000981839               0.999999987              -0.000146206               0.001014574               0.999999987              -0.000143803               0.001046637               0.999999987              -0.000139631               0.001078109               0.999999987              -0.000134346               0.001109219               0.999999987              -0.000136219               0.000825831               0.999999987              -0.000079732               0.000786067               0.999999987              -0.000061839               0.000770799               0.999999987              -0.000059738               0.000772643               0.999999987              -0.000064691               0.000786263               0.999999987              -0.000072669               0.000807608               0.999999987              -0.000081463               0.000833968               0.999999987              -0.000089894               0.000863644               0.999999987              -0.000097215               0.000895345               0.999999987              -0.000103152               0.000928181               0.999999987              -0.000107607               0.000961591               0.999999987              -0.000110442               0.000994986               0.999999987              -0.000111288               0.001028048               0.999999987              -0.000110043               0.001060792               0.999999987              -0.000106622               0.001093117               0.999999987              -0.000100867               0.001125057               0.999999987              -0.000093022               0.001156850               0.999999987              -0.000110660               0.000867191               0.999999987              -0.000060567               0.000842512               0.999999987              -0.000042630               0.000831868               0.999999987              -0.000038724               0.000833927               0.999999987              -0.000041495               0.000845864               0.999999987              -0.000047415               0.000865030               0.999999987              -0.000054483               0.000889222               0.999999987              -0.000061446               0.000916963               0.999999987              -0.000067603               0.000947190               0.999999987              -0.000072669               0.000978910               0.999999987              -0.000076429               0.001011385               0.999999987              -0.000078648               0.001044236               0.999999987              -0.000078863               0.001077163               0.999999987              -0.000076807               0.001109929               0.999999987              -0.000072152               0.001142605               0.999999987              -0.000064690               0.001175152               0.999999987              -0.000054016               0.001207670               0.999999987              -0.000083951               0.000899914               0.999999987              -0.000043544               0.000889230               0.999999987              -0.000027542               0.000884337               0.999999987              -0.000022834               0.000888181               0.999999987              -0.000023779               0.000899889               0.999999987              -0.000027663               0.000918063               0.999999987              -0.000032844               0.000941054               0.999999987              -0.000038093               0.000967617               0.999999987              -0.000042932               0.000996822               0.999999987              -0.000047095               0.001027896               0.999999987              -0.000050075               0.001060141               0.999999987              -0.000051649               0.001093035               0.999999987              -0.000051351               0.001126299               0.999999987              -0.000048828               0.001159682               0.999999987              -0.000043522               0.001193090               0.999999987              -0.000034796               0.001226492               0.999999987              -0.000021807               0.001259918               0.999999987              -0.000056384               0.000923513               0.999999987              -0.000028190               0.000924081               0.999999987              -0.000016129               0.000924714               0.999999987              -0.000011888               0.000930949               0.999999987              -0.000011788               0.000943325               0.999999987              -0.000013957               0.000961265               0.999999987              -0.000017208               0.000983765               0.999999987              -0.000020819               0.001009879               0.999999987              -0.000024157               0.001038788               0.999999987              -0.000027068               0.001069823               0.999999987              -0.000029180               0.001102408               0.999999987              -0.000030143               0.001136043               0.999999987              -0.000029648               0.001170372               0.999999987              -0.000027331               0.001205169               0.999999987              -0.000022515               0.001240138               0.999999987              -0.000014265               0.001275060               0.999999987              -0.000001296               0.001309845               0.999999987              -0.000028308               0.000937652               0.999999987              -0.000013886               0.000945482               0.999999987              -0.000007389               0.000950152               0.999999987              -0.000004860               0.000958372               0.999999987              -0.000004541               0.000971545               0.999999987              -0.000005405               0.000989561               0.999999987              -0.000006998               0.001011902               0.999999987              -0.000008859               0.001037932               0.999999987              -0.000010586               0.001066909               0.999999987              -0.000012032               0.001098244               0.999999987              -0.000013157               0.001131465               0.999999987              -0.000013605               0.001166096               0.999999987              -0.000013321               0.001201766               0.999999987              -0.000011853               0.001238130               0.999999988              -0.000008917               0.001274897               0.999999988              -0.000003810               0.001311706               0.999999988               0.000004523               0.001348075               0.999999988               0.000000000               0.000942346               0.999999987              -0.000000000               0.000952693               0.999999987              -0.000000000               0.000958836               0.999999987               0.000000000               0.000967766               0.999999987               0.000000000               0.000981275               0.999999987               0.000000000               0.000999393               0.999999987              -0.000000000               0.001021673               0.999999987               0.000000000               0.001047627               0.999999987              -0.000000000               0.001076727               0.999999987              -0.000000000               0.001108254               0.999999987              -0.000000000               0.001141716               0.999999987              -0.000000000               0.001176751               0.999999987               0.000000000               0.001213052               0.999999988              -0.000000000               0.001250220               0.999999988              -0.000000000               0.001287850               0.999999988              -0.000000000               0.001325563               0.999999988              -0.000000000               0.001362710               0.999999988              -0.000299513               0.000000000               0.999999987              -0.000335755               0.000000000               0.999999987              -0.000352409              -0.000000000               0.999999987              -0.000361952               0.000000000               0.999999987              -0.000369318               0.000000000               0.999999987              -0.000376822               0.000000000               0.999999987              -0.000385429               0.000000000               0.999999987              -0.000395342               0.000000000               0.999999987              -0.000406518               0.000000000               0.999999987              -0.000418826               0.000000000               0.999999987              -0.000432120               0.000000000               0.999999987              -0.000446235               0.000000000               0.999999987              -0.000461095               0.000000000               0.999999987              -0.000476548               0.000000000               0.999999987              -0.000492303               0.000000000               0.999999987              -0.000508001               0.000000000               0.999999987              -0.000523248               0.000000000               0.999999987              -0.000297770              -0.000091880               0.999999987              -0.000331891              -0.000077816               0.999999987              -0.000347244              -0.000072528               0.999999987              -0.000356007              -0.000071860               0.999999987              -0.000363002              -0.000073813               0.999999987              -0.000370281              -0.000077517               0.999999987              -0.000378655              -0.000082332               0.999999987              -0.000388372              -0.000087657               0.999999987              -0.000399364              -0.000093180               0.999999987              -0.000411471              -0.000098726               0.999999987              -0.000424507              -0.000103990               0.999999987              -0.000438324              -0.000108912               0.999999987              -0.000452791              -0.000113507               0.999999987              -0.000467648              -0.000117585               0.999999987              -0.000482634              -0.000120652               0.999999987              -0.000497563              -0.000122376               0.999999987              -0.000512139              -0.000122017               0.999999987              -0.000292699              -0.000182753               0.999999987              -0.000320544              -0.000154971               0.999999987              -0.000332177              -0.000145044               0.999999987              -0.000338916              -0.000144251               0.999999987              -0.000344924              -0.000148588               0.999999987              -0.000351715              -0.000156248               0.999999987              -0.000359841              -0.000165909               0.999999987              -0.000369315              -0.000176517               0.999999987              -0.000379957              -0.000187460               0.999999987              -0.000391549              -0.000198381               0.999999987              -0.000403863              -0.000208990               0.999999987              -0.000416810              -0.000219082               0.999999987              -0.000430187              -0.000228420               0.999999987              -0.000443752              -0.000236525               0.999999987              -0.000457243              -0.000243023               0.999999987              -0.000470427              -0.000247488               0.999999987              -0.000483221              -0.000249081               0.999999987              -0.000284509              -0.000271672               0.999999987              -0.000302419              -0.000230857               0.999999987              -0.000308743              -0.000217425               0.999999987              -0.000312897              -0.000217438               0.999999987              -0.000317770              -0.000224879               0.999999987              -0.000324229              -0.000236809               0.999999987              -0.000332237              -0.000251411               0.999999987              -0.000341551              -0.000267227               0.999999987              -0.000351845              -0.000283394               0.999999987              -0.000362924              -0.000299618               0.999999987              -0.000374603              -0.000315496               0.999999987              -0.000386584              -0.000330681               0.999999987              -0.000398683              -0.000344610               0.999999987              -0.000410630              -0.000356965               0.999999987              -0.000422242              -0.000367350               0.999999987              -0.000433339              -0.000375423               0.999999987              -0.000443788              -0.000380641               0.999999987              -0.000273377              -0.000357803               0.999999987              -0.000278498              -0.000305076               0.999999987              -0.000278906              -0.000289580               0.999999987              -0.000280665              -0.000291525               0.999999987              -0.000284895              -0.000302637               0.999999987              -0.000291374              -0.000319121               0.999999987              -0.000299559              -0.000338631               0.999999987              -0.000308982              -0.000359495               0.999999987              -0.000319234              -0.000380751               0.999999987              -0.000329987              -0.000402138               0.999999987              -0.000340890              -0.000423034               0.999999987              -0.000351624              -0.000442865               0.999999987              -0.000361983              -0.000461293               0.999999987              -0.000371811              -0.000478064               0.999999987              -0.000380950              -0.000492863               0.999999987              -0.000389346              -0.000505501               0.999999987              -0.000397139              -0.000515662               0.999999987              -0.000259393              -0.000440398               0.999999987              -0.000249957              -0.000377474               0.999999987              -0.000244978              -0.000361354               0.999999987              -0.000245228              -0.000366069               0.999999987              -0.000249573              -0.000381303               0.999999987              -0.000256743              -0.000402405               0.999999987              -0.000265685              -0.000426618               0.999999987              -0.000275643              -0.000452233               0.999999987              -0.000285941              -0.000478338               0.999999987              -0.000296265              -0.000504406               0.999999987              -0.000306213              -0.000529789               0.999999987              -0.000315453              -0.000553936               0.999999987              -0.000323853              -0.000576652               0.999999987              -0.000331353              -0.000597781               0.999999987              -0.000338042              -0.000617167               0.999999987              -0.000344039              -0.000634594               0.999999987              -0.000349482              -0.000650497               0.999999987              -0.000242735              -0.000518648               0.999999987              -0.000218235              -0.000447999               0.999999987              -0.000209220              -0.000432524               0.999999987              -0.000209367              -0.000440375               0.999999987              -0.000214933              -0.000459765               0.999999987              -0.000223542              -0.000485234               0.999999987              -0.000233562              -0.000513901               0.999999987              -0.000244023              -0.000544016               0.999999987              -0.000254361              -0.000574424               0.999999987              -0.000264124              -0.000604682               0.999999987              -0.000272961              -0.000634100               0.999999987              -0.000280589              -0.000662140               0.999999987              -0.000287068              -0.000688737               0.999999987              -0.000292556              -0.000713840               0.999999987              -0.000297097              -0.000737233               0.999999987              -0.000300798              -0.000759182               0.999999987              -0.000303843              -0.000780063               0.999999987              -0.000223783              -0.000591632               0.999999987              -0.000185064              -0.000516457               0.999999987              -0.000173966              -0.000502449               0.999999987              -0.000175591              -0.000513380               0.999999987              -0.000183257              -0.000536611               0.999999987              -0.000193509              -0.000566250               0.999999987              -0.000204543              -0.000599101               0.999999987              -0.000215377              -0.000633200               0.999999987              -0.000225498              -0.000667628               0.999999987              -0.000234403              -0.000701729               0.999999987              -0.000241819              -0.000734794               0.999999987              -0.000247725              -0.000766321               0.999999987              -0.000252294              -0.000796323               0.999999987              -0.000255506              -0.000824880               0.999999987              -0.000257591              -0.000851967               0.999999987              -0.000258683              -0.000877848               0.999999987              -0.000259100              -0.000902931               0.999999987              -0.000203422              -0.000658035               0.999999987              -0.000151810              -0.000582694               0.999999987              -0.000141363              -0.000570174               0.999999987              -0.000145479              -0.000583866               0.999999987              -0.000155490              -0.000610715               0.999999987              -0.000167358              -0.000644179               0.999999987              -0.000179242              -0.000680846               0.999999987              -0.000190153              -0.000718712               0.999999987              -0.000199605              -0.000756866               0.999999987              -0.000207182              -0.000794523               0.999999987              -0.000212776              -0.000830773               0.999999987              -0.000216596              -0.000865451               0.999999987              -0.000218691              -0.000898621               0.999999987              -0.000219206              -0.000930415               0.999999987              -0.000218519              -0.000961046               0.999999987              -0.000217097              -0.000990775               0.999999987              -0.000215369              -0.001020020               0.999999987              -0.000182941              -0.000720289               0.999999987              -0.000125226              -0.000654042               0.999999987              -0.000111918              -0.000636929               0.999999987              -0.000114385              -0.000644845               0.999999987              -0.000123136              -0.000666235               0.999999987              -0.000134095              -0.000695133               0.999999987              -0.000145338              -0.000728029               0.999999987              -0.000155651              -0.000763035               0.999999987              -0.000164476              -0.000799055               0.999999987              -0.000171845              -0.000835245               0.999999987              -0.000177311              -0.000870893               0.999999987              -0.000180885              -0.000905554               0.999999987              -0.000182754              -0.000939090               0.999999987              -0.000182839              -0.000971590               0.999999987              -0.000181374              -0.001003105               0.999999987              -0.000178646              -0.001033861               0.999999987              -0.000175333              -0.001063966               0.999999987              -0.000160355              -0.000776612               0.999999987              -0.000101253              -0.000722439               0.999999987              -0.000085109              -0.000704748               0.999999987              -0.000085313              -0.000708549               0.999999987              -0.000092370              -0.000725362               0.999999987              -0.000102054              -0.000750041               0.999999987              -0.000112269              -0.000779432               0.999999987              -0.000121808              -0.000811595               0.999999987              -0.000130010              -0.000845270               0.999999987              -0.000136763              -0.000879740               0.999999987              -0.000141895              -0.000914298               0.999999987              -0.000145137              -0.000948460               0.999999987              -0.000146616              -0.000981839               0.999999987              -0.000146206              -0.001014574               0.999999987              -0.000143803              -0.001046637               0.999999987              -0.000139631              -0.001078109               0.999999987              -0.000134346              -0.001109219               0.999999987              -0.000136219              -0.000825831               0.999999987              -0.000079732              -0.000786067               0.999999987              -0.000061839              -0.000770799               0.999999987              -0.000059738              -0.000772643               0.999999987              -0.000064691              -0.000786263               0.999999987              -0.000072669              -0.000807608               0.999999987              -0.000081463              -0.000833968               0.999999987              -0.000089894              -0.000863644               0.999999987              -0.000097215              -0.000895345               0.999999987              -0.000103152              -0.000928181               0.999999987              -0.000107607              -0.000961591               0.999999987              -0.000110442              -0.000994986               0.999999987              -0.000111288              -0.001028048               0.999999987              -0.000110043              -0.001060792               0.999999987              -0.000106622              -0.001093117               0.999999987              -0.000100867              -0.001125057               0.999999987              -0.000093022              -0.001156850               0.999999987              -0.000110660              -0.000867191               0.999999987              -0.000060567              -0.000842512               0.999999987              -0.000042630              -0.000831868               0.999999987              -0.000038724              -0.000833927               0.999999987              -0.000041495              -0.000845864               0.999999987              -0.000047415              -0.000865030               0.999999987              -0.000054483              -0.000889222               0.999999987              -0.000061446              -0.000916963               0.999999987              -0.000067603              -0.000947190               0.999999987              -0.000072669              -0.000978910               0.999999987              -0.000076429              -0.001011385               0.999999987              -0.000078648              -0.001044236               0.999999987              -0.000078863              -0.001077163               0.999999987              -0.000076807              -0.001109929               0.999999987              -0.000072152              -0.001142605               0.999999987              -0.000064690              -0.001175152               0.999999987              -0.000054016              -0.001207670               0.999999987              -0.000083951              -0.000899914               0.999999987              -0.000043544              -0.000889230               0.999999987              -0.000027542              -0.000884337               0.999999987              -0.000022834              -0.000888181               0.999999987              -0.000023779              -0.000899889               0.999999987              -0.000027663              -0.000918063               0.999999987              -0.000032844              -0.000941054               0.999999987              -0.000038093              -0.000967617               0.999999987              -0.000042932              -0.000996822               0.999999987              -0.000047095              -0.001027896               0.999999987              -0.000050075              -0.001060141               0.999999987              -0.000051649              -0.001093035               0.999999987              -0.000051351              -0.001126299               0.999999987              -0.000048828              -0.001159682               0.999999987              -0.000043522              -0.001193090               0.999999987              -0.000034796              -0.001226492               0.999999987              -0.000021807              -0.001259918               0.999999987              -0.000056384              -0.000923513               0.999999987              -0.000028190              -0.000924081               0.999999987              -0.000016129              -0.000924714               0.999999987              -0.000011888              -0.000930949               0.999999987              -0.000011788              -0.000943325               0.999999987              -0.000013957              -0.000961265               0.999999987              -0.000017208              -0.000983765               0.999999987              -0.000020819              -0.001009879               0.999999987              -0.000024157              -0.001038788               0.999999987              -0.000027068              -0.001069823               0.999999987              -0.000029180              -0.001102408               0.999999987              -0.000030143              -0.001136043               0.999999987              -0.000029648              -0.001170372               0.999999987              -0.000027331              -0.001205169               0.999999987              -0.000022515              -0.001240138               0.999999987              -0.000014265              -0.001275060               0.999999987              -0.000001296              -0.001309845               0.999999987              -0.000028308              -0.000937652               0.999999987              -0.000013886              -0.000945482               0.999999987              -0.000007389              -0.000950152               0.999999987              -0.000004860              -0.000958372               0.999999987              -0.000004541              -0.000971545               0.999999987              -0.000005405              -0.000989561               0.999999987              -0.000006998              -0.001011902               0.999999987              -0.000008859              -0.001037932               0.999999987              -0.000010586              -0.001066909               0.999999987              -0.000012032              -0.001098244               0.999999987              -0.000013157              -0.001131465               0.999999987              -0.000013605              -0.001166096               0.999999987              -0.000013321              -0.001201766               0.999999987              -0.000011853              -0.001238130               0.999999988              -0.000008917              -0.001274897               0.999999988              -0.000003810              -0.001311706               0.999999988               0.000004523              -0.001348075               0.999999988              -0.000000000              -0.000942346               0.999999987              -0.000000000              -0.000952693               0.999999987              -0.000000000              -0.000958836               0.999999987              -0.000000000              -0.000967766               0.999999987               0.000000000              -0.000981275               0.999999987              -0.000000000              -0.000999393               0.999999987               0.000000000              -0.001021673               0.999999987               0.000000000              -0.001047627               0.999999987              -0.000000000              -0.001076727               0.999999987               0.000000000              -0.001108254               0.999999987               0.000000000              -0.001141716               0.999999987               0.000000000              -0.001176751               0.999999987              -0.000000000              -0.001213052               0.999999988              -0.000000000              -0.001250220               0.999999988               0.000000000              -0.001287850               0.999999988              -0.000000000              -0.001325563               0.999999988              -0.000000000              -0.001362710               0.999999988               0.000299513               0.000000000               0.999999987               0.000335755               0.000000000               0.999999987               0.000352409              -0.000000000               0.999999987               0.000361952               0.000000000               0.999999987               0.000369318               0.000000000               0.999999987               0.000376822               0.000000000               0.999999987               0.000385429              -0.000000000               0.999999987               0.000395342              -0.000000000               0.999999987               0.000406518               0.000000000               0.999999987               0.000418826              -0.000000000               0.999999987               0.000432120               0.000000000               0.999999987               0.000446235              -0.000000000               0.999999987               0.000461095               0.000000000               0.999999987               0.000476548               0.000000000               0.999999987               0.000492303              -0.000000000               0.999999987               0.000508001               0.000000000               0.999999987               0.000523248               0.000000000               0.999999987               0.000297770              -0.000091880               0.999999987               0.000331891              -0.000077816               0.999999987               0.000347244              -0.000072528               0.999999987               0.000356007              -0.000071860               0.999999987               0.000363002              -0.000073813               0.999999987               0.000370281              -0.000077517               0.999999987               0.000378655              -0.000082332               0.999999987               0.000388372              -0.000087657               0.999999987               0.000399364              -0.000093180               0.999999987               0.000411471              -0.000098726               0.999999987               0.000424507              -0.000103990               0.999999987               0.000438324              -0.000108912               0.999999987               0.000452791              -0.000113507               0.999999987               0.000467648              -0.000117585               0.999999987               0.000482634              -0.000120652               0.999999987               0.000497563              -0.000122376               0.999999987               0.000512139              -0.000122017               0.999999987               0.000292699              -0.000182753               0.999999987               0.000320544              -0.000154971               0.999999987               0.000332177              -0.000145044               0.999999987               0.000338916              -0.000144251               0.999999987               0.000344924              -0.000148588               0.999999987               0.000351715              -0.000156248               0.999999987               0.000359841              -0.000165909               0.999999987               0.000369315              -0.000176517               0.999999987               0.000379957              -0.000187460               0.999999987               0.000391549              -0.000198381               0.999999987               0.000403863              -0.000208990               0.999999987               0.000416810              -0.000219082               0.999999987               0.000430187              -0.000228420               0.999999987               0.000443752              -0.000236525               0.999999987               0.000457243              -0.000243023               0.999999987               0.000470427              -0.000247488               0.999999987               0.000483221              -0.000249081               0.999999987               0.000284509              -0.000271672               0.999999987               0.000302419              -0.000230857               0.999999987               0.000308743              -0.000217425               0.999999987               0.000312897              -0.000217438               0.999999987               0.000317770              -0.000224879               0.999999987               0.000324229              -0.000236809               0.999999987               0.000332237              -0.000251411               0.999999987               0.000341551              -0.000267227               0.999999987               0.000351845              -0.000283394               0.999999987               0.000362924              -0.000299618               0.999999987               0.000374603              -0.000315496               0.999999987               0.000386584              -0.000330681               0.999999987               0.000398683              -0.000344610               0.999999987               0.000410630              -0.000356965               0.999999987               0.000422242              -0.000367350               0.999999987               0.000433339              -0.000375423               0.999999987               0.000443788              -0.000380641               0.999999987               0.000273377              -0.000357803               0.999999987               0.000278498              -0.000305076               0.999999987               0.000278906              -0.000289580               0.999999987               0.000280665              -0.000291525               0.999999987               0.000284895              -0.000302637               0.999999987               0.000291374              -0.000319121               0.999999987               0.000299559              -0.000338631               0.999999987               0.000308982              -0.000359495               0.999999987               0.000319234              -0.000380751               0.999999987               0.000329987              -0.000402138               0.999999987               0.000340890              -0.000423034               0.999999987               0.000351624              -0.000442865               0.999999987               0.000361983              -0.000461293               0.999999987               0.000371811              -0.000478064               0.999999987               0.000380950              -0.000492863               0.999999987               0.000389346              -0.000505501               0.999999987               0.000397139              -0.000515662               0.999999987               0.000259393              -0.000440398               0.999999987               0.000249957              -0.000377474               0.999999987               0.000244978              -0.000361354               0.999999987               0.000245228              -0.000366069               0.999999987               0.000249573              -0.000381303               0.999999987               0.000256743              -0.000402405               0.999999987               0.000265685              -0.000426618               0.999999987               0.000275643              -0.000452233               0.999999987               0.000285941              -0.000478338               0.999999987               0.000296265              -0.000504406               0.999999987               0.000306213              -0.000529789               0.999999987               0.000315453              -0.000553936               0.999999987               0.000323853              -0.000576652               0.999999987               0.000331353              -0.000597781               0.999999987               0.000338042              -0.000617167               0.999999987               0.000344039              -0.000634594               0.999999987               0.000349482              -0.000650497               0.999999987               0.000242735              -0.000518648               0.999999987               0.000218235              -0.000447999               0.999999987               0.000209220              -0.000432524               0.999999987               0.000209367              -0.000440375               0.999999987               0.000214933              -0.000459765               0.999999987               0.000223542              -0.000485234               0.999999987               0.000233562              -0.000513901               0.999999987               0.000244023              -0.000544016               0.999999987               0.000254361              -0.000574424               0.999999987               0.000264124              -0.000604682               0.999999987               0.000272961              -0.000634100               0.999999987               0.000280589              -0.000662140               0.999999987               0.000287068              -0.000688737               0.999999987               0.000292556              -0.000713840               0.999999987               0.000297097              -0.000737233               0.999999987               0.000300798              -0.000759182               0.999999987               0.000303843              -0.000780063               0.999999987               0.000223783              -0.000591632               0.999999987               0.000185064              -0.000516457               0.999999987               0.000173966              -0.000502449               0.999999987               0.000175591              -0.000513380               0.999999987               0.000183257              -0.000536611               0.999999987               0.000193509              -0.000566250               0.999999987               0.000204543              -0.000599101               0.999999987               0.000215377              -0.000633200               0.999999987               0.000225498              -0.000667628               0.999999987               0.000234403              -0.000701729               0.999999987               0.000241819              -0.000734794               0.999999987               0.000247725              -0.000766321               0.999999987               0.000252294              -0.000796323               0.999999987               0.000255506              -0.000824880               0.999999987               0.000257591              -0.000851967               0.999999987               0.000258683              -0.000877848               0.999999987               0.000259100              -0.000902931               0.999999987               0.000203422              -0.000658035               0.999999987               0.000151810              -0.000582694               0.999999987               0.000141363              -0.000570174               0.999999987               0.000145479              -0.000583866               0.999999987               0.000155490              -0.000610715               0.999999987               0.000167358              -0.000644179               0.999999987               0.000179242              -0.000680846               0.999999987               0.000190153              -0.000718712               0.999999987               0.000199605              -0.000756866               0.999999987               0.000207182              -0.000794523               0.999999987               0.000212776              -0.000830773               0.999999987               0.000216596              -0.000865451               0.999999987               0.000218691              -0.000898621               0.999999987               0.000219206              -0.000930415               0.999999987               0.000218519              -0.000961046               0.999999987               0.000217097              -0.000990775               0.999999987               0.000215369              -0.001020020               0.999999987               0.000182941              -0.000720289               0.999999987               0.000125226              -0.000654042               0.999999987               0.000111918              -0.000636929               0.999999987               0.000114385              -0.000644845               0.999999987               0.000123136              -0.000666235               0.999999987               0.000134095              -0.000695133               0.999999987               0.000145338              -0.000728029               0.999999987               0.000155651              -0.000763035               0.999999987               0.000164476              -0.000799055               0.999999987               0.000171845              -0.000835245               0.999999987               0.000177311              -0.000870893               0.999999987               0.000180885              -0.000905554               0.999999987               0.000182754              -0.000939090               0.999999987               0.000182839              -0.000971590               0.999999987               0.000181374              -0.001003105               0.999999987               0.000178646              -0.001033861               0.999999987               0.000175333              -0.001063966               0.999999987               0.000160355              -0.000776612               0.999999987               0.000101253              -0.000722439               0.999999987               0.000085109              -0.000704748               0.999999987               0.000085313              -0.000708549               0.999999987               0.000092370              -0.000725362               0.999999987               0.000102054              -0.000750041               0.999999987               0.000112269              -0.000779432               0.999999987               0.000121808              -0.000811595               0.999999987               0.000130010              -0.000845270               0.999999987               0.000136763              -0.000879740               0.999999987               0.000141895              -0.000914298               0.999999987               0.000145137              -0.000948460               0.999999987               0.000146616              -0.000981839               0.999999987               0.000146206              -0.001014574               0.999999987               0.000143803              -0.001046637               0.999999987               0.000139631              -0.001078109               0.999999987               0.000134346              -0.001109219               0.999999987               0.000136219              -0.000825831               0.999999987               0.000079732              -0.000786067               0.999999987               0.000061839              -0.000770799               0.999999987               0.000059738              -0.000772643               0.999999987               0.000064691              -0.000786263               0.999999987               0.000072669              -0.000807608               0.999999987               0.000081463              -0.000833968               0.999999987               0.000089894              -0.000863644               0.999999987               0.000097215              -0.000895345               0.999999987               0.000103152              -0.000928181               0.999999987               0.000107607              -0.000961591               0.999999987               0.000110442              -0.000994986               0.999999987               0.000111288              -0.001028048               0.999999987               0.000110043              -0.001060792               0.999999987               0.000106622              -0.001093117               0.999999987               0.000100867              -0.001125057               0.999999987               0.000093022              -0.001156850               0.999999987               0.000110660              -0.000867191               0.999999987               0.000060567              -0.000842512               0.999999987               0.000042630              -0.000831868               0.999999987               0.000038724              -0.000833927               0.999999987               0.000041495              -0.000845864               0.999999987               0.000047415              -0.000865030               0.999999987               0.000054483              -0.000889222               0.999999987               0.000061446              -0.000916963               0.999999987               0.000067603              -0.000947190               0.999999987               0.000072669              -0.000978910               0.999999987               0.000076429              -0.001011385               0.999999987               0.000078648              -0.001044236               0.999999987               0.000078863              -0.001077163               0.999999987               0.000076807              -0.001109929               0.999999987               0.000072152              -0.001142605               0.999999987               0.000064690              -0.001175152               0.999999987               0.000054016              -0.001207670               0.999999987               0.000083951              -0.000899914               0.999999987               0.000043544              -0.000889230               0.999999987               0.000027542              -0.000884337               0.999999987               0.000022834              -0.000888181               0.999999987               0.000023779              -0.000899889               0.999999987               0.000027663              -0.000918063               0.999999987               0.000032844              -0.000941054               0.999999987               0.000038093              -0.000967617               0.999999987               0.000042932              -0.000996822               0.999999987               0.000047095              -0.001027896               0.999999987               0.000050075              -0.001060141               0.999999987               0.000051649              -0.001093035               0.999999987               0.000051351              -0.001126299               0.999999987               0.000048828              -0.001159682               0.999999987               0.000043522              -0.001193090               0.999999987               0.000034796              -0.001226492               0.999999987               0.000021807              -0.001259918               0.999999987               0.000056384              -0.000923513               0.999999987               0.000028190              -0.000924081               0.999999987               0.000016129              -0.000924714               0.999999987               0.000011888              -0.000930949               0.999999987               0.000011788              -0.000943325               0.999999987               0.000013957              -0.000961265               0.999999987               0.000017208              -0.000983765               0.999999987               0.000020819              -0.001009879               0.999999987               0.000024157              -0.001038788               0.999999987               0.000027068              -0.001069823               0.999999987               0.000029180              -0.001102408               0.999999987               0.000030143              -0.001136043               0.999999987               0.000029648              -0.001170372               0.999999987               0.000027331              -0.001205169               0.999999987               0.000022515              -0.001240138               0.999999987               0.000014265              -0.001275060               0.999999987               0.000001296              -0.001309845               0.999999987               0.000028308              -0.000937652               0.999999987               0.000013886              -0.000945482               0.999999987               0.000007389              -0.000950152               0.999999987               0.000004860              -0.000958372               0.999999987               0.000004541              -0.000971545               0.999999987               0.000005405              -0.000989561               0.999999987               0.000006998              -0.001011902               0.999999987               0.000008859              -0.001037932               0.999999987               0.000010586              -0.001066909               0.999999987               0.000012032              -0.001098244               0.999999987               0.000013157              -0.001131465               0.999999987               0.000013605              -0.001166096               0.999999987               0.000013321              -0.001201766               0.999999987               0.000011853              -0.001238130               0.999999988               0.000008917              -0.001274897               0.999999988               0.000003810              -0.001311706               0.999999988              -0.000004523              -0.001348075               0.999999988              -0.000000000              -0.000942346               0.999999987              -0.000000000              -0.000952693               0.999999987              -0.000000000              -0.000958836               0.999999987              -0.000000000              -0.000967766               0.999999987               0.000000000              -0.000981275               0.999999987              -0.000000000              -0.000999393               0.999999987               0.000000000              -0.001021673               0.999999987               0.000000000              -0.001047627               0.999999987              -0.000000000              -0.001076727               0.999999987               0.000000000              -0.001108254               0.999999987               0.000000000              -0.001141716               0.999999987               0.000000000              -0.001176751               0.999999987              -0.000000000              -0.001213052               0.999999988              -0.000000000              -0.001250220               0.999999988               0.000000000              -0.001287850               0.999999988              -0.000000000              -0.001325563               0.999999988              -0.000000000              -0.001362710               0.999999988               0.000299513               0.000000000               0.999999987               0.000335755               0.000000000               0.999999987               0.000352409              -0.000000000               0.999999987               0.000361952               0.000000000               0.999999987               0.000369318               0.000000000               0.999999987               0.000376822               0.000000000               0.999999987               0.000385429              -0.000000000               0.999999987               0.000395342              -0.000000000               0.999999987               0.000406518               0.000000000               0.999999987               0.000418826              -0.000000000               0.999999987               0.000432120               0.000000000               0.999999987               0.000446235              -0.000000000               0.999999987               0.000461095               0.000000000               0.999999987               0.000476548               0.000000000               0.999999987               0.000492303              -0.000000000               0.999999987               0.000508001               0.000000000               0.999999987               0.000523248               0.000000000               0.999999987               0.000297770               0.000091880               0.999999987               0.000331891               0.000077816               0.999999987               0.000347244               0.000072528               0.999999987               0.000356007               0.000071860               0.999999987               0.000363002               0.000073813               0.999999987               0.000370281               0.000077517               0.999999987               0.000378655               0.000082332               0.999999987               0.000388372               0.000087657               0.999999987               0.000399364               0.000093180               0.999999987               0.000411471               0.000098726               0.999999987               0.000424507               0.000103990               0.999999987               0.000438324               0.000108912               0.999999987               0.000452791               0.000113507               0.999999987               0.000467648               0.000117585               0.999999987               0.000482634               0.000120652               0.999999987               0.000497563               0.000122376               0.999999987               0.000512139               0.000122017               0.999999987               0.000292699               0.000182753               0.999999987               0.000320544               0.000154971               0.999999987               0.000332177               0.000145044               0.999999987               0.000338916               0.000144251               0.999999987               0.000344924               0.000148588               0.999999987               0.000351715               0.000156248               0.999999987               0.000359841               0.000165909               0.999999987               0.000369315               0.000176517               0.999999987               0.000379957               0.000187460               0.999999987               0.000391549               0.000198381               0.999999987               0.000403863               0.000208990               0.999999987               0.000416810               0.000219082               0.999999987               0.000430187               0.000228420               0.999999987               0.000443752               0.000236525               0.999999987               0.000457243               0.000243023               0.999999987               0.000470427               0.000247488               0.999999987               0.000483221               0.000249081               0.999999987               0.000284509               0.000271672               0.999999987               0.000302419               0.000230857               0.999999987               0.000308743               0.000217425               0.999999987               0.000312897               0.000217438               0.999999987               0.000317770               0.000224879               0.999999987               0.000324229               0.000236809               0.999999987               0.000332237               0.000251411               0.999999987               0.000341551               0.000267227               0.999999987               0.000351845               0.000283394               0.999999987               0.000362924               0.000299618               0.999999987               0.000374603               0.000315496               0.999999987               0.000386584               0.000330681               0.999999987               0.000398683               0.000344610               0.999999987               0.000410630               0.000356965               0.999999987               0.000422242               0.000367350               0.999999987               0.000433339               0.000375423               0.999999987               0.000443788               0.000380641               0.999999987               0.000273377               0.000357803               0.999999987               0.000278498               0.000305076               0.999999987               0.000278906               0.000289580               0.999999987               0.000280665               0.000291525               0.999999987               0.000284895               0.000302637               0.999999987               0.000291374               0.000319121               0.999999987               0.000299559               0.000338631               0.999999987               0.000308982               0.000359495               0.999999987               0.000319234               0.000380751               0.999999987               0.000329987               0.000402138               0.999999987               0.000340890               0.000423034               0.999999987               0.000351624               0.000442865               0.999999987               0.000361983               0.000461293               0.999999987               0.000371811               0.000478064               0.999999987               0.000380950               0.000492863               0.999999987               0.000389346               0.000505501               0.999999987               0.000397139               0.000515662               0.999999987               0.000259393               0.000440398               0.999999987               0.000249957               0.000377474               0.999999987               0.000244978               0.000361354               0.999999987               0.000245228               0.000366069               0.999999987               0.000249573               0.000381303               0.999999987               0.000256743               0.000402405               0.999999987               0.000265685               0.000426618               0.999999987               0.000275643               0.000452233               0.999999987               0.000285941               0.000478338               0.999999987               0.000296265               0.000504406               0.999999987               0.000306213               0.000529789               0.999999987               0.000315453               0.000553936               0.999999987               0.000323853               0.000576652               0.999999987               0.000331353               0.000597781               0.999999987               0.000338042               0.000617167               0.999999987               0.000344039               0.000634594               0.999999987               0.000349482               0.000650497               0.999999987               0.000242735               0.000518648               0.999999987               0.000218235               0.000447999               0.999999987               0.000209220               0.000432524               0.999999987               0.000209367               0.000440375               0.999999987               0.000214933               0.000459765               0.999999987               0.000223542               0.000485234               0.999999987               0.000233562               0.000513901               0.999999987               0.000244023               0.000544016               0.999999987               0.000254361               0.000574424               0.999999987               0.000264124               0.000604682               0.999999987               0.000272961               0.000634100               0.999999987               0.000280589               0.000662140               0.999999987               0.000287068               0.000688737               0.999999987               0.000292556               0.000713840               0.999999987               0.000297097               0.000737233               0.999999987               0.000300798               0.000759182               0.999999987               0.000303843               0.000780063               0.999999987               0.000223783               0.000591632               0.999999987               0.000185064               0.000516457               0.999999987               0.000173966               0.000502449               0.999999987               0.000175591               0.000513380               0.999999987               0.000183257               0.000536611               0.999999987               0.000193509               0.000566250               0.999999987               0.000204543               0.000599101               0.999999987               0.000215377               0.000633200               0.999999987               0.000225498               0.000667628               0.999999987               0.000234403               0.000701729               0.999999987               0.000241819               0.000734794               0.999999987               0.000247725               0.000766321               0.999999987               0.000252294               0.000796323               0.999999987               0.000255506               0.000824880               0.999999987               0.000257591               0.000851967               0.999999987               0.000258683               0.000877848               0.999999987               0.000259100               0.000902931               0.999999987               0.000203422               0.000658035               0.999999987               0.000151810               0.000582694               0.999999987               0.000141363               0.000570174               0.999999987               0.000145479               0.000583866               0.999999987               0.000155490               0.000610715               0.999999987               0.000167358               0.000644179               0.999999987               0.000179242               0.000680846               0.999999987               0.000190153               0.000718712               0.999999987               0.000199605               0.000756866               0.999999987               0.000207182               0.000794523               0.999999987               0.000212776               0.000830773               0.999999987               0.000216596               0.000865451               0.999999987               0.000218691               0.000898621               0.999999987               0.000219206               0.000930415               0.999999987               0.000218519               0.000961046               0.999999987               0.000217097               0.000990775               0.999999987               0.000215369               0.001020020               0.999999987               0.000182941               0.000720289               0.999999987               0.000125226               0.000654042               0.999999987               0.000111918               0.000636929               0.999999987               0.000114385               0.000644845               0.999999987               0.000123136               0.000666235               0.999999987               0.000134095               0.000695133               0.999999987               0.000145338               0.000728029               0.999999987               0.000155651               0.000763035               0.999999987               0.000164476               0.000799055               0.999999987               0.000171845               0.000835245               0.999999987               0.000177311               0.000870893               0.999999987               0.000180885               0.000905554               0.999999987               0.000182754               0.000939090               0.999999987               0.000182839               0.000971590               0.999999987               0.000181374               0.001003105               0.999999987               0.000178646               0.001033861               0.999999987               0.000175333               0.001063966               0.999999987               0.000160355               0.000776612               0.999999987               0.000101253               0.000722439               0.999999987               0.000085109               0.000704748               0.999999987               0.000085313               0.000708549               0.999999987               0.000092370               0.000725362               0.999999987               0.000102054               0.000750041               0.999999987               0.000112269               0.000779432               0.999999987               0.000121808               0.000811595               0.999999987               0.000130010               0.000845270               0.999999987               0.000136763               0.000879740               0.999999987               0.000141895               0.000914298               0.999999987               0.000145137               0.000948460               0.999999987               0.000146616               0.000981839               0.999999987               0.000146206               0.001014574               0.999999987               0.000143803               0.001046637               0.999999987               0.000139631               0.001078109               0.999999987               0.000134346               0.001109219               0.999999987               0.000136219               0.000825831               0.999999987               0.000079732               0.000786067               0.999999987               0.000061839               0.000770799               0.999999987               0.000059738               0.000772643               0.999999987               0.000064691               0.000786263               0.999999987               0.000072669               0.000807608               0.999999987               0.000081463               0.000833968               0.999999987               0.000089894               0.000863644               0.999999987               0.000097215               0.000895345               0.999999987               0.000103152               0.000928181               0.999999987               0.000107607               0.000961591               0.999999987               0.000110442               0.000994986               0.999999987               0.000111288               0.001028048               0.999999987               0.000110043               0.001060792               0.999999987               0.000106622               0.001093117               0.999999987               0.000100867               0.001125057               0.999999987               0.000093022               0.001156850               0.999999987               0.000110660               0.000867191               0.999999987               0.000060567               0.000842512               0.999999987               0.000042630               0.000831868               0.999999987               0.000038724               0.000833927               0.999999987               0.000041495               0.000845864               0.999999987               0.000047415               0.000865030               0.999999987               0.000054483               0.000889222               0.999999987               0.000061446               0.000916963               0.999999987               0.000067603               0.000947190               0.999999987               0.000072669               0.000978910               0.999999987               0.000076429               0.001011385               0.999999987               0.000078648               0.001044236               0.999999987               0.000078863               0.001077163               0.999999987               0.000076807               0.001109929               0.999999987               0.000072152               0.001142605               0.999999987               0.000064690               0.001175152               0.999999987               0.000054016               0.001207670               0.999999987               0.000083951               0.000899914               0.999999987               0.000043544               0.000889230               0.999999987               0.000027542               0.000884337               0.999999987               0.000022834               0.000888181               0.999999987               0.000023779               0.000899889               0.999999987               0.000027663               0.000918063               0.999999987               0.000032844               0.000941054               0.999999987               0.000038093               0.000967617               0.999999987               0.000042932               0.000996822               0.999999987               0.000047095               0.001027896               0.999999987               0.000050075               0.001060141               0.999999987               0.000051649               0.001093035               0.999999987               0.000051351               0.001126299               0.999999987               0.000048828               0.001159682               0.999999987               0.000043522               0.001193090               0.999999987               0.000034796               0.001226492               0.999999987               0.000021807               0.001259918               0.999999987               0.000056384               0.000923513               0.999999987               0.000028190               0.000924081               0.999999987               0.000016129               0.000924714               0.999999987               0.000011888               0.000930949               0.999999987               0.000011788               0.000943325               0.999999987               0.000013957               0.000961265               0.999999987               0.000017208               0.000983765               0.999999987               0.000020819               0.001009879               0.999999987               0.000024157               0.001038788               0.999999987               0.000027068               0.001069823               0.999999987               0.000029180               0.001102408               0.999999987               0.000030143               0.001136043               0.999999987               0.000029648               0.001170372               0.999999987               0.000027331               0.001205169               0.999999987               0.000022515               0.001240138               0.999999987               0.000014265               0.001275060               0.999999987               0.000001296               0.001309845               0.999999987               0.000028308               0.000937652               0.999999987               0.000013886               0.000945482               0.999999987               0.000007389               0.000950152               0.999999987               0.000004860               0.000958372               0.999999987               0.000004541               0.000971545               0.999999987               0.000005405               0.000989561               0.999999987               0.000006998               0.001011902               0.999999987               0.000008859               0.001037932               0.999999987               0.000010586               0.001066909               0.999999987               0.000012032               0.001098244               0.999999987               0.000013157               0.001131465               0.999999987               0.000013605               0.001166096               0.999999987               0.000013321               0.001201766               0.999999987               0.000011853               0.001238130               0.999999988               0.000008917               0.001274897               0.999999988               0.000003810               0.001311706               0.999999988              -0.000004523               0.001348075               0.999999988               0.000000000               0.000942346               0.999999987              -0.000000000               0.000952693               0.999999987              -0.000000000               0.000958836               0.999999987               0.000000000               0.000967766               0.999999987               0.000000000               0.000981275               0.999999987               0.000000000               0.000999393               0.999999987              -0.000000000               0.001021673               0.999999987               0.000000000               0.001047627               0.999999987              -0.000000000               0.001076727               0.999999987              -0.000000000               0.001108254               0.999999987              -0.000000000               0.001141716               0.999999987              -0.000000000               0.001176751               0.999999987               0.000000000               0.001213052               0.999999988              -0.000000000               0.001250220               0.999999988              -0.000000000               0.001287850               0.999999988              -0.000000000               0.001325563               0.999999988              -0.000000000               0.001362710               0.999999988 </DataArray>
<DataArray type="Float64"                                    Name="defo"                                                      NumberOfComponents=" 3" format="ascii">
             -0.000299513               0.000000000               0.999999987              -0.000335755               0.000000000               0.999999987              -0.000352409              -0.000000000               0.999999987              -0.000361952               0.000000000               0.999999987              -0.000369318               0.000000000               0.999999987              -0.000376822               0.000000000               0.999999987              -0.000385429               0.000000000               0.999999987              -0.000395342               0.000000000               0.999999987              -0.000406518               0.000000000               0.999999987              -0.000418826               0.000000000               0.999999987              -0.000432120               0.000000000               0.999999987              -0.000446235               0.000000000               0.999999987              -0.000461095               0.000000000               0.999999987              -0.000476548               0.000000000               0.999999987              -0.000492303               0.000000000               0.999999987              -0.000508001               0.000000000               0.999999987              -0.000523248               0.000000000               0.999999987              -0.000297770               0.000091880               0.999999987              -0.000331891               0.000077816               0.999999987              -0.000347244               0.000072528               0.999999987              -0.000356007               0.000071860               0.999999987              -0.000363002               0.000073813               0.999999987              -0.000370281               0.000077517               0.999999987              -0.000378655               0.000082332               0.999999987              -0.000388372               0.000087657               0.999999987              -0.000399364               0.000093180               0.999999987              -0.000411471               0.000098726               0.999999987              -0.000424507               0.000103990               0.999999987              -0.000438324               0.000108912               0.999999987              -0.000452791               0.000113507               0.999999987              -0.000467648               0.000117585               0.999999987              -0.000482634               0.000120652               0.999999987              -0.000497563               0.000122376               0.999999987              -0.000512139               0.000122017               0.999999987              -0.000292699               0.000182753               0.999999987              -0.000320544               0.000154971               0.999999987              -0.000332177               0.000145044               0.999999987              -0.000338916               0.000144251               0.999999987              -0.000344924               0.000148588               0.999999987              -0.000351715               0.000156248               0.999999987              -0.000359841               0.000165909               0.999999987              -0.000369315               0.000176517               0.999999987              -0.000379957               0.000187460               0.999999987              -0.000391549               0.000198381               0.999999987              -0.000403863               0.000208990               0.999999987              -0.000416810               0.000219082               0.999999987              -0.000430187               0.000228420               0.999999987              -0.000443752               0.000236525               0.999999987              -0.000457243               0.000243023               0.999999987              -0.000470427               0.000247488               0.999999987              -0.000483221               0.000249081               0.999999987              -0.000284509               0.000271672               0.999999987              -0.000302419               0.000230857               0.999999987              -0.000308743               0.000217425               0.999999987              -0.000312897               0.000217438               0.999999987              -0.000317770               0.000224879               0.999999987              -0.000324229               0.000236809               0.999999987              -0.000332237               0.000251411               0.999999987              -0.000341551               0.000267227               0.999999987              -0.000351845               0.000283394               0.999999987              -0.000362924               0.000299618               0.999999987              -0.000374603               0.000315496               0.999999987              -0.000386584               0.000330681               0.999999987              -0.000398683               0.000344610               0.999999987              -0.000410630               0.000356965               0.999999987              -0.000422242               0.000367350               0.999999987              -0.000433339               0.000375423               0.999999987              -0.000443788               0.000380641               0.999999987              -0.000273377               0.000357803               0.999999987              -0.000278498               0.000305076               0.999999987              -0.000278906               0.000289580               0.999999987              -0.000280665               0.000291525               0.999999987              -0.000284895               0.000302637               0.999999987              -0.000291374               0.000319121               0.999999987              -0.000299559               0.000338631               0.999999987              -0.000308982               0.000359495               0.999999987              -0.000319234               0.000380751               0.999999987              -0.000329987               0.000402138               0.999999987              -0.000340890               0.000423034               0.999999987              -0.000351624               0.000442865               0.999999987              -0.000361983               0.000461293               0.999999987              -0.000371811               0.000478064               0.999999987              -0.000380950               0.000492863               0.999999987              -0.000389346               0.000505501               0.999999987              -0.000397139               0.000515662               0.999999987              -0.000259393               0.000440398               0.999999987              -0.000249957               0.000377474               0.999999987              -0.000244978               0.000361354               0.999999987              -0.000245228               0.000366069               0.999999987              -0.000249573               0.000381303               0.999999987              -0.000256743               0.000402405               0.999999987              -0.000265685               0.000426618               0.999999987              -0.000275643               0.000452233               0.999999987              -0.000285941               0.000478338               0.999999987              -0.000296265               0.000504406               0.999999987              -0.000306213               0.000529789               0.999999987              -0.000315453               0.000553936               0.999999987              -0.000323853               0.000576652               0.999999987              -0.000331353               0.000597781               0.999999987              -0.000338042               0.000617167               0.999999987              -0.000344039               0.000634594               0.999999987              -0.000349482               0.000650497               0.999999987              -0.000242735               0.000518648               0.999999987              -0.000218235               0.000447999               0.999999987              -0.000209220               0.000432524               0.999999987              -0.000209367               0.000440375               0.999999987              -0.000214933               0.000459765               0.999999987              -0.000223542               0.000485234               0.999999987              -0.000233562               0.000513901               0.999999987              -0.000244023               0.000544016               0.999999987              -0.000254361               0.000574424               0.999999987              -0.000264124               0.000604682               0.999999987              -0.000272961               0.000634100               0.999999987              -0.000280589               0.000662140               0.999999987              -0.000287068               0.000688737               0.999999987              -0.000292556               0.000713840               0.999999987              -0.000297097               0.000737233               0.999999987              -0.000300798               0.000759182               0.999999987              -0.000303843               0.000780063               0.999999987              -0.000223783               0.000591632               0.999999987              -0.000185064               0.000516457               0.999999987              -0.000173966               0.000502449               0.999999987              -0.000175591               0.000513380               0.999999987              -0.000183257               0.000536611               0.999999987              -0.000193509               0.000566250               0.999999987              -0.000204543               0.000599101               0.999999987              -0.000215377               0.000633200               0.999999987              -0.000225498               0.000667628               0.999999987              -0.000234403               0.000701729               0.999999987              -0.000241819               0.000734794               0.999999987              -0.000247725               0.000766321               0.999999987              -0.000252294               0.000796323               0.999999987              -0.000255506               0.000824880               0.999999987              -0.000257591               0.000851967               0.999999987              -0.000258683               0.000877848               0.999999987              -0.000259100               0.000902931               0.999999987              -0.000203422               0.000658035               0.999999987              -0.000151810               0.000582694               0.999999987              -0.000141363               0.000570174               0.999999987              -0.000145479               0.000583866               0.999999987              -0.000155490               0.000610715               0.999999987              -0.000167358               0.000644179               0.999999987              -0.000179242               0.000680846               0.999999987              -0.000190153               0.000718712               0.999999987              -0.000199605               0.000756866               0.999999987              -0.000207182               0.000794523               0.999999987              -0.000212776               0.000830773               0.999999987              -0.000216596               0.000865451               0.999999987              -0.000218691               0.000898621               0.999999987              -0.000219206               0.000930415               0.999999987              -0.000218519               0.000961046               0.999999987              -0.000217097               0.000990775               0.999999987              -0.000215369               0.001020020               0.999999987              -0.000182941               0.000720289               0.999999987              -0.000125226               0.000654042               0.999999987              -0.000111918               0.000636929               0.999999987              -0.000114385               0.000644845               0.999999987              -0.000123136               0.000666235               0.999999987              -0.000134095               0.000695133               0.999999987              -0.000145338               0.000728029               0.999999987              -0.000155651               0.000763035               0.999999987              -0.000164476               0.000799055               0.999999987              -0.000171845               0.000835245               0.999999987              -0.000177311               0.000870893               0.999999987              -0.000180885               0.000905554               0.999999987              -0.000182754               0.000939090               0.999999987              -0.000182839               0.000971590               0.999999987              -0.000181374               0.001003105               0.999999987              -0.000178646               0.001033861               0.999999987              -0.000175333               0.001063966               0.999999987              -0.000160355               0.000776612               0.999999987              -0.000101253               0.000722439               0.999999987              -0.000085109               0.000704748               0.999999987              -0.000085313               0.000708549               0.999999987              -0.000092370               0.000725362               0.999999987              -0.000102054               0.000750041               0.999999987              -0.000112269               0.000779432               0.999999987              -0.000121808               0.000811595               0.999999987              -0.000130010               0.000845270               0.999999987              -0.000136763               0.000879740               0.999999987              -0.000141895               0.000914298               0.999999987              -0.000145137               0.000948460               0.999999987              -0.000146616               0.000981839               0.999999987              -0.000146206               0.001014574               0.999999987              -0.000143803               0.001046637               0.999999987              -0.000139631               0.001078109               0.999999987              -0.000134346               0.001109219               0.999999987              -0.000136219               0.000825831               0.999999987              -0.000079732               0.000786067               0.999999987              -0.000061839               0.000770799               0.999999987              -0.000059738               0.000772643               0.999999987              -0.000064691               0.000786263               0.999999987              -0.000072669               0.000807608               0.999999987              -0.000081463               0.000833968               0.999999987              -0.000089894               0.000863644               0.999999987              -0.000097215               0.000895345               0.999999987              -0.000103152               0.000928181               0.999999987              -0.000107607               0.000961591               0.999999987              -0.000110442               0.000994986               0.999999987              -0.000111288               0.001028048               0.999999987              -0.000110043               0.001060792               0.999999987              -0.000106622               0.001093117               0.999999987              -0.000100867               0.001125057               0.999999987              -0.000093022               0.001156850               0.999999987              -0.000110660               0.000867191               0.999999987              -0.000060567               0.000842512               0.999999987              -0.000042630               0.000831868               0.999999987              -0.000038724               0.000833927               0.999999987              -0.000041495               0.000845864               0.999999987              -0.000047415               0.000865030               0.999999987              -0.000054483               0.000889222               0.999999987              -0.000061446               0.000916963               0.999999987              -0.000067603               0.000947190               0.999999987              -0.000072669               0.000978910               0.999999987              -0.000076429               0.001011385               0.999999987              -0.000078648               0.001044236               0.999999987              -0.000078863               0.001077163               0.999999987              -0.000076807               0.001109929               0.999999987              -0.000072152               0.001142605               0.999999987              -0.000064690               0.001175152               0.999999987              -0.000054016               0.001207670               0.999999987              -0.000083951               0.000899914               0.999999987              -0.000043544               0.000889230               0.999999987              -0.000027542               0.000884337               0.999999987              -0.000022834               0.000888181               0.999999987              -0.000023779               0.000899889               0.999999987              -0.000027663               0.000918063               0.999999987              -0.000032844               0.000941054               0.999999987              -0.000038093               0.000967617               0.999999987              -0.000042932               0.000996822               0.999999987              -0.000047095               0.001027896               0.999999987              -0.000050075               0.001060141               0.999999987              -0.000051649               0.001093035               0.999999987              -0.000051351               0.001126299               0.999999987              -0.000048828               0.001159682               0.999999987              -0.000043522               0.001193090               0.999999987              -0.000034796               0.001226492               0.999999987              -0.000021807               0.001259918               0.999999987              -0.000056384               0.000923513               0.999999987              -0.000028190               0.000924081               0.999999987              -0.000016129               0.000924714               0.999999987              -0.000011888               0.000930949               0.999999987              -0.000011788               0.000943325               0.999999987              -0.000013957               0.000961265               0.999999987              -0.000017208               0.000983765               0.999999987              -0.000020819               0.001009879               0.999999987              -0.000024157               0.001038788               0.999999987              -0.000027068               0.001069823               0.999999987              -0.000029180               0.001102408               0.999999987              -0.000030143               0.001136043               0.999999987              -0.000029648               0.001170372               0.999999987              -0.000027331               0.001205169               0.999999987              -0.000022515               0.001240138               0.999999987              -0.000014265               0.001275060               0.999999987              -0.000001296               0.001309845               0.999999987              -0.000028308               0.000937652               0.999999987              -0.000013886               0.000945482               0.999999987              -0.000007389               0.000950152               0.999999987              -0.000004860               0.000958372               0.999999987              -0.000004541               0.000971545               0.999999987              -0.000005405               0.000989561               0.999999987              -0.000006998               0.001011902               0.999999987              -0.000008859               0.001037932               0.999999987              -0.000010586               0.001066909               0.999999987              -0.000012032               0.001098244               0.999999987              -0.000013157               0.001131465               0.999999987              -0.000013605               0.001166096               0.999999987              -0.000013321               0.001201766               0.999999987              -0.000011853               0.001238130               0.999999988              -0.000008917               0.001274897               0.999999988              -0.000003810               0.001311706               0.999999988               0.000004523               0.001348075               0.999999988               0.000000000               0.000942346               0.999999987              -0.000000000               0.000952693               0.999999987              -0.000000000               0.000958836               0.999999987               0.000000000               0.000967766               0.999999987               0.000000000               0.000981275               0.999999987               0.000000000               0.000999393               0.999999987              -0.000000000               0.001021673               0.999999987               0.000000000               0.001047627               0.999999987              -0.000000000               0.001076727               0.999999987              -0.000000000               0.001108254               0.999999987              -0.000000000               0.001141716               0.999999987              -0.000000000               0.001176751               0.999999987               0.000000000               0.001213052               0.999999988              -0.000000000               0.001250220               0.999999988              -0.000000000               0.001287850               0.999999988              -0.000000000               0.001325563               0.999999988              -0.000000000               0.001362710               0.999999988              -0.000299513               0.000000000               0.999999987              -0.000335755               0.000000000               0.999999987              -0.000352409              -0.000000000               0.999999987              -0.000361952               0.000000000               0.999999987              -0.000369318               0.000000000               0.999999987              -0.000376822               0.000000000               0.999999987              -0.000385429               0.000000000               0.999999987              -0.000395342               0.000000000               0.999999987              -0.000406518               0.000000000               0.999999987              -0.000418826               0.000000000               0.999999987              -0.000432120               0.000000000               0.999999987              -0.000446235               0.000000000               0.999999987              -0.000461095               0.000000000               0.999999987              -0.000476548               0.000000000               0.999999987              -0.000492303               0.000000000               0.999999987              -0.000508001               0.000000000               0.999999987              -0.000523248               0.000000000               0.999999987              -0.000297770              -0.000091880               0.999999987              -0.000331891              -0.000077816               0.999999987              -0.000347244              -0.000072528               0.999999987              -0.000356007              -0.000071860               0.999999987              -0.000363002              -0.000073813               0.999999987              -0.000370281              -0.000077517               0.999999987              -0.000378655              -0.000082332               0.999999987              -0.000388372              -0.000087657               0.999999987              -0.000399364              -0.000093180               0.999999987              -0.000411471              -0.000098726               0.999999987              -0.000424507              -0.000103990               0.999999987              -0.000438324              -0.000108912               0.999999987              -0.000452791              -0.000113507               0.999999987              -0.000467648              -0.000117585               0.999999987              -0.000482634              -0.000120652               0.999999987              -0.000497563              -0.000122376               0.999999987              -0.000512139              -0.000122017               0.999999987              -0.000292699              -0.000182753               0.999999987              -0.000320544              -0.000154971               0.999999987              -0.000332177              -0.000145044               0.999999987              -0.000338916              -0.000144251               0.999999987              -0.000344924              -0.000148588               0.999999987              -0.000351715              -0.000156248               0.999999987              -0.000359841              -0.000165909               0.999999987              -0.000369315              -0.000176517               0.999999987              -0.000379957              -0.000187460               0.999999987              -0.000391549              -0.000198381               0.999999987              -0.000403863              -0.000208990               0.999999987              -0.000416810              -0.000219082               0.999999987              -0.000430187              -0.000228420               0.999999987              -0.000443752              -0.000236525               0.999999987              -0.000457243              -0.000243023               0.999999987              -0.000470427              -0.000247488               0.999999987              -0.000483221              -0.000249081               0.999999987              -0.000284509              -0.000271672               0.999999987              -0.000302419              -0.000230857               0.999999987              -0.000308743              -0.000217425               0.999999987              -0.000312897              -0.000217438               0.999999987              -0.000317770              -0.000224879               0.999999987              -0.000324229              -0.000236809               0.999999987              -0.000332237              -0.000251411               0.999999987              -0.000341551              -0.000267227               0.999999987              -0.000351845              -0.000283394               0.999999987              -0.000362924              -0.000299618               0.999999987              -0.000374603              -0.000315496               0.999999987              -0.000386584              -0.000330681               0.999999987              -0.000398683              -0.000344610               0.999999987              -0.000410630              -0.000356965               0.999999987              -0.000422242              -0.000367350               0.999999987              -0.000433339              -0.000375423               0.999999987              -0.000443788              -0.000380641               0.999999987              -0.000273377              -0.000357803               0.999999987              -0.000278498              -0.000305076               0.999999987              -0.000278906              -0.000289580               0.999999987              -0.000280665              -0.000291525               0.999999987              -0.000284895              -0.000302637               0.999999987              -0.000291374              -0.000319121               0.999999987              -0.000299559              -0.000338631               0.999999987              -0.000308982              -0.000359495               0.999999987              -0.000319234              -0.000380751               0.999999987              -0.000329987              -0.000402138               0.999999987              -0.000340890              -0.000423034               0.999999987              -0.000351624              -0.000442865               0.999999987              -0.000361983              -0.000461293               0.999999987              -0.000371811              -0.000478064               0.999999987              -0.000380950              -0.000492863               0.999999987              -0.000389346              -0.000505501               0.999999987              -0.000397139              -0.000515662               0.999999987              -0.000259393              -0.000440398               0.999999987              -0.000249957              -0.000377474               0.999999987              -0.000244978              -0.000361354               0.999999987              -0.000245228              -0.000366069               0.999999987              -0.000249573              -0.000381303               0.999999987              -0.000256743              -0.000402405               0.999999987              -0.000265685              -0.000426618               0.999999987              -0.000275643              -0.000452233               0.999999987              -0.000285941              -0.000478338               0.999999987              -0.000296265              -0.000504406               0.999999987              -0.000306213              -0.000529789               0.999999987              -0.000315453              -0.000553936               0.999999987              -0.000323853              -0.000576652               0.999999987              -0.000331353              -0.000597781               0.999999987              -0.000338042              -0.000617167               0.999999987              -0.000344039              -0.000634594               0.999999987              -0.000349482              -0.000650497               0.999999987              -0.000242735              -0.000518648               0.999999987              -0.000218235              -0.000447999               0.999999987              -0.000209220              -0.000432524               0.999999987              -0.000209367              -0.000440375               0.999999987              -0.000214933              -0.000459765               0.999999987              -0.000223542              -0.000485234               0.999999987              -0.000233562              -0.000513901               0.999999987              -0.000244023              -0.000544016               0.999999987              -0.000254361              -0.000574424               0.999999987              -0.000264124              -0.000604682               0.999999987              -0.000272961              -0.000634100               0.999999987              -0.000280589              -0.000662140               0.999999987              -0.000287068              -0.000688737               0.999999987              -0.000292556              -0.000713840               0.999999987              -0.000297097              -0.000737233               0.999999987              -0.000300798              -0.000759182               0.999999987              -0.000303843              -0.000780063               0.999999987              -0.000223783              -0.000591632               0.999999987              -0.000185064              -0.000516457               0.999999987              -0.000173966              -0.000502449               0.999999987              -0.000175591              -0.000513380               0.999999987              -0.000183257              -0.000536611               0.999999987              -0.000193509              -0.000566250               0.999999987              -0.000204543              -0.000599101               0.999999987              -0.000215377              -0.000633200               0.999999987              -0.000225498              -0.000667628               0.999999987              -0.000234403              -0.000701729               0.999999987              -0.000241819              -0.000734794               0.999999987              -0.000247725              -0.000766321               0.999999987              -0.000252294              -0.000796323               0.999999987              -0.000255506              -0.000824880               0.999999987              -0.000257591              -0.000851967               0.999999987              -0.000258683              -0.000877848               0.999999987              -0.000259100              -0.000902931               0.999999987              -0.000203422              -0.000658035               0.999999987              -0.000151810              -0.000582694               0.999999987              -0.000141363              -0.000570174               0.999999987              -0.000145479              -0.000583866               0.999999987              -0.000155490              -0.000610715               0.999999987              -0.000167358              -0.000644179               0.999999987              -0.000179242              -0.000680846               0.999999987              -0.000190153              -0.000718712               0.999999987              -0.000199605              -0.000756866               0.999999987              -0.000207182              -0.000794523               0.999999987              -0.000212776              -0.000830773               0.999999987              -0.000216596              -0.000865451               0.999999987              -0.000218691              -0.000898621               0.999999987              -0.000219206              -0.000930415               0.999999987              -0.000218519              -0.000961046               0.999999987              -0.000217097              -0.000990775               0.999999987              -0.000215369              -0.001020020               0.999999987              -0.000182941              -0.000720289               0.999999987              -0.000125226              -0.000654042               0.999999987              -0.000111918              -0.000636929               0.999999987              -0.000114385              -0.000644845               0.999999987              -0.000123136              -0.000666235               0.999999987              -0.000134095              -0.000695133               0.999999987              -0.000145338              -0.000728029               0.999999987              -0.000155651              -0.000763035               0.999999987              -0.000164476              -0.000799055               0.999999987              -0.000171845              -0.000835245               0.999999987              -0.000177311              -0.000870893               0.999999987              -0.000180885              -0.000905554               0.999999987              -0.000182754              -0.000939090               0.999999987              -0.000182839              -0.000971590               0.999999987              -0.000181374              -0.001003105               0.999999987              -0.000178646              -0.001033861               0.999999987              -0.000175333              -0.001063966               0.999999987              -0.000160355              -0.000776612               0.999999987              -0.000101253              -0.000722439               0.999999987              -0.000085109              -0.000704748               0.999999987              -0.000085313              -0.000708549               0.999999987              -0.000092370              -0.000725362               0.999999987              -0.000102054              -0.000750041               0.999999987              -0.000112269              -0.000779432               0.999999987              -0.000121808              -0.000811595               0.999999987              -0.000130010              -0.000845270               0.999999987              -0.000136763              -0.000879740               0.999999987              -0.000141895              -0.000914298               0.999999987              -0.000145137              -0.000948460               0.999999987              -0.000146616              -0.000981839               0.999999987              -0.000146206              -0.001014574               0.999999987              -0.000143803              -0.001046637               0.999999987              -0.000139631              -0.001078109               0.999999987              -0.000134346              -0.001109219               0.999999987              -0.000136219              -0.000825831               0.999999987              -0.000079732              -0.000786067               0.999999987              -0.000061839              -0.000770799               0.999999987              -0.000059738              -0.000772643               0.999999987              -0.000064691              -0.000786263               0.999999987              -0.000072669              -0.000807608               0.999999987              -0.000081463              -0.000833968               0.999999987              -0.000089894              -0.000863644               0.999999987              -0.000097215              -0.000895345               0.999999987              -0.000103152              -0.000928181               0.999999987              -0.000107607              -0.000961591               0.999999987              -0.000110442              -0.000994986               0.999999987              -0.000111288              -0.001028048               0.999999987              -0.000110043              -0.001060792               0.999999987              -0.000106622              -0.001093117               0.999999987              -0.000100867              -0.001125057               0.999999987              -0.000093022              -0.001156850               0.999999987              -0.000110660              -0.000867191               0.999999987              -0.000060567              -0.000842512               0.999999987              -0.000042630              -0.000831868               0.999999987              -0.000038724              -0.000833927               0.999999987              -0.000041495              -0.000845864               0.999999987              -0.000047415              -0.000865030               0.999999987              -0.000054483              -0.000889222               0.999999987              -0.000061446              -0.000916963               0.999999987              -0.000067603              -0.000947190               0.999999987              -0.000072669              -0.000978910               0.999999987              -0.000076429              -0.001011385               0.999999987              -0.000078648              -0.001044236               0.999999987              -0.000078863              -0.001077163               0.999999987              -0.000076807              -0.001109929               0.999999987              -0.000072152              -0.001142605               0.999999987              -0.000064690              -0.001175152               0.999999987              -0.000054016              -0.001207670               0.999999987              -0.000083951              -0.000899914               0.999999987              -0.000043544              -0.000889230               0.999999987              -0.000027542              -0.000884337               0.999999987              -0.000022834              -0.000888181               0.999999987              -0.000023779              -0.000899889               0.999999987              -0.000027663              -0.000918063               0.999999987              -0.000032844              -0.000941054               0.999999987              -0.000038093              -0.000967617               0.999999987              -0.000042932              -0.000996822               0.999999987              -0.000047095              -0.001027896               0.999999987              -0.000050075              -0.001060141               0.999999987              -0.000051649              -0.001093035               0.999999987              -0.000051351              -0.001126299               0.999999987              -0.000048828              -0.001159682               0.999999987              -0.000043522              -0.001193090               0.999999987              -0.000034796              -0.001226492               0.999999987              -0.000021807              -0.001259918               0.999999987              -0.000056384              -0.000923513               0.999999987              -0.000028190              -0.000924081               0.999999987              -0.000016129              -0.000924714               0.999999987              -0.000011888              -0.000930949               0.999999987              -0.000011788              -0.000943325               0.999999987              -0.000013957              -0.000961265               0.999999987              -0.000017208              -0.000983765               0.999999987              -0.000020819              -0.001009879               0.999999987              -0.000024157              -0.001038788               0.999999987              -0.000027068              -0.001069823               0.999999987              -0.000029180              -0.001102408               0.999999987              -0.000030143              -0.001136043               0.999999987              -0.000029648              -0.001170372               0.999999987              -0.000027331              -0.001205169               0.999999987              -0.000022515              -0.001240138               0.999999987              -0.000014265              -0.001275060               0.999999987              -0.000001296              -0.001309845               0.999999987              -0.000028308              -0.000937652               0.999999987              -0.000013886              -0.000945482               0.999999987              -0.000007389              -0.000950152               0.999999987              -0.000004860              -0.000958372               0.999999987              -0.000004541              -0.000971545               0.999999987              -0.000005405              -0.000989561               0.999999987              -0.000006998              -0.001011902               0.999999987              -0.000008859              -0.001037932               0.999999987              -0.000010586              -0.001066909               0.999999987              -0.000012032              -0.001098244               0.999999987              -0.000013157              -0.001131465               0.999999987              -0.000013605              -0.001166096               0.999999987              -0.000013321              -0.001201766               0.999999987              -0.000011853              -0.001238130               0.999999988              -0.000008917              -0.001274897               0.999999988              -0.000003810              -0.001311706               0.999999988               0.000004523              -0.001348075               0.999999988              -0.000000000              -0.000942346               0.999999987              -0.000000000              -0.000952693               0.999999987              -0.000000000              -0.000958836               0.999999987              -0.000000000              -0.000967766               0.999999987               0.000000000              -0.000981275               0.999999987              -0.000000000              -0.000999393               0.999999987               0.000000000              -0.001021673               0.999999987               0.000000000              -0.001047627               0.999999987              -0.000000000              -0.001076727               0.999999987               0.000000000              -0.001108254               0.999999987               0.000000000              -0.001141716               0.999999987               0.000000000              -0.001176751               0.999999987              -0.000000000              -0.001213052               0.999999988              -0.000000000              -0.001250220               0.999999988               0.000000000              -0.001287850               0.999999988              -0.000000000              -0.001325563               0.999999988              -0.000000000              -0.001362710               0.999999988               0.000299513               0.000000000               0.999999987               0.000335755               0.000000000               0.999999987               0.000352409              -0.000000000               0.999999987               0.000361952               0.000000000               0.999999987               0.000369318               0.000000000               0.999999987               0.000376822               0.000000000               0.999999987               0.000385429              -0.000000000               0.999999987               0.000395342              -0.000000000               0.999999987               0.000406518               0.000000000               0.999999987               0.000418826              -0.000000000               0.999999987               0.000432120               0.000000000               0.999999987               0.000446235              -0.000000000               0.999999987               0.000461095               0.000000000               0.999999987               0.000476548               0.000000000               0.999999987               0.000492303              -0.000000000               0.999999987               0.000508001               0.000000000               0.999999987               0.000523248               0.000000000               0.999999987               0.000297770              -0.000091880               0.999999987               0.000331891              -0.000077816               0.999999987               0.000347244              -0.000072528               0.999999987               0.000356007              -0.000071860               0.999999987               0.000363002              -0.000073813               0.999999987               0.000370281              -0.000077517               0.999999987               0.000378655              -0.000082332               0.999999987               0.000388372              -0.000087657               0.999999987               0.000399364              -0.000093180               0.999999987               0.000411471              -0.000098726               0.999999987               0.000424507              -0.000103990               0.999999987               0.000438324              -0.000108912               0.999999987               0.000452791              -0.000113507               0.999999987               0.000467648              -0.000117585               0.999999987               0.000482634              -0.000120652               0.999999987               0.000497563              -0.000122376               0.999999987               0.000512139              -0.000122017               0.999999987               0.000292699              -0.000182753               0.999999987               0.000320544              -0.000154971               0.999999987               0.000332177              -0.000145044               0.999999987               0.000338916              -0.000144251               0.999999987               0.000344924              -0.000148588               0.999999987               0.000351715              -0.000156248               0.999999987               0.000359841              -0.000165909               0.999999987               0.000369315              -0.000176517               0.999999987               0.000379957              -0.000187460               0.999999987               0.000391549              -0.000198381               0.999999987               0.000403863              -0.000208990               0.999999987               0.000416810              -0.000219082               0.999999987               0.000430187              -0.000228420               0.999999987               0.000443752              -0.000236525               0.999999987               0.000457243              -0.000243023               0.999999987               0.000470427              -0.000247488               0.999999987               0.000483221              -0.000249081               0.999999987               0.000284509              -0.000271672               0.999999987               0.000302419              -0.000230857               0.999999987               0.000308743              -0.000217425               0.999999987               0.000312897              -0.000217438               0.999999987               0.000317770              -0.000224879               0.999999987               0.000324229              -0.000236809               0.999999987               0.000332237              -0.000251411               0.999999987               0.000341551              -0.000267227               0.999999987               0.000351845              -0.000283394               0.999999987               0.000362924              -0.000299618               0.999999987               0.000374603              -0.000315496               0.999999987               0.000386584              -0.000330681               0.999999987               0.000398683              -0.000344610               0.999999987               0.000410630              -0.000356965               0.999999987               0.000422242              -0.000367350               0.999999987               0.000433339              -0.000375423               0.999999987               0.000443788              -0.000380641               0.999999987               0.000273377              -0.000357803               0.999999987               0.000278498              -0.000305076               0.999999987               0.000278906              -0.000289580               0.999999987               0.000280665              -0.000291525               0.999999987               0.000284895              -0.000302637               0.999999987               0.000291374              -0.000319121               0.999999987               0.000299559              -0.000338631               0.999999987               0.000308982              -0.000359495               0.999999987               0.000319234              -0.000380751               0.999999987               0.000329987              -0.000402138               0.999999987               0.000340890              -0.000423034               0.999999987               0.000351624              -0.000442865               0.999999987               0.000361983              -0.000461293               0.999999987               0.000371811              -0.000478064               0.999999987               0.000380950              -0.000492863               0.999999987               0.000389346              -0.000505501               0.999999987               0.000397139              -0.000515662               0.999999987               0.000259393              -0.000440398               0.999999987               0.000249957              -0.000377474               0.999999987               0.000244978              -0.000361354               0.999999987               0.000245228              -0.000366069               0.999999987               0.000249573              -0.000381303               0.999999987               0.000256743              -0.000402405               0.999999987               0.000265685              -0.000426618               0.999999987               0.000275643              -0.000452233               0.999999987               0.000285941              -0.000478338               0.999999987               0.000296265              -0.000504406               0.999999987               0.000306213              -0.000529789               0.999999987               0.000315453              -0.000553936               0.999999987               0.000323853              -0.000576652               0.999999987               0.000331353              -0.000597781               0.999999987               0.000338042              -0.000617167               0.999999987               0.000344039              -0.000634594               0.999999987               0.000349482              -0.000650497               0.999999987               0.000242735              -0.000518648               0.999999987               0.000218235              -0.000447999               0.999999987               0.000209220              -0.000432524               0.999999987               0.000209367              -0.000440375               0.999999987               0.000214933              -0.000459765               0.999999987               0.000223542              -0.000485234               0.999999987               0.000233562              -0.000513901               0.999999987               0.000244023              -0.000544016               0.999999987               0.000254361              -0.000574424               0.999999987               0.000264124              -0.000604682               0.999999987               0.000272961              -0.000634100               0.999999987               0.000280589              -0.000662140               0.999999987               0.000287068              -0.000688737               0.999999987               0.000292556              -0.000713840               0.999999987               0.000297097              -0.000737233               0.999999987               0.000300798              -0.000759182               0.999999987               0.000303843              -0.000780063               0.999999987               0.000223783              -0.000591632               0.999999987               0.000185064              -0.000516457               0.999999987               0.000173966              -0.000502449               0.999999987               0.000175591              -0.000513380               0.999999987               0.000183257              -0.000536611               0.999999987               0.000193509              -0.000566250               0.999999987               0.000204543              -0.000599101               0.999999987               0.000215377              -0.000633200               0.999999987               0.000225498              -0.000667628               0.999999987               0.000234403              -0.000701729               0.999999987               0.000241819              -0.000734794               0.999999987               0.000247725              -0.000766321               0.999999987               0.000252294              -0.000796323               0.999999987               0.000255506              -0.000824880               0.999999987               0.000257591              -0.000851967               0.999999987               0.000258683              -0.000877848               0.999999987               0.000259100              -0.000902931               0.999999987               0.000203422              -0.000658035               0.999999987               0.000151810              -0.000582694               0.999999987               0.000141363              -0.000570174               0.999999987               0.000145479              -0.000583866               0.999999987               0.000155490              -0.000610715               0.999999987               0.000167358              -0.000644179               0.999999987               0.000179242              -0.000680846               0.999999987               0.000190153              -0.000718712               0.999999987               0.000199605              -0.000756866               0.999999987               0.000207182              -0.000794523               0.999999987               0.000212776              -0.000830773               0.999999987               0.000216596              -0.000865451               0.999999987               0.000218691              -0.000898621               0.999999987               0.000219206              -0.000930415               0.999999987               0.000218519              -0.000961046               0.999999987               0.000217097              -0.000990775               0.999999987               0.000215369              -0.001020020               0.999999987               0.000182941              -0.000720289               0.999999987               0.000125226              -0.000654042               0.999999987               0.000111918              -0.000636929               0.999999987               0.000114385              -0.000644845               0.999999987               0.000123136              -0.000666235               0.999999987               0.000134095              -0.000695133               0.999999987               0.000145338              -0.000728029               0.999999987               0.000155651              -0.000763035               0.999999987               0.000164476              -0.000799055               0.999999987               0.000171845              -0.000835245               0.999999987               0.000177311              -0.000870893               0.999999987               0.000180885              -0.000905554               0.999999987               0.000182754              -0.000939090               0.999999987               0.000182839              -0.000971590               0.999999987               0.000181374              -0.001003105               0.999999987               0.000178646              -0.001033861               0.999999987               0.000175333              -0.001063966               0.999999987               0.000160355              -0.000776612               0.999999987               0.000101253              -0.000722439               0.999999987               0.000085109              -0.000704748               0.999999987               0.000085313              -0.000708549               0.999999987               0.000092370              -0.000725362               0.999999987               0.000102054              -0.000750041               0.999999987               0.000112269              -0.000779432               0.999999987               0.000121808              -0.000811595               0.999999987               0.000130010              -0.000845270               0.999999987               0.000136763              -0.000879740               0.999999987               0.000141895              -0.000914298               0.999999987               0.000145137              -0.000948460               0.999999987               0.000146616              -0.000981839               0.999999987               0.000146206              -0.001014574               0.999999987               0.000143803              -0.001046637               0.999999987               0.000139631              -0.001078109               0.999999987               0.000134346              -0.001109219               0.999999987               0.000136219              -0.000825831               0.999999987               0.000079732              -0.000786067               0.999999987               0.000061839              -0.000770799               0.999999987               0.000059738              -0.000772643               0.999999987               0.000064691              -0.000786263               0.999999987               0.000072669              -0.000807608               0.999999987               0.000081463              -0.000833968               0.999999987               0.000089894              -0.000863644               0.999999987               0.000097215              -0.000895345               0.999999987               0.000103152              -0.000928181               0.999999987               0.000107607              -0.000961591               0.999999987               0.000110442              -0.000994986               0.999999987               0.000111288              -0.001028048               0.999999987               0.000110043              -0.001060792               0.999999987               0.000106622              -0.001093117               0.999999987               0.000100867              -0.001125057               0.999999987               0.000093022              -0.001156850               0.999999987               0.000110660              -0.000867191               0.999999987               0.000060567              -0.000842512               0.999999987               0.000042630              -0.000831868               0.999999987               0.000038724              -0.000833927               0.999999987               0.000041495              -0.000845864               0.999999987               0.000047415              -0.000865030               0.999999987               0.000054483              -0.000889222               0.999999987               0.000061446              -0.000916963               0.999999987               0.000067603              -0.000947190               0.999999987               0.000072669              -0.000978910               0.999999987               0.000076429              -0.001011385               0.999999987               0.000078648              -0.001044236               0.999999987               0.000078863              -0.001077163               0.999999987               0.000076807              -0.001109929               0.999999987               0.000072152              -0.001142605               0.999999987               0.000064690              -0.001175152               0.999999987               0.000054016              -0.001207670               0.999999987               0.000083951              -0.000899914               0.999999987               0.000043544              -0.000889230               0.999999987               0.000027542              -0.000884337               0.999999987               0.000022834              -0.000888181               0.999999987               0.000023779              -0.000899889               0.999999987               0.000027663              -0.000918063               0.999999987               0.000032844              -0.000941054               0.999999987               0.000038093              -0.000967617               0.999999987               0.000042932              -0.000996822               0.999999987               0.000047095              -0.001027896               0.999999987               0.000050075              -0.001060141               0.999999987               0.000051649              -0.001093035               0.999999987               0.000051351              -0.001126299               0.999999987               0.000048828              -0.001159682               0.999999987               0.000043522              -0.001193090               0.999999987               0.000034796              -0.001226492               0.999999987               0.000021807              -0.001259918               0.999999987               0.000056384              -0.000923513               0.999999987               0.000028190              -0.000924081               0.999999987               0.000016129              -0.000924714               0.999999987               0.000011888              -0.000930949               0.999999987               0.000011788              -0.000943325               0.999999987               0.000013957              -0.000961265               0.999999987               0.000017208              -0.000983765               0.999999987               0.000020819              -0.001009879               0.999999987               0.000024157              -0.001038788               0.999999987               0.000027068              -0.001069823               0.999999987               0.000029180              -0.001102408               0.999999987               0.000030143              -0.001136043               0.999999987               0.000029648              -0.001170372               0.999999987               0.000027331              -0.001205169               0.999999987               0.000022515              -0.001240138               0.999999987               0.000014265              -0.001275060               0.999999987               0.000001296              -0.001309845               0.999999987               0.000028308              -0.000937652               0.999999987               0.000013886              -0.000945482               0.999999987               0.000007389              -0.000950152               0.999999987               0.000004860              -0.000958372               0.999999987               0.000004541              -0.000971545               0.999999987               0.000005405              -0.000989561               0.999999987               0.000006998              -0.001011902               0.999999987               0.000008859              -0.001037932               0.999999987               0.000010586              -0.001066909               0.999999987               0.000012032              -0.001098244               0.999999987               0.000013157              -0.001131465               0.999999987               0.000013605              -0.001166096               0.999999987               0.000013321              -0.001201766               0.999999987               0.000011853              -0.001238130               0.999999988               0.000008917              -0.001274897               0.999999988               0.000003810              -0.001311706               0.999999988              -0.000004523              -0.001348075               0.999999988              -0.000000000              -0.000942346               0.999999987              -0.000000000              -0.000952693               0.999999987              -0.000000000              -0.000958836               0.999999987              -0.000000000              -0.000967766               0.999999987               0.000000000              -0.000981275               0.999999987              -0.000000000              -0.000999393               0.999999987               0.000000000              -0.001021673               0.999999987               0.000000000              -0.001047627               0.999999987              -0.000000000              -0.001076727               0.999999987               0.000000000              -0.001108254               0.999999987               0.000000000              -0.001141716               0.999999987               0.000000000              -0.001176751               0.999999987              -0.000000000              -0.001213052               0.999999988              -0.000000000              -0.001250220               0.999999988               0.000000000              -0.001287850               0.999999988              -0.000000000              -0.001325563               0.999999988              -0.000000000              -0.001362710               0.999999988               0.000299513               0.000000000               0.999999987               0.000335755               0.000000000               0.999999987               0.000352409              -0.000000000               0.999999987               0.000361952               0.000000000               0.999999987               0.000369318               0.000000000               0.999999987               0.000376822               0.000000000               0.999999987               0.000385429              -0.000000000               0.999999987               0.000395342              -0.000000000               0.999999987               0.000406518               0.000000000               0.999999987               0.000418826              -0.000000000               0.999999987               0.000432120               0.000000000               0.999999987               0.000446235              -0.000000000               0.999999987               0.000461095               0.000000000               0.999999987               0.000476548               0.000000000               0.999999987               0.000492303              -0.000000000               0.999999987               0.000508001               0.000000000               0.999999987               0.000523248               0.000000000               0.999999987               0.000297770               0.000091880               0.999999987               0.000331891               0.000077816               0.999999987               0.000347244               0.000072528               0.999999987               0.000356007               0.000071860               0.999999987               0.000363002               0.000073813               0.999999987               0.000370281               0.000077517               0.999999987               0.000378655               0.000082332               0.999999987               0.000388372               0.000087657               0.999999987               0.000399364               0.000093180               0.999999987               0.000411471               0.000098726               0.999999987               0.000424507               0.000103990               0.999999987               0.000438324               0.000108912               0.999999987               0.000452791               0.000113507               0.999999987               0.000467648               0.000117585               0.999999987               0.000482634               0.000120652               0.999999987               0.000497563               0.000122376               0.999999987               0.000512139               0.000122017               0.999999987               0.000292699               0.000182753               0.999999987               0.000320544               0.000154971               0.999999987               0.000332177               0.000145044               0.999999987               0.000338916               0.000144251               0.999999987               0.000344924               0.000148588               0.999999987               0.000351715               0.000156248               0.999999987               0.000359841               0.000165909               0.999999987               0.000369315               0.000176517               0.999999987               0.000379957               0.000187460               0.999999987               0.000391549               0.000198381               0.999999987               0.000403863               0.000208990               0.999999987               0.000416810               0.000219082               0.999999987               0.000430187               0.000228420               0.999999987               0.000443752               0.000236525               0.999999987               0.000457243               0.000243023               0.999999987               0.000470427               0.000247488               0.999999987               0.000483221               0.000249081               0.999999987               0.000284509               0.000271672               0.999999987               0.000302419               0.000230857               0.999999987               0.000308743               0.000217425               0.999999987               0.000312897               0.000217438               0.999999987               0.000317770               0.000224879               0.999999987               0.000324229               0.000236809               0.999999987               0.000332237               0.000251411               0.999999987               0.000341551               0.000267227               0.999999987               0.000351845               0.000283394               0.999999987               0.000362924               0.000299618               0.999999987               0.000374603               0.000315496               0.999999987               0.000386584               0.000330681               0.999999987               0.000398683               0.000344610               0.999999987               0.000410630               0.000356965               0.999999987               0.000422242               0.000367350               0.999999987               0.000433339               0.000375423               0.999999987               0.000443788               0.000380641               0.999999987               0.000273377               0.000357803               0.999999987               0.000278498               0.000305076               0.999999987               0.000278906               0.000289580               0.999999987               0.000280665               0.000291525               0.999999987               0.000284895               0.000302637               0.999999987               0.000291374               0.000319121               0.999999987               0.000299559               0.000338631               0.999999987               0.000308982               0.000359495               0.999999987               0.000319234               0.000380751               0.999999987               0.000329987               0.000402138               0.999999987               0.000340890               0.000423034               0.999999987               0.000351624               0.000442865               0.999999987               0.000361983               0.000461293               0.999999987               0.000371811               0.000478064               0.999999987               0.000380950               0.000492863               0.999999987               0.000389346               0.000505501               0.999999987               0.000397139               0.000515662               0.999999987               0.000259393               0.000440398               0.999999987               0.000249957               0.000377474               0.999999987               0.000244978               0.000361354               0.999999987               0.000245228               0.000366069               0.999999987               0.000249573               0.000381303               0.999999987               0.000256743               0.000402405               0.999999987               0.000265685               0.000426618               0.999999987               0.000275643               0.000452233               0.999999987               0.000285941               0.000478338               0.999999987               0.000296265               0.000504406               0.999999987               0.000306213               0.000529789               0.999999987               0.000315453               0.000553936               0.999999987               0.000323853               0.000576652               0.999999987               0.000331353               0.000597781               0.999999987               0.000338042               0.000617167               0.999999987               0.000344039               0.000634594               0.999999987               0.000349482               0.000650497               0.999999987               0.000242735               0.000518648               0.999999987               0.000218235               0.000447999               0.999999987               0.000209220               0.000432524               0.999999987               0.000209367               0.000440375               0.999999987               0.000214933               0.000459765               0.999999987               0.000223542               0.000485234               0.999999987               0.000233562               0.000513901               0.999999987               0.000244023               0.000544016               0.999999987               0.000254361               0.000574424               0.999999987               0.000264124               0.000604682               0.999999987               0.000272961               0.000634100               0.999999987               0.000280589               0.000662140               0.999999987               0.000287068               0.000688737               0.999999987               0.000292556               0.000713840               0.999999987               0.000297097               0.000737233               0.999999987               0.000300798               0.000759182               0.999999987               0.000303843               0.000780063               0.999999987               0.000223783               0.000591632               0.999999987               0.000185064               0.000516457               0.999999987               0.000173966               0.000502449               0.999999987               0.000175591               0.000513380               0.999999987               0.000183257               0.000536611               0.999999987               0.000193509               0.000566250               0.999999987               0.000204543               0.000599101               0.999999987               0.000215377               0.000633200               0.999999987               0.000225498               0.000667628               0.999999987               0.000234403               0.000701729               0.999999987               0.000241819               0.000734794               0.999999987               0.000247725               0.000766321               0.999999987               0.000252294               0.000796323               0.999999987               0.000255506               0.000824880               0.999999987               0.000257591               0.000851967               0.999999987               0.000258683               0.000877848               0.999999987               0.000259100               0.000902931               0.999999987               0.000203422               0.000658035               0.999999987               0.000151810               0.000582694               0.999999987               0.000141363               0.000570174               0.999999987               0.000145479               0.000583866               0.999999987               0.000155490               0.000610715               0.999999987               0.000167358               0.000644179               0.999999987               0.000179242               0.000680846               0.999999987               0.000190153               0.000718712               0.999999987               0.000199605               0.000756866               0.999999987               0.000207182               0.000794523               0.999999987               0.000212776               0.000830773               0.999999987               0.000216596               0.000865451               0.999999987               0.000218691               0.000898621               0.999999987               0.000219206               0.000930415               0.999999987               0.000218519               0.000961046               0.999999987               0.000217097               0.000990775               0.999999987               0.000215369               0.001020020               0.999999987               0.000182941               0.000720289               0.999999987               0.000125226               0.000654042               0.999999987               0.000111918               0.000636929               0.999999987               0.000114385               0.000644845               0.999999987               0.000123136               0.000666235               0.999999987               0.000134095               0.000695133               0.999999987               0.000145338               0.000728029               0.999999987               0.000155651               0.000763035               0.999999987               0.000164476               0.000799055               0.999999987               0.000171845               0.000835245               0.999999987               0.000177311               0.000870893               0.999999987               0.000180885               0.000905554               0.999999987               0.000182754               0.000939090               0.999999987               0.000182839               0.000971590               0.999999987               0.000181374               0.001003105               0.999999987               0.000178646               0.001033861               0.999999987               0.000175333               0.001063966               0.999999987               0.000160355               0.000776612               0.999999987               0.000101253               0.000722439               0.999999987               0.000085109               0.000704748               0.999999987               0.000085313               0.000708549               0.999999987               0.000092370               0.000725362               0.999999987               0.000102054               0.000750041               0.999999987               0.000112269               0.000779432               0.999999987               0.000121808               0.000811595               0.999999987               0.000130010               0.000845270               0.999999987               0.000136763               0.000879740               0.999999987               0.000141895               0.000914298               0.999999987               0.000145137               0.000948460               0.999999987               0.000146616               0.000981839               0.999999987               0.000146206               0.001014574               0.999999987               0.000143803               0.001046637               0.999999987               0.000139631               0.001078109               0.999999987               0.000134346               0.001109219               0.999999987               0.000136219               0.000825831               0.999999987               0.000079732               0.000786067               0.999999987               0.000061839               0.000770799               0.999999987               0.000059738               0.000772643               0.999999987               0.000064691               0.000786263               0.999999987               0.000072669               0.000807608               0.999999987               0.000081463               0.000833968               0.999999987               0.000089894               0.000863644               0.999999987               0.000097215               0.000895345               0.999999987               0.000103152               0.000928181               0.999999987               0.000107607               0.000961591               0.999999987               0.000110442               0.000994986               0.999999987               0.000111288               0.001028048               0.999999987               0.000110043               0.001060792               0.999999987               0.000106622               0.001093117               0.999999987               0.000100867               0.001125057               0.999999987               0.000093022               0.001156850               0.999999987               0.000110660               0.000867191               0.999999987               0.000060567               0.000842512               0.999999987               0.000042630               0.000831868               0.999999987               0.000038724               0.000833927               0.999999987               0.000041495               0.000845864               0.999999987               0.000047415               0.000865030               0.999999987               0.000054483               0.000889222               0.999999987               0.000061446               0.000916963               0.999999987               0.000067603               0.000947190               0.999999987               0.000072669               0.000978910               0.999999987               0.000076429               0.001011385               0.999999987               0.000078648               0.001044236               0.999999987               0.000078863               0.001077163               0.999999987               0.000076807               0.001109929               0.999999987               0.000072152               0.001142605               0.999999987               0.000064690               0.001175152               0.999999987               0.000054016               0.001207670               0.999999987               0.000083951               0.000899914               0.999999987               0.000043544               0.000889230               0.999999987               0.000027542               0.000884337               0.999999987               0.000022834               0.000888181               0.999999987               0.000023779               0.000899889               0.999999987               0.000027663               0.000918063               0.999999987               0.000032844               0.000941054               0.999999987               0.000038093               0.000967617               0.999999987               0.000042932               0.000996822               0.999999987               0.000047095               0.001027896               0.999999987               0.000050075               0.001060141               0.999999987               0.000051649               0.001093035               0.999999987               0.000051351               0.001126299               0.999999987               0.000048828               0.001159682               0.999999987               0.000043522               0.001193090               0.999999987               0.000034796               0.001226492               0.999999987               0.000021807               0.001259918               0.999999987               0.000056384               0.000923513               0.999999987               0.000028190               0.000924081               0.999999987               0.000016129               0.000924714               0.999999987               0.000011888               0.000930949               0.999999987               0.000011788               0.000943325               0.999999987               0.000013957               0.000961265               0.999999987               0.000017208               0.000983765               0.999999987               0.000020819               0.001009879               0.999999987               0.000024157               0.001038788               0.999999987               0.000027068               0.001069823               0.999999987               0.000029180               0.001102408               0.999999987               0.000030143               0.001136043               0.999999987               0.000029648               0.001170372               0.999999987               0.000027331               0.001205169               0.999999987               0.000022515               0.001240138               0.999999987               0.000014265               0.001275060               0.999999987               0.000001296               0.001309845               0.999999987               0.000028308               0.000937652               0.999999987               0.000013886               0.000945482               0.999999987               0.000007389               0.000950152               0.999999987               0.000004860               0.000958372               0.999999987               0.000004541               0.000971545               0.999999987               0.000005405               0.000989561               0.999999987               0.000006998               0.001011902               0.999999987               0.000008859               0.001037932               0.999999987               0.000010586               0.001066909               0.999999987               0.000012032               0.001098244               0.999999987               0.000013157               0.001131465               0.999999987               0.000013605               0.001166096               0.999999987               0.000013321               0.001201766               0.999999987               0.000011853               0.001238130               0.999999988               0.000008917               0.001274897               0.999999988               0.000003810               0.001311706               0.999999988              -0.000004523               0.001348075               0.999999988               0.000000000               0.000942346               0.999999987              -0.000000000               0.000952693               0.999999987              -0.000000000               0.000958836               0.999999987               0.000000000               0.000967766               0.999999987               0.000000000               0.000981275               0.999999987               0.000000000               0.000999393               0.999999987              -0.000000000               0.001021673               0.999999987               0.000000000               0.001047627               0.999999987              -0.000000000               0.001076727               0.999999987              -0.000000000               0.001108254               0.999999987              -0.000000000               0.001141716               0.999999987              -0.000000000               0.001176751               0.999999987               0.000000000               0.001213052               0.999999988              -0.000000000               0.001250220               0.999999988              -0.000000000               0.001287850               0.999999988              -0.000000000               0.001325563               0.999999988              -0.000000000               0.001362710               0.999999988 </DataArray>
<DataArray type="Float64"                                    Name="stress"                                                      NumberOfComponents="10" format="ascii">
              0.001517998               0.016978118              -0.000000000              -0.001553012               0.006176987               0.004623975               0.000000000               0.000000000               0.000000000               0.000000000               0.001574774               0.013597594              -0.000000000              -0.001109156               0.004902205               0.003793049               0.000000000               0.000000000               0.000000000               0.000000000               0.002131653               0.010864002               0.000000000              -0.000558629               0.003807508               0.003248878               0.000000000               0.000000000               0.000000000               0.000000000               0.002129127               0.009342516               0.000000000              -0.000369391               0.003237271               0.002867880               0.000000000               0.000000000               0.000000000               0.000000000               0.001923683               0.008416142              -0.000000000              -0.000330636               0.002915564               0.002584929               0.000000000               0.000000000               0.000000000               0.000000000               0.001650278               0.007819665               0.000000000              -0.000358603               0.002726063               0.002367460               0.000000000               0.000000000               0.000000000               0.000000000               0.001376783               0.007415787              -0.000000000              -0.000410679               0.002608797               0.002198118               0.000000000               0.000000000               0.000000000               0.000000000               0.001129525               0.007119032              -0.000000000              -0.000466306               0.002528422               0.002062116               0.000000000               0.000000000               0.000000000               0.000000000               0.000913619               0.006883257              -0.000000000              -0.000517799               0.002466996               0.001949197               0.000000000               0.000000000               0.000000000               0.000000000               0.000726292               0.006681821              -0.000000000              -0.000562867               0.002414873               0.001852007               0.000000000               0.000000000               0.000000000               0.000000000               0.000561190               0.006492615               0.000000000              -0.000601129               0.002364560               0.001763431               0.000000000               0.000000000               0.000000000               0.000000000               0.000411824               0.006307639              -0.000000000              -0.000634019               0.002313865               0.001679846               0.000000000               0.000000000               0.000000000               0.000000000               0.000279783               0.006125923               0.000000000              -0.000660820               0.002262227               0.001601407               0.000000000               0.000000000               0.000000000               0.000000000               0.000173347               0.005940275               0.000000000              -0.000677528               0.002205915               0.001528387               0.000000000               0.000000000               0.000000000               0.000000000               0.000093221               0.005733280               0.000000000              -0.000681700               0.002138308               0.001456607               0.000000000               0.000000000               0.000000000               0.000000000               0.000039803               0.005490676               0.000000000              -0.000671407               0.002054009               0.001382602               0.000000000               0.000000000               0.000000000               0.000000000              -0.000000665               0.005298310               0.000000000              -0.000662536               0.001986931               0.001324395               0.000000000               0.000000000               0.000000000               0.000000000               0.001584253               0.016649983              -0.001206975              -0.001487150               0.006045655               0.004558506               0.000000000               0.000000000               0.000000000               0.000000000               0.001566254               0.013380112              -0.000678016              -0.001085166               0.004821715               0.003736549               0.000000000               0.000000000               0.000000000               0.000000000               0.002042120               0.010762796              -0.000143447              -0.000579553               0.003780747               0.003201194               0.000000000               0.000000000               0.000000000               0.000000000               0.002003498               0.009300985               0.000091377              -0.000411310               0.003237401               0.002826090               0.000000000               0.000000000               0.000000000               0.000000000               0.001788989               0.008407689               0.000197039              -0.000380089               0.002929231               0.002549142               0.000000000               0.000000000               0.000000000               0.000000000               0.001524057               0.007828722               0.000245158              -0.000407068               0.002745237               0.002338169               0.000000000               0.000000000               0.000000000               0.000000000               0.001261845               0.007429284               0.000260542              -0.000455468               0.002628226               0.002172758               0.000000000               0.000000000               0.000000000               0.000000000               0.001024477               0.007130919               0.000257810              -0.000507185               0.002546011               0.002038826               0.000000000               0.000000000               0.000000000               0.000000000               0.000818407               0.006891237               0.000248349              -0.000554501               0.002481890               0.001927389               0.000000000               0.000000000               0.000000000               0.000000000               0.000641776               0.006686356               0.000234184              -0.000595127               0.002427139               0.001832012               0.000000000               0.000000000               0.000000000               0.000000000               0.000488046               0.006500376               0.000217611              -0.000629528               0.002376613               0.001747085               0.000000000               0.000000000               0.000000000               0.000000000               0.000351344               0.006322971               0.000202632              -0.000658616               0.002327175               0.001668559               0.000000000               0.000000000               0.000000000               0.000000000               0.000235438               0.006147624               0.000186836              -0.000680162               0.002275908               0.001595746               0.000000000               0.000000000               0.000000000               0.000000000               0.000145355               0.005966294               0.000162807              -0.000691277               0.002219170               0.001527894               0.000000000               0.000000000               0.000000000               0.000000000               0.000077540               0.005770869               0.000128070              -0.000692279               0.002154364               0.001462084               0.000000000               0.000000000               0.000000000               0.000000000               0.000030709               0.005553550               0.000075736              -0.000682676               0.002078723               0.001396047               0.000000000               0.000000000               0.000000000               0.000000000              -0.000003808               0.005389935               0.000046454              -0.000675168               0.002021683               0.001346515               0.000000000               0.000000000               0.000000000               0.000000000               0.001765795               0.015714005              -0.002266920              -0.001302075               0.005671974               0.004369899               0.000000000               0.000000000               0.000000000               0.000000000               0.001537601               0.012759578              -0.001277422              -0.001018345               0.004592598               0.003574254               0.000000000               0.000000000               0.000000000               0.000000000               0.001784523               0.010469982              -0.000286500              -0.000639550               0.003703142               0.003063592               0.000000000               0.000000000               0.000000000               0.000000000               0.001654226               0.009176405               0.000137205              -0.000526714               0.003234342               0.002707628               0.000000000               0.000000000               0.000000000               0.000000000               0.001420622               0.008374720               0.000324959              -0.000514105               0.002962914               0.002448808               0.000000000               0.000000000               0.000000000               0.000000000               0.001172572               0.007838676               0.000406455              -0.000540119               0.002792905               0.002252787               0.000000000               0.000000000               0.000000000               0.000000000               0.000941483               0.007452877               0.000429972              -0.000578552               0.002677118               0.002098566               0.000000000               0.000000000               0.000000000               0.000000000               0.000740314               0.007154344               0.000423340              -0.000616674               0.002590315               0.001973642               0.000000000               0.000000000               0.000000000               0.000000000               0.000569407               0.006908617               0.000406000              -0.000650048               0.002519532               0.001869484               0.000000000               0.000000000               0.000000000               0.000000000               0.000427223               0.006700703               0.000383211              -0.000677378               0.002459338               0.001781960               0.000000000               0.000000000               0.000000000               0.000000000               0.000307132               0.006519039               0.000356283              -0.000699704               0.002406226               0.001706522               0.000000000               0.000000000               0.000000000               0.000000000               0.000203609               0.006349847               0.000327055              -0.000717376               0.002355720               0.001638344               0.000000000               0.000000000               0.000000000               0.000000000               0.000120108               0.006181072               0.000291571              -0.000727592               0.002302867               0.001575276               0.000000000               0.000000000               0.000000000               0.000000000               0.000060544               0.006011282               0.000245517              -0.000728704               0.002246642               0.001517938               0.000000000               0.000000000               0.000000000               0.000000000               0.000025042               0.005843388               0.000187277              -0.000721031               0.002188120               0.001467089               0.000000000               0.000000000               0.000000000               0.000000000               0.000007483               0.005677550               0.000107178              -0.000706886               0.002128127               0.001421241               0.000000000               0.000000000               0.000000000               0.000000000              -0.000009137               0.005566019               0.000064334              -0.000699177               0.002088380               0.001389203               0.000000000               0.000000000               0.000000000               0.000000000               0.001996991               0.014297461              -0.003061412              -0.001038310               0.005111876               0.004073565               0.000000000               0.000000000               0.000000000               0.000000000               0.001466137               0.011825742              -0.001739108              -0.000928415               0.004251346               0.003322931               0.000000000               0.000000000               0.000000000               0.000000000               0.001387857               0.010028431              -0.000430347              -0.000733106               0.003587146               0.002854040               0.000000000               0.000000000               0.000000000               0.000000000               0.001150350               0.008980947               0.000108263              -0.000691236               0.003224031               0.002532795               0.000000000               0.000000000               0.000000000               0.000000000               0.000904876               0.008301616               0.000340282              -0.000698372               0.002999968               0.002301597               0.000000000               0.000000000               0.000000000               0.000000000               0.000688820               0.007821505               0.000439278              -0.000719379               0.002846935               0.002127556               0.000000000               0.000000000               0.000000000               0.000000000               0.000509490               0.007455746               0.000469321              -0.000740908               0.002732193               0.001991285               0.000000000               0.000000000               0.000000000               0.000000000               0.000364477               0.007160212               0.000461737              -0.000758346               0.002639495               0.001881149               0.000000000               0.000000000               0.000000000               0.000000000               0.000247128               0.006913231               0.000441888              -0.000771479               0.002561547               0.001790068               0.000000000               0.000000000               0.000000000               0.000000000               0.000151380               0.006704684               0.000416949              -0.000781316               0.002495311               0.001713995               0.000000000               0.000000000               0.000000000               0.000000000               0.000076811               0.006520482               0.000386140              -0.000786254               0.002435557               0.001649303               0.000000000               0.000000000               0.000000000               0.000000000               0.000018436               0.006347341               0.000349122              -0.000786502               0.002377927               0.001591425               0.000000000               0.000000000               0.000000000               0.000000000              -0.000023310               0.006182682               0.000304688              -0.000781575               0.002321398               0.001539824               0.000000000               0.000000000               0.000000000               0.000000000              -0.000043824               0.006031821               0.000251596              -0.000770410               0.002267390               0.001496980               0.000000000               0.000000000               0.000000000               0.000000000              -0.000044374               0.005896516               0.000187217              -0.000753703               0.002216720               0.001463017               0.000000000               0.000000000               0.000000000               0.000000000              -0.000027548               0.005780704               0.000104582              -0.000732917               0.002171188               0.001438271               0.000000000               0.000000000               0.000000000               0.000000000              -0.000022952               0.005712008               0.000061571              -0.000722606               0.002144852               0.001422246               0.000000000               0.000000000               0.000000000               0.000000000               0.002178821               0.012569309              -0.003527140              -0.000754107               0.004441096               0.003686989               0.000000000               0.000000000               0.000000000               0.000000000               0.001323989               0.010703848              -0.002036931              -0.000841484               0.003848408               0.003006924               0.000000000               0.000000000               0.000000000               0.000000000               0.000899884               0.009498537              -0.000578396              -0.000849859               0.003449433               0.002599575               0.000000000               0.000000000               0.000000000               0.000000000               0.000575677               0.008723973              -0.000004009              -0.000874616               0.003199500               0.002324885               0.000000000               0.000000000               0.000000000               0.000000000               0.000345916               0.008173747               0.000238237              -0.000891998               0.003021888               0.002129890               0.000000000               0.000000000               0.000000000               0.000000000               0.000186417               0.007752228               0.000342952              -0.000899120               0.002883757               0.001984637               0.000000000               0.000000000               0.000000000               0.000000000               0.000073607               0.007405605               0.000377883              -0.000898096               0.002767876               0.001869780               0.000000000               0.000000000               0.000000000               0.000000000              -0.000006252               0.007114165               0.000375959              -0.000891613               0.002668569               0.001776956               0.000000000               0.000000000               0.000000000               0.000000000              -0.000062749               0.006868977               0.000363960              -0.000882151               0.002583686               0.001701535               0.000000000               0.000000000               0.000000000               0.000000000              -0.000101132               0.006656183               0.000347708              -0.000869945               0.002508687               0.001638742               0.000000000               0.000000000               0.000000000               0.000000000              -0.000121057               0.006464031               0.000322527              -0.000853398               0.002439122               0.001585723               0.000000000               0.000000000               0.000000000               0.000000000              -0.000128089               0.006286425               0.000291084              -0.000833834               0.002373399               0.001539564               0.000000000               0.000000000               0.000000000               0.000000000              -0.000124349               0.006128494               0.000254722              -0.000812691               0.002313708               0.001501017               0.000000000               0.000000000               0.000000000               0.000000000              -0.000106972               0.005994338               0.000210017              -0.000789405               0.002261227               0.001471823               0.000000000               0.000000000               0.000000000               0.000000000              -0.000076364               0.005886204               0.000153519              -0.000764410               0.002216852               0.001452442               0.000000000               0.000000000               0.000000000               0.000000000              -0.000040068               0.005805246               0.000082982              -0.000740680               0.002181956               0.001441276               0.000000000               0.000000000               0.000000000               0.000000000              -0.000025209               0.005766542               0.000046034              -0.000730269               0.002165584               0.001435315               0.000000000               0.000000000               0.000000000               0.000000000               0.002216404               0.010694877              -0.003662098              -0.000505711               0.003733492               0.003227782               0.000000000               0.000000000               0.000000000               0.000000000               0.001091954               0.009512510              -0.002183348              -0.000779581               0.003430665               0.002651084               0.000000000               0.000000000               0.000000000               0.000000000               0.000373682               0.008929185              -0.000745009              -0.000976015               0.003301704               0.002325688               0.000000000               0.000000000               0.000000000               0.000000000               0.000019060               0.008410802              -0.000196282              -0.001044200               0.003151639               0.002107439               0.000000000               0.000000000               0.000000000               0.000000000              -0.000159201               0.007977034               0.000035690              -0.001056827               0.003011260               0.001954433               0.000000000               0.000000000               0.000000000               0.000000000              -0.000245178               0.007605089               0.000141470              -0.001042575               0.002882529               0.001839954               0.000000000               0.000000000               0.000000000               0.000000000              -0.000283756               0.007279390               0.000187037              -0.001016330               0.002765216               0.001748886               0.000000000               0.000000000               0.000000000               0.000000000              -0.000293156               0.006997259               0.000203554              -0.000984588               0.002660592               0.001676004               0.000000000               0.000000000               0.000000000               0.000000000              -0.000286597               0.006750707               0.000211021              -0.000951310               0.002567317               0.001616007               0.000000000               0.000000000               0.000000000               0.000000000              -0.000270183               0.006529502               0.000211982              -0.000917504               0.002482314               0.001564809               0.000000000               0.000000000               0.000000000               0.000000000              -0.000238020               0.006330555               0.000201380              -0.000880575               0.002403689               0.001523114               0.000000000               0.000000000               0.000000000               0.000000000              -0.000197846               0.006152410               0.000184006              -0.000843241               0.002331863               0.001488622               0.000000000               0.000000000               0.000000000               0.000000000              -0.000155583               0.005997432               0.000161938              -0.000808021               0.002268464               0.001460444               0.000000000               0.000000000               0.000000000               0.000000000              -0.000112035               0.005866971               0.000130696              -0.000775382               0.002214098               0.001438716               0.000000000               0.000000000               0.000000000               0.000000000              -0.000070120               0.005760833               0.000088126              -0.000746397               0.002169057               0.001422660               0.000000000               0.000000000               0.000000000               0.000000000              -0.000031413               0.005685070               0.000041541              -0.000722412               0.002135808               0.001413396               0.000000000               0.000000000               0.000000000               0.000000000              -0.000016683               0.005650429               0.000021394              -0.000712558               0.002120977               0.001408419               0.000000000               0.000000000               0.000000000               0.000000000               0.002060635               0.008815326              -0.003512485              -0.000329181               0.003048138               0.002718957               0.000000000               0.000000000               0.000000000               0.000000000               0.000785485               0.008339773              -0.002214628              -0.000747915               0.003029201               0.002281286               0.000000000               0.000000000               0.000000000               0.000000000              -0.000127232               0.008342322              -0.000942853              -0.001090500               0.003144246               0.002053746               0.000000000               0.000000000               0.000000000               0.000000000              -0.000448991               0.008040725              -0.000455083              -0.001173459               0.003071368               0.001897908               0.000000000               0.000000000               0.000000000               0.000000000              -0.000545592               0.007701979              -0.000232865              -0.001167341               0.002956414               0.001789073               0.000000000               0.000000000               0.000000000               0.000000000              -0.000549126               0.007377952              -0.000114066              -0.001128163               0.002835347               0.001707184               0.000000000               0.000000000               0.000000000               0.000000000              -0.000513911               0.007078629              -0.000043290              -0.001077542               0.002718700               0.001641158               0.000000000               0.000000000               0.000000000               0.000000000              -0.000466513               0.006804343               0.000001279              -0.001025483               0.002609919               0.001584436               0.000000000               0.000000000               0.000000000               0.000000000              -0.000410147               0.006559068               0.000033462              -0.000973686               0.002510896               0.001537210               0.000000000               0.000000000               0.000000000               0.000000000              -0.000347061               0.006338119               0.000056357              -0.000922411               0.002420155               0.001497745               0.000000000               0.000000000               0.000000000               0.000000000              -0.000276474               0.006137714               0.000064514              -0.000870890               0.002336181               0.001465291               0.000000000               0.000000000               0.000000000               0.000000000              -0.000207100               0.005956740               0.000063691              -0.000822253               0.002259645               0.001437392               0.000000000               0.000000000               0.000000000               0.000000000              -0.000148125               0.005795507               0.000058235              -0.000779983               0.002191811               0.001411827               0.000000000               0.000000000               0.000000000               0.000000000              -0.000097622               0.005656314               0.000043942              -0.000743645               0.002133301               0.001389655               0.000000000               0.000000000               0.000000000               0.000000000              -0.000053203               0.005541431               0.000024022              -0.000712628               0.002084668               0.001372040               0.000000000               0.000000000               0.000000000               0.000000000              -0.000018957               0.005453434               0.000008242              -0.000688786               0.002047388               0.001358602               0.000000000               0.000000000               0.000000000               0.000000000              -0.000012533               0.005403499               0.000006743              -0.000680136               0.002027860               0.001347725               0.000000000               0.000000000               0.000000000               0.000000000               0.001728876               0.007045048              -0.003143653              -0.000232306               0.002425760               0.002193454               0.000000000               0.000000000               0.000000000               0.000000000               0.000433129               0.007244543              -0.002168387              -0.000743144               0.002662538               0.001919393               0.000000000               0.000000000               0.000000000               0.000000000              -0.000542879               0.007736906              -0.001172573              -0.001170690               0.002969173               0.001798482               0.000000000               0.000000000               0.000000000               0.000000000              -0.000779559               0.007613465              -0.000746131              -0.001244015               0.002952468               0.001708453               0.000000000               0.000000000               0.000000000               0.000000000              -0.000782438               0.007364340              -0.000513996              -0.001213954               0.002859407               0.001645453               0.000000000               0.000000000               0.000000000               0.000000000              -0.000709600               0.007089188              -0.000366231              -0.001152246               0.002747121               0.001594875               0.000000000               0.000000000               0.000000000               0.000000000              -0.000617788               0.006814212              -0.000264520              -0.001083444               0.002632529               0.001549085               0.000000000               0.000000000               0.000000000               0.000000000              -0.000528513               0.006552413              -0.000188603              -0.001017241               0.002523196               0.001505955               0.000000000               0.000000000               0.000000000               0.000000000              -0.000438132               0.006317436              -0.000127651              -0.000953977               0.002423783               0.001469806               0.000000000               0.000000000               0.000000000               0.000000000              -0.000346223               0.006101419              -0.000082021              -0.000892509               0.002331289               0.001438780               0.000000000               0.000000000               0.000000000               0.000000000              -0.000262163               0.005896857              -0.000053536              -0.000835416               0.002244071               0.001408655               0.000000000               0.000000000               0.000000000               0.000000000              -0.000189585               0.005710680              -0.000036264              -0.000784927               0.002165183               0.001380256               0.000000000               0.000000000               0.000000000               0.000000000              -0.000126915               0.005546323              -0.000022453              -0.000740881               0.002095716               0.001354835               0.000000000               0.000000000               0.000000000               0.000000000              -0.000076909               0.005404100              -0.000013936              -0.000704352               0.002036133               0.001331781               0.000000000               0.000000000               0.000000000               0.000000000              -0.000039489               0.005287580              -0.000010595              -0.000675754               0.001987761               0.001312006               0.000000000               0.000000000               0.000000000               0.000000000              -0.000014188               0.005194229              -0.000005685              -0.000654598               0.001949592               0.001294994               0.000000000               0.000000000               0.000000000               0.000000000              -0.000012296               0.005139391               0.000002280              -0.000647033               0.001928791               0.001281758               0.000000000               0.000000000               0.000000000               0.000000000               0.001296892               0.005521740              -0.002642465              -0.000203886               0.001908522               0.001704637               0.000000000               0.000000000               0.000000000               0.000000000               0.000105648               0.006256154              -0.002090015              -0.000742401               0.002332830               0.001590429               0.000000000               0.000000000               0.000000000               0.000000000              -0.000831270               0.007147003              -0.001439391              -0.001205099               0.002784010               0.001578911               0.000000000               0.000000000               0.000000000               0.000000000              -0.000969922               0.007211615              -0.001053046              -0.001265170               0.002825571               0.001560401               0.000000000               0.000000000               0.000000000               0.000000000              -0.000900066               0.007063277              -0.000797758              -0.001220432               0.002761213               0.001540781               0.000000000               0.000000000               0.000000000               0.000000000              -0.000772477               0.006841420              -0.000617011              -0.001144854               0.002662068               0.001517215               0.000000000               0.000000000               0.000000000               0.000000000              -0.000638806               0.006596734              -0.000481925              -0.001064141               0.002553603               0.001489462               0.000000000               0.000000000               0.000000000               0.000000000              -0.000516928               0.006361200              -0.000374066              -0.000988996               0.002450044               0.001461048               0.000000000               0.000000000               0.000000000               0.000000000              -0.000407570               0.006142122              -0.000284504              -0.000920602               0.002354221               0.001433619               0.000000000               0.000000000               0.000000000               0.000000000              -0.000305766               0.005926485              -0.000215417              -0.000855471               0.002260632               0.001405161               0.000000000               0.000000000               0.000000000               0.000000000              -0.000222256               0.005715583              -0.000164160              -0.000797792               0.002171106               0.001373314               0.000000000               0.000000000               0.000000000               0.000000000              -0.000155030               0.005525972              -0.000123722              -0.000748881               0.002091599               0.001342718               0.000000000               0.000000000               0.000000000               0.000000000              -0.000098504               0.005361888              -0.000087685              -0.000707173               0.002023003               0.001315829               0.000000000               0.000000000               0.000000000               0.000000000              -0.000058473               0.005221433              -0.000056492              -0.000674605               0.001965329               0.001290724               0.000000000               0.000000000               0.000000000               0.000000000              -0.000039820               0.005104517              -0.000032046              -0.000652996               0.001919154               0.001266158               0.000000000               0.000000000               0.000000000               0.000000000              -0.000038774               0.005012448              -0.000013777              -0.000641095               0.001884498               0.001243403               0.000000000               0.000000000               0.000000000               0.000000000              -0.000044312               0.004964645              -0.000003559              -0.000637196               0.001867264               0.001230068               0.000000000               0.000000000               0.000000000               0.000000000               0.000745921               0.004083230              -0.002092565              -0.000230685               0.001437957               0.001207272               0.000000000               0.000000000               0.000000000               0.000000000              -0.000142547               0.005115785              -0.001993359              -0.000692928               0.001936220               0.001243292               0.000000000               0.000000000               0.000000000               0.000000000              -0.000946316               0.006295522              -0.001728714              -0.001141807               0.002479088               0.001337281               0.000000000               0.000000000               0.000000000               0.000000000              -0.001040014               0.006608720              -0.001396228              -0.001216093               0.002608249               0.001392156               0.000000000               0.000000000               0.000000000               0.000000000              -0.000945460               0.006621886              -0.001123501              -0.001182281               0.002601367               0.001419086               0.000000000               0.000000000               0.000000000               0.000000000              -0.000802600               0.006510001              -0.000910296              -0.001114723               0.002541553               0.001426830               0.000000000               0.000000000               0.000000000               0.000000000              -0.000656641               0.006347262              -0.000739341              -0.001039646               0.002462281               0.001422635               0.000000000               0.000000000               0.000000000               0.000000000              -0.000522094               0.006176116              -0.000596203              -0.000967798               0.002381284               0.001413486               0.000000000               0.000000000               0.000000000               0.000000000              -0.000408708               0.006001288              -0.000478178              -0.000903424               0.002301551               0.001398126               0.000000000               0.000000000               0.000000000               0.000000000              -0.000311419               0.005817833              -0.000381154              -0.000844009               0.002220595               0.001376586               0.000000000               0.000000000               0.000000000               0.000000000              -0.000228720               0.005632133              -0.000299530              -0.000789785               0.002140620               0.001350836               0.000000000               0.000000000               0.000000000               0.000000000              -0.000165792               0.005453683              -0.000231757              -0.000743880               0.002065836               0.001321956               0.000000000               0.000000000               0.000000000               0.000000000              -0.000116461               0.005294829              -0.000170297              -0.000705525               0.002000100               0.001294576               0.000000000               0.000000000               0.000000000               0.000000000              -0.000082408               0.005158927              -0.000112415              -0.000675767               0.001944881               0.001269114               0.000000000               0.000000000               0.000000000               0.000000000              -0.000071004               0.005042597              -0.000060370              -0.000656950               0.001899832               0.001242883               0.000000000               0.000000000               0.000000000               0.000000000              -0.000081839               0.004946768              -0.000020702              -0.000649034               0.001865251               0.001216217               0.000000000               0.000000000               0.000000000               0.000000000              -0.000094705               0.004900004              -0.000004112              -0.000648013               0.001849323               0.001201309               0.000000000               0.000000000               0.000000000               0.000000000              -0.000017106               0.002764881              -0.001519648              -0.000352026               0.001038959               0.000686933               0.000000000               0.000000000               0.000000000               0.000000000              -0.000430258               0.003979006              -0.001834214              -0.000658722               0.001545895               0.000887173               0.000000000               0.000000000               0.000000000               0.000000000              -0.000979459               0.005330317              -0.001951401              -0.001033585               0.002121282               0.001087697               0.000000000               0.000000000               0.000000000               0.000000000              -0.001031763               0.005872918              -0.001722878              -0.001121024               0.002331294               0.001210270               0.000000000               0.000000000               0.000000000               0.000000000              -0.000932771               0.006073047              -0.001462241              -0.001108918               0.002393968               0.001285050               0.000000000               0.000000000               0.000000000               0.000000000              -0.000792330               0.006104070              -0.001230071              -0.001060130               0.002388046               0.001327916               0.000000000               0.000000000               0.000000000               0.000000000              -0.000649304               0.006053023              -0.001031147              -0.001000115               0.002351026               0.001350911               0.000000000               0.000000000               0.000000000               0.000000000              -0.000513787               0.005963311              -0.000860541              -0.000938082               0.002300444               0.001362363               0.000000000               0.000000000               0.000000000               0.000000000              -0.000396286               0.005851331              -0.000716073              -0.000880022               0.002243765               0.001363743               0.000000000               0.000000000               0.000000000               0.000000000              -0.000302231               0.005720824              -0.000592980              -0.000828438               0.002183068               0.001354630               0.000000000               0.000000000               0.000000000               0.000000000              -0.000222620               0.005575647              -0.000485064              -0.000780437               0.002118676               0.001338239               0.000000000               0.000000000               0.000000000               0.000000000              -0.000159300               0.005420246              -0.000389949              -0.000737266               0.002052486               0.001315220               0.000000000               0.000000000               0.000000000               0.000000000              -0.000114027               0.005275351              -0.000301061              -0.000702177               0.001992492               0.001290314               0.000000000               0.000000000               0.000000000               0.000000000              -0.000083890               0.005150976              -0.000212874              -0.000675329               0.001942084               0.001266756               0.000000000               0.000000000               0.000000000               0.000000000              -0.000075631               0.005038775              -0.000127288              -0.000658207               0.001898977               0.001240770               0.000000000               0.000000000               0.000000000               0.000000000              -0.000092554               0.004946013              -0.000053612              -0.000652958               0.001866307               0.001213349               0.000000000               0.000000000               0.000000000               0.000000000              -0.000115700               0.004900382              -0.000018652              -0.000655934               0.001852089               0.001196155               0.000000000               0.000000000               0.000000000               0.000000000              -0.000945512               0.001653436              -0.000955730              -0.000561246               0.000738221               0.000176975               0.000000000               0.000000000               0.000000000               0.000000000              -0.000806950               0.002902973              -0.001586198              -0.000665477               0.001189473               0.000523996               0.000000000               0.000000000               0.000000000               0.000000000              -0.000974534               0.004255494              -0.002021276              -0.000897386               0.001717611               0.000820226               0.000000000               0.000000000               0.000000000               0.000000000              -0.000933679               0.004963205              -0.001927043              -0.000970529               0.001977894               0.001007365               0.000000000               0.000000000               0.000000000               0.000000000              -0.000825808               0.005339142              -0.001712269              -0.000977069               0.002105385               0.001128316               0.000000000               0.000000000               0.000000000               0.000000000              -0.000697923               0.005521794              -0.001488142              -0.000951944               0.002157894               0.001205950               0.000000000               0.000000000               0.000000000               0.000000000              -0.000566743               0.005598024              -0.001281240              -0.000912280               0.002170082               0.001257803               0.000000000               0.000000000               0.000000000               0.000000000              -0.000441210               0.005612969              -0.001097305              -0.000867073               0.002159995               0.001292922               0.000000000               0.000000000               0.000000000               0.000000000              -0.000328317               0.005584122              -0.000938391              -0.000821132               0.002135066               0.001313934               0.000000000               0.000000000               0.000000000               0.000000000              -0.000232960               0.005521500              -0.000801314              -0.000777546               0.002099663               0.001322118               0.000000000               0.000000000               0.000000000               0.000000000              -0.000154339               0.005430554              -0.000679482              -0.000736695               0.002055731               0.001319037               0.000000000               0.000000000               0.000000000               0.000000000              -0.000090444               0.005320315              -0.000564761              -0.000698954               0.002006405               0.001307451               0.000000000               0.000000000               0.000000000               0.000000000              -0.000043999               0.005212677              -0.000451697              -0.000668083               0.001960236               0.001292153               0.000000000               0.000000000               0.000000000               0.000000000              -0.000016584               0.005113162              -0.000338224              -0.000645363               0.001919491               0.001274128               0.000000000               0.000000000               0.000000000               0.000000000              -0.000011685               0.005019380              -0.000222562              -0.000631803               0.001883711               0.001251908               0.000000000               0.000000000               0.000000000               0.000000000              -0.000033816               0.004941727              -0.000107778              -0.000630395               0.001857358               0.001226962               0.000000000               0.000000000               0.000000000               0.000000000              -0.000067421               0.004899248              -0.000046741              -0.000637687               0.001845629               0.001207941               0.000000000               0.000000000               0.000000000               0.000000000              -0.001963255               0.000799187              -0.000465797              -0.000836118               0.000545098              -0.000291020               0.000000000               0.000000000               0.000000000               0.000000000              -0.001241279               0.001936165              -0.001273357              -0.000707499               0.000881214               0.000173715               0.000000000               0.000000000               0.000000000               0.000000000              -0.000950874               0.003154640              -0.001913154              -0.000750907               0.001301838               0.000550930               0.000000000               0.000000000               0.000000000               0.000000000              -0.000768326               0.003948423              -0.001945862              -0.000781675               0.001576685               0.000795011               0.000000000               0.000000000               0.000000000               0.000000000              -0.000630962               0.004463138              -0.001798860              -0.000794502               0.001752531               0.000958029               0.000000000               0.000000000               0.000000000               0.000000000              -0.000511094               0.004789704              -0.001610322              -0.000790372               0.001860009               0.001069637               0.000000000               0.000000000               0.000000000               0.000000000              -0.000396615               0.004993423              -0.001420545              -0.000772908               0.001922093               0.001149186               0.000000000               0.000000000               0.000000000               0.000000000              -0.000287923               0.005120065              -0.001242436              -0.000747978               0.001955997               0.001208019               0.000000000               0.000000000               0.000000000               0.000000000              -0.000184037               0.005187011              -0.001086247              -0.000717389               0.001968116               0.001250727               0.000000000               0.000000000               0.000000000               0.000000000              -0.000088798               0.005201983              -0.000951119              -0.000683546               0.001961826               0.001278280               0.000000000               0.000000000               0.000000000               0.000000000              -0.000008342               0.005179716              -0.000828270              -0.000650591               0.001943418               0.001292827               0.000000000               0.000000000               0.000000000               0.000000000               0.000059280               0.005136991              -0.000707809              -0.000619892               0.001918944               0.001299052               0.000000000               0.000000000               0.000000000               0.000000000               0.000114135               0.005082231              -0.000584920              -0.000592477               0.001891552               0.001299075               0.000000000               0.000000000               0.000000000               0.000000000               0.000153950               0.005026347              -0.000456635              -0.000570561               0.001865619               0.001295058               0.000000000               0.000000000               0.000000000               0.000000000               0.000171676               0.004973610              -0.000318862              -0.000557322               0.001843627               0.001286306               0.000000000               0.000000000               0.000000000               0.000000000               0.000157193               0.004923678              -0.000166902              -0.000556511               0.001826713               0.001270202               0.000000000               0.000000000               0.000000000               0.000000000               0.000124971               0.004890842              -0.000081843              -0.000564489               0.001818427               0.001253938               0.000000000               0.000000000               0.000000000               0.000000000              -0.002954625               0.000208782              -0.000114733              -0.001134081               0.000447618              -0.000686463               0.000000000               0.000000000               0.000000000               0.000000000              -0.001684629               0.001138266              -0.000929958              -0.000774018               0.000637423              -0.000136595               0.000000000               0.000000000               0.000000000               0.000000000              -0.000924158               0.002134218              -0.001621012              -0.000613336               0.000915843               0.000302507               0.000000000               0.000000000               0.000000000               0.000000000              -0.000568247               0.002937873              -0.001738414              -0.000580327               0.001172723               0.000592396               0.000000000               0.000000000               0.000000000               0.000000000              -0.000374654               0.003543335              -0.001662231              -0.000583412               0.001375570               0.000792158               0.000000000               0.000000000               0.000000000               0.000000000              -0.000249903               0.003985311              -0.001525389              -0.000591877               0.001525715               0.000933838               0.000000000               0.000000000               0.000000000               0.000000000              -0.000152664               0.004299917              -0.001372710              -0.000594738               0.001631537               0.001036799               0.000000000               0.000000000               0.000000000               0.000000000              -0.000060886               0.004529155              -0.001224108              -0.000588976               0.001706028               0.001117052               0.000000000               0.000000000               0.000000000               0.000000000               0.000027225               0.004691847              -0.001091968              -0.000576271               0.001756023               0.001179753               0.000000000               0.000000000               0.000000000               0.000000000               0.000112162               0.004797810              -0.000973646              -0.000557665               0.001785142               0.001227477               0.000000000               0.000000000               0.000000000               0.000000000               0.000190626               0.004858047              -0.000863757              -0.000535770               0.001797923               0.001262153               0.000000000               0.000000000               0.000000000               0.000000000               0.000263653               0.004889061              -0.000755917              -0.000512262               0.001800424               0.001288163               0.000000000               0.000000000               0.000000000               0.000000000               0.000335647               0.004902346              -0.000644483              -0.000486925               0.001796407               0.001309482               0.000000000               0.000000000               0.000000000               0.000000000               0.000405391               0.004905635              -0.000523689              -0.000461182               0.001788923               0.001327741               0.000000000               0.000000000               0.000000000               0.000000000               0.000464487               0.004901983              -0.000382151              -0.000438564               0.001780166               0.001341602               0.000000000               0.000000000               0.000000000               0.000000000               0.000497744               0.004890572              -0.000208382              -0.000424667               0.001771730               0.001347063               0.000000000               0.000000000               0.000000000               0.000000000               0.000500611               0.004878478              -0.000109901              -0.000422079               0.001766836               0.001344757               0.000000000               0.000000000               0.000000000               0.000000000              -0.003789707              -0.000145595               0.000063315              -0.001402940               0.000419112              -0.000983828               0.000000000               0.000000000               0.000000000               0.000000000              -0.002079196               0.000555332              -0.000591407              -0.000849114               0.000468145              -0.000380969               0.000000000               0.000000000               0.000000000               0.000000000              -0.000908491               0.001309423              -0.001170295              -0.000504362               0.000604589               0.000100228               0.000000000               0.000000000               0.000000000               0.000000000              -0.000378115               0.002072743              -0.001307880              -0.000400886               0.000824535               0.000423650               0.000000000               0.000000000               0.000000000               0.000000000              -0.000116462               0.002717265              -0.001282980              -0.000383331               0.001033523               0.000650191               0.000000000               0.000000000               0.000000000               0.000000000               0.000022485               0.003233375              -0.001197442              -0.000395740               0.001209694               0.000813954               0.000000000               0.000000000               0.000000000               0.000000000               0.000111712               0.003638173              -0.001094597              -0.000412879               0.001350338               0.000937459               0.000000000               0.000000000               0.000000000               0.000000000               0.000187386               0.003956481              -0.000991031              -0.000424290               0.001460243               0.001035954               0.000000000               0.000000000               0.000000000               0.000000000               0.000255437               0.004202997              -0.000895931              -0.000429585               0.001544180               0.001114595               0.000000000               0.000000000               0.000000000               0.000000000               0.000321324               0.004391135              -0.000810733              -0.000428395               0.001606495               0.001178100               0.000000000               0.000000000               0.000000000               0.000000000               0.000394435               0.004532266              -0.000730330              -0.000418619               0.001650280               0.001231661               0.000000000               0.000000000               0.000000000               0.000000000               0.000475255               0.004637711              -0.000652295              -0.000401493               0.001679719               0.001278226               0.000000000               0.000000000               0.000000000               0.000000000               0.000570853               0.004721528              -0.000572298              -0.000376120               0.001699200               0.001323080               0.000000000               0.000000000               0.000000000               0.000000000               0.000679052               0.004785689              -0.000480574              -0.000343566               0.001709735               0.001366170               0.000000000               0.000000000               0.000000000               0.000000000               0.000799990               0.004830035              -0.000363690              -0.000303757               0.001711248               0.001407491               0.000000000               0.000000000               0.000000000               0.000000000               0.000930572               0.004858271              -0.000204853              -0.000258319               0.001705514               0.001447195               0.000000000               0.000000000               0.000000000               0.000000000               0.001021115               0.004875701              -0.000114584              -0.000226544               0.001700732               0.001474188               0.000000000               0.000000000               0.000000000               0.000000000              -0.004346963              -0.000317515               0.000081141              -0.001590421               0.000424299              -0.001166122               0.000000000               0.000000000               0.000000000               0.000000000              -0.002359440               0.000209232              -0.000281622              -0.000910943               0.000373389              -0.000537554               0.000000000               0.000000000               0.000000000               0.000000000              -0.000909018               0.000776161              -0.000610466              -0.000437901               0.000404684              -0.000033217               0.000000000               0.000000000               0.000000000               0.000000000              -0.000244081               0.001487485              -0.000700589              -0.000277466               0.000588312               0.000310846               0.000000000               0.000000000               0.000000000               0.000000000               0.000075173               0.002139564              -0.000697902              -0.000239256               0.000792933               0.000553677               0.000000000               0.000000000               0.000000000               0.000000000               0.000233421               0.002694688              -0.000658959              -0.000249303               0.000981321               0.000732018               0.000000000               0.000000000               0.000000000               0.000000000               0.000319736               0.003158160              -0.000608350              -0.000274869               0.001144332               0.000869463               0.000000000               0.000000000               0.000000000               0.000000000               0.000377246               0.003537960              -0.000554175              -0.000300777               0.001279567               0.000978790               0.000000000               0.000000000               0.000000000               0.000000000               0.000428750               0.003843713              -0.000503908              -0.000319682               0.001387786               0.001068103               0.000000000               0.000000000               0.000000000               0.000000000               0.000483398               0.004090585              -0.000460803              -0.000330048               0.001473531               0.001143482               0.000000000               0.000000000               0.000000000               0.000000000               0.000550460               0.004290389              -0.000419687              -0.000329875               0.001540074               0.001210199               0.000000000               0.000000000               0.000000000               0.000000000               0.000637398               0.004452990              -0.000380264              -0.000317599               0.001590181               0.001272583               0.000000000               0.000000000               0.000000000               0.000000000               0.000749562               0.004586693              -0.000339618              -0.000292250               0.001626299               0.001334049               0.000000000               0.000000000               0.000000000               0.000000000               0.000892193               0.004695047              -0.000290825              -0.000252308               0.001649103               0.001396795               0.000000000               0.000000000               0.000000000               0.000000000               0.001075269               0.004780190              -0.000226574              -0.000194297               0.001658147               0.001463849               0.000000000               0.000000000               0.000000000               0.000000000               0.001310863               0.004837451              -0.000131794              -0.000113108               0.001650170               0.001537063               0.000000000               0.000000000               0.000000000               0.000000000               0.001504598               0.004878787              -0.000078028              -0.000045624               0.001641454               0.001595830               0.000000000               0.000000000               0.000000000               0.000000000              -0.004542897              -0.000364767              -0.000000000              -0.001657989               0.000431071              -0.001226918               0.000000000               0.000000000               0.000000000               0.000000000              -0.002462994               0.000096143              -0.000000000              -0.000935640               0.000343925              -0.000591714               0.000000000               0.000000000               0.000000000               0.000000000              -0.000913526               0.000590489               0.000000000              -0.000416383               0.000335621              -0.000080761               0.000000000               0.000000000               0.000000000               0.000000000              -0.000196547               0.001279103               0.000000000              -0.000233593               0.000504227               0.000270635               0.000000000               0.000000000               0.000000000               0.000000000               0.000147190               0.001933097              -0.000000000              -0.000186441               0.000706506               0.000520065               0.000000000               0.000000000               0.000000000               0.000000000               0.000315704               0.002499781              -0.000000000              -0.000194083               0.000897946               0.000703863               0.000000000               0.000000000               0.000000000               0.000000000               0.000398245               0.002979965              -0.000000000              -0.000223153               0.001067696               0.000844543               0.000000000               0.000000000               0.000000000               0.000000000               0.000448119               0.003384268               0.000000000              -0.000254989               0.001213074               0.000958086               0.000000000               0.000000000               0.000000000               0.000000000               0.000493700               0.003714299              -0.000000000              -0.000279149               0.001331137               0.001051988               0.000000000               0.000000000               0.000000000               0.000000000               0.000544686               0.003979751              -0.000000000              -0.000293211               0.001424307               0.001131096               0.000000000               0.000000000               0.000000000               0.000000000               0.000608123               0.004198658              -0.000000000              -0.000296785               0.001498467               0.001201682               0.000000000               0.000000000               0.000000000               0.000000000               0.000697407               0.004384713              -0.000000000              -0.000286561               0.001557077               0.001270516               0.000000000               0.000000000               0.000000000               0.000000000               0.000815359               0.004539629              -0.000000000              -0.000261694               0.001600426               0.001338732               0.000000000               0.000000000               0.000000000               0.000000000               0.000973629               0.004664968              -0.000000000              -0.000218010               0.001627644               0.001409634               0.000000000               0.000000000               0.000000000               0.000000000               0.001183370               0.004764671              -0.000000000              -0.000151820               0.001638814               0.001486995               0.000000000               0.000000000               0.000000000               0.000000000               0.001463825               0.004831627              -0.000000000              -0.000055019               0.001628866               0.001573847               0.000000000               0.000000000               0.000000000               0.000000000               0.001703004               0.004881655              -0.000000000               0.000028419               0.001617729               0.001646148               0.000000000               0.000000000               0.000000000               0.000000000               0.000000000               0.000000000               0.000000000               0.000000000               0.000000000               0.000000000               0.000000000               0.000000000               0.000000000               0.000000000               0.000000000               0.000000000               0.000000000               0.000000000               0.000000000               0.000000000               0.000000000               0.000000000               0.000000000               0.000000000               0.000000000               0.000000000               0.000000000               0.000000000               0.000000000               0.000000000               0.000000000               0.000000000               0.000000000               0.000000000               0.000000000               0.000000000               0.000000000               0.000000000               0.000000000               0.000000000               0.000000000               0.000000000               0.000000000               0.000000000               0.000000000               0.000000000               0.000000000               0.000000000               0.000000000               0.000000000               0.000000000               0.000000000               0.000000000               0.000000000               0.000000000               0.000000000               0.000000000               0.000000000               0.000000000               0.000000000               0.000000000               0.000000000               0.000000000               0.000000000               0.000000000               0.000000000               0.000000000               0.000000000               0.000000000               0.000000000               0.000000000               0.000000000               0.000000000               0.000000000               0.000000000               0.000000000               0.000000000               0.000000000               0.000000000               0.000000000               0.000000000               0.000000000               0.000000000               0.000000000               0.000000000               0.000000000               0.000000000               0.000000000               0.000000000               0.000000000               0.000000000               0.000000000               0.000000000               0.000000000               0.000000000               0.000000000               0.000000000               0.000000000               0.000000000               0.000000000               0.000000000               0.000000000               0.000000000               0.000000000               0.000000000               0.000000000               0.000000000               0.000000000               0.000000000               0.000000000               0.000000000               0.000000000               0.000000000               0.000000000               0.000000000               0.000000000               0.000000000               0.000000000               0.000000000               0.000000000               0.000000000               0.000000000               0.000000000               0.000000000               0.000000000               0.000000000               0.000000000               0.000000000               0.000000000               0.000000000               0.000000000               0.000000000               0.000000000               0.000000000               0.000000000               0.000000000               0.000000000               0.000000000               0.000000000               0.000000000               0.000000000               0.000000000               0.000000000               0.000000000               0.000000000               0.000000000               0.000000000               0.000000000               0.000000000               0.000000000               0.000000000               0.000000000               0.000000000               0.000000000               0.000000000               0.000000000               0.000000000               0.000000000               0.000000000               0.000000000               0.000000000               0.000000000               0.000000000               0.000000000               0.000000000               0.000000000               0.000000000               0.000000000               0.000000000               0.000000000               0.000000000               0.000000000               0.000000000               0.000000000               0.001584253               0.016649983               0.001206975              -0.001487150               0.006045655               0.004558506               0.000000000               0.000000000               0.000000000               0.000000000               0.001566254               0.013380112               0.000678016              -0.001085166               0.004821715               0.003736549               0.000000000               0.000000000               0.000000000               0.000000000               0.002042120               0.010762796               0.000143447              -0.000579553               0.003780747               0.003201194               0.000000000               0.000000000               0.000000000               0.000000000               0.002003498               0.009300985              -0.000091377              -0.000411310               0.003237401               0.002826090               0.000000000               0.000000000               0.000000000               0.000000000               0.001788989               0.008407689              -0.000197039              -0.000380089               0.002929231               0.002549142               0.000000000               0.000000000               0.000000000               0.000000000               0.001524057               0.007828722              -0.000245158              -0.000407068               0.002745237               0.002338169               0.000000000               0.000000000               0.000000000               0.000000000               0.001261845               0.007429284              -0.000260542              -0.000455468               0.002628226               0.002172758               0.000000000               0.000000000               0.000000000               0.000000000               0.001024477               0.007130919              -0.000257810              -0.000507185               0.002546011               0.002038826               0.000000000               0.000000000               0.000000000               0.000000000               0.000818407               0.006891237              -0.000248349              -0.000554501               0.002481890               0.001927389               0.000000000               0.000000000               0.000000000               0.000000000               0.000641776               0.006686356              -0.000234184              -0.000595127               0.002427139               0.001832012               0.000000000               0.000000000               0.000000000               0.000000000               0.000488046               0.006500376              -0.000217611              -0.000629528               0.002376613               0.001747085               0.000000000               0.000000000               0.000000000               0.000000000               0.000351344               0.006322971              -0.000202632              -0.000658616               0.002327175               0.001668559               0.000000000               0.000000000               0.000000000               0.000000000               0.000235438               0.006147624              -0.000186836              -0.000680162               0.002275908               0.001595746               0.000000000               0.000000000               0.000000000               0.000000000               0.000145355               0.005966294              -0.000162807              -0.000691277               0.002219170               0.001527894               0.000000000               0.000000000               0.000000000               0.000000000               0.000077540               0.005770869              -0.000128070              -0.000692279               0.002154364               0.001462084               0.000000000               0.000000000               0.000000000               0.000000000               0.000030709               0.005553550              -0.000075736              -0.000682676               0.002078723               0.001396047               0.000000000               0.000000000               0.000000000               0.000000000              -0.000003808               0.005389935              -0.000046454              -0.000675168               0.002021683               0.001346515               0.000000000               0.000000000               0.000000000               0.000000000               0.001765795               0.015714005               0.002266920              -0.001302075               0.005671974               0.004369899               0.000000000               0.000000000               0.000000000               0.000000000               0.001537601               0.012759578               0.001277422              -0.001018345               0.004592598               0.003574254               0.000000000               0.000000000               0.000000000               0.000000000               0.001784523               0.010469982               0.000286500              -0.000639550               0.003703142               0.003063592               0.000000000               0.000000000               0.000000000               0.000000000               0.001654226               0.009176405              -0.000137205              -0.000526714               0.003234342               0.002707628               0.000000000               0.000000000               0.000000000               0.000000000               0.001420622               0.008374720              -0.000324959              -0.000514105               0.002962914               0.002448808               0.000000000               0.000000000               0.000000000               0.000000000               0.001172572               0.007838676              -0.000406455              -0.000540119               0.002792905               0.002252787               0.000000000               0.000000000               0.000000000               0.000000000               0.000941483               0.007452877              -0.000429972              -0.000578552               0.002677118               0.002098566               0.000000000               0.000000000               0.000000000               0.000000000               0.000740314               0.007154344              -0.000423340              -0.000616674               0.002590315               0.001973642               0.000000000               0.000000000               0.000000000               0.000000000               0.000569407               0.006908617              -0.000406000              -0.000650048               0.002519532               0.001869484               0.000000000               0.000000000               0.000000000               0.000000000               0.000427223               0.006700703              -0.000383211              -0.000677378               0.002459338               0.001781960               0.000000000               0.000000000               0.000000000               0.000000000               0.000307132               0.006519039              -0.000356283              -0.000699704               0.002406226               0.001706522               0.000000000               0.000000000               0.000000000               0.000000000               0.000203609               0.006349847              -0.000327055              -0.000717376               0.002355720               0.001638344               0.000000000               0.000000000               0.000000000               0.000000000               0.000120108               0.006181072              -0.000291571              -0.000727592               0.002302867               0.001575276               0.000000000               0.000000000               0.000000000               0.000000000               0.000060544               0.006011282              -0.000245517              -0.000728704               0.002246642               0.001517938               0.000000000               0.000000000               0.000000000               0.000000000               0.000025042               0.005843388              -0.000187277              -0.000721031               0.002188120               0.001467089               0.000000000               0.000000000               0.000000000               0.000000000               0.000007483               0.005677550              -0.000107178              -0.000706886               0.002128127               0.001421241               0.000000000               0.000000000               0.000000000               0.000000000              -0.000009137               0.005566019              -0.000064334              -0.000699177               0.002088380               0.001389203               0.000000000               0.000000000               0.000000000               0.000000000               0.001996991               0.014297461               0.003061412              -0.001038310               0.005111876               0.004073565               0.000000000               0.000000000               0.000000000               0.000000000               0.001466137               0.011825742               0.001739108              -0.000928415               0.004251346               0.003322931               0.000000000               0.000000000               0.000000000               0.000000000               0.001387857               0.010028431               0.000430347              -0.000733106               0.003587146               0.002854040               0.000000000               0.000000000               0.000000000               0.000000000               0.001150350               0.008980947              -0.000108263              -0.000691236               0.003224031               0.002532795               0.000000000               0.000000000               0.000000000               0.000000000               0.000904876               0.008301616              -0.000340282              -0.000698372               0.002999968               0.002301597               0.000000000               0.000000000               0.000000000               0.000000000               0.000688820               0.007821505              -0.000439278              -0.000719379               0.002846935               0.002127556               0.000000000               0.000000000               0.000000000               0.000000000               0.000509490               0.007455746              -0.000469321              -0.000740908               0.002732193               0.001991285               0.000000000               0.000000000               0.000000000               0.000000000               0.000364477               0.007160212              -0.000461737              -0.000758346               0.002639495               0.001881149               0.000000000               0.000000000               0.000000000               0.000000000               0.000247128               0.006913231              -0.000441888              -0.000771479               0.002561547               0.001790068               0.000000000               0.000000000               0.000000000               0.000000000               0.000151380               0.006704684              -0.000416949              -0.000781316               0.002495311               0.001713995               0.000000000               0.000000000               0.000000000               0.000000000               0.000076811               0.006520482              -0.000386140              -0.000786254               0.002435557               0.001649303               0.000000000               0.000000000               0.000000000               0.000000000               0.000018436               0.006347341              -0.000349122              -0.000786502               0.002377927               0.001591425               0.000000000               0.000000000               0.000000000               0.000000000              -0.000023310               0.006182682              -0.000304688              -0.000781575               0.002321398               0.001539824               0.000000000               0.000000000               0.000000000               0.000000000              -0.000043824               0.006031821              -0.000251596              -0.000770410               0.002267390               0.001496980               0.000000000               0.000000000               0.000000000               0.000000000              -0.000044374               0.005896516              -0.000187217              -0.000753703               0.002216720               0.001463017               0.000000000               0.000000000               0.000000000               0.000000000              -0.000027548               0.005780704              -0.000104582              -0.000732917               0.002171188               0.001438271               0.000000000               0.000000000               0.000000000               0.000000000              -0.000022952               0.005712008              -0.000061571              -0.000722606               0.002144852               0.001422246               0.000000000               0.000000000               0.000000000               0.000000000               0.002178821               0.012569309               0.003527140              -0.000754107               0.004441096               0.003686989               0.000000000               0.000000000               0.000000000               0.000000000               0.001323989               0.010703848               0.002036931              -0.000841484               0.003848408               0.003006924               0.000000000               0.000000000               0.000000000               0.000000000               0.000899884               0.009498537               0.000578396              -0.000849859               0.003449433               0.002599575               0.000000000               0.000000000               0.000000000               0.000000000               0.000575677               0.008723973               0.000004009              -0.000874616               0.003199500               0.002324885               0.000000000               0.000000000               0.000000000               0.000000000               0.000345916               0.008173747              -0.000238237              -0.000891998               0.003021888               0.002129890               0.000000000               0.000000000               0.000000000               0.000000000               0.000186417               0.007752228              -0.000342952              -0.000899120               0.002883757               0.001984637               0.000000000               0.000000000               0.000000000               0.000000000               0.000073607               0.007405605              -0.000377883              -0.000898096               0.002767876               0.001869780               0.000000000               0.000000000               0.000000000               0.000000000              -0.000006252               0.007114165              -0.000375959              -0.000891613               0.002668569               0.001776956               0.000000000               0.000000000               0.000000000               0.000000000              -0.000062749               0.006868977              -0.000363960              -0.000882151               0.002583686               0.001701535               0.000000000               0.000000000               0.000000000               0.000000000              -0.000101132               0.006656183              -0.000347708              -0.000869945               0.002508687               0.001638742               0.000000000               0.000000000               0.000000000               0.000000000              -0.000121057               0.006464031              -0.000322527              -0.000853398               0.002439122               0.001585723               0.000000000               0.000000000               0.000000000               0.000000000              -0.000128089               0.006286425              -0.000291084              -0.000833834               0.002373399               0.001539564               0.000000000               0.000000000               0.000000000               0.000000000              -0.000124349               0.006128494              -0.000254722              -0.000812691               0.002313708               0.001501017               0.000000000               0.000000000               0.000000000               0.000000000              -0.000106972               0.005994338              -0.000210017              -0.000789405               0.002261227               0.001471823               0.000000000               0.000000000               0.000000000               0.000000000              -0.000076364               0.005886204              -0.000153519              -0.000764410               0.002216852               0.001452442               0.000000000               0.000000000               0.000000000               0.000000000              -0.000040068               0.005805246              -0.000082982              -0.000740680               0.002181956               0.001441276               0.000000000               0.000000000               0.000000000               0.000000000              -0.000025209               0.005766542              -0.000046034              -0.000730269               0.002165584               0.001435315               0.000000000               0.000000000               0.000000000               0.000000000               0.002216404               0.010694877               0.003662098              -0.000505711               0.003733492               0.003227782               0.000000000               0.000000000               0.000000000               0.000000000               0.001091954               0.009512510               0.002183348              -0.000779581               0.003430665               0.002651084               0.000000000               0.000000000               0.000000000               0.000000000               0.000373682               0.008929185               0.000745009              -0.000976015               0.003301704               0.002325688               0.000000000               0.000000000               0.000000000               0.000000000               0.000019060               0.008410802               0.000196282              -0.001044200               0.003151639               0.002107439               0.000000000               0.000000000               0.000000000               0.000000000              -0.000159201               0.007977034              -0.000035690              -0.001056827               0.003011260               0.001954433               0.000000000               0.000000000               0.000000000               0.000000000              -0.000245178               0.007605089              -0.000141470              -0.001042575               0.002882529               0.001839954               0.000000000               0.000000000               0.000000000               0.000000000              -0.000283756               0.007279390              -0.000187037              -0.001016330               0.002765216               0.001748886               0.000000000               0.000000000               0.000000000               0.000000000              -0.000293156               0.006997259              -0.000203554              -0.000984588               0.002660592               0.001676004               0.000000000               0.000000000               0.000000000               0.000000000              -0.000286597               0.006750707              -0.000211021              -0.000951310               0.002567317               0.001616007               0.000000000               0.000000000               0.000000000               0.000000000              -0.000270183               0.006529502              -0.000211982              -0.000917504               0.002482314               0.001564809               0.000000000               0.000000000               0.000000000               0.000000000              -0.000238020               0.006330555              -0.000201380              -0.000880575               0.002403689               0.001523114               0.000000000               0.000000000               0.000000000               0.000000000              -0.000197846               0.006152410              -0.000184006              -0.000843241               0.002331863               0.001488622               0.000000000               0.000000000               0.000000000               0.000000000              -0.000155583               0.005997432              -0.000161938              -0.000808021               0.002268464               0.001460444               0.000000000               0.000000000               0.000000000               0.000000000              -0.000112035               0.005866971              -0.000130696              -0.000775382               0.002214098               0.001438716               0.000000000               0.000000000               0.000000000               0.000000000              -0.000070120               0.005760833              -0.000088126              -0.000746397               0.002169057               0.001422660               0.000000000               0.000000000               0.000000000               0.000000000              -0.000031413               0.005685070              -0.000041541              -0.000722412               0.002135808               0.001413396               0.000000000               0.000000000               0.000000000               0.000000000              -0.000016683               0.005650429              -0.000021394              -0.000712558               0.002120977               0.001408419               0.000000000               0.000000000               0.000000000               0.000000000               0.002060635               0.008815326               0.003512485              -0.000329181               0.003048138               0.002718957               0.000000000               0.000000000               0.000000000               0.000000000               0.000785485               0.008339773               0.002214628              -0.000747915               0.003029201               0.002281286               0.000000000               0.000000000               0.000000000               0.000000000              -0.000127232               0.008342322               0.000942853              -0.001090500               0.003144246               0.002053746               0.000000000               0.000000000               0.000000000               0.000000000              -0.000448991               0.008040725               0.000455083              -0.001173459               0.003071368               0.001897908               0.000000000               0.000000000               0.000000000               0.000000000              -0.000545592               0.007701979               0.000232865              -0.001167341               0.002956414               0.001789073               0.000000000               0.000000000               0.000000000               0.000000000              -0.000549126               0.007377952               0.000114066              -0.001128163               0.002835347               0.001707184               0.000000000               0.000000000               0.000000000               0.000000000              -0.000513911               0.007078629               0.000043290              -0.001077542               0.002718700               0.001641158               0.000000000               0.000000000               0.000000000               0.000000000              -0.000466513               0.006804343              -0.000001279              -0.001025483               0.002609919               0.001584436               0.000000000               0.000000000               0.000000000               0.000000000              -0.000410147               0.006559068              -0.000033462              -0.000973686               0.002510896               0.001537210               0.000000000               0.000000000               0.000000000               0.000000000              -0.000347061               0.006338119              -0.000056357              -0.000922411               0.002420155               0.001497745               0.000000000               0.000000000               0.000000000               0.000000000              -0.000276474               0.006137714              -0.000064514              -0.000870890               0.002336181               0.001465291               0.000000000               0.000000000               0.000000000               0.000000000              -0.000207100               0.005956740              -0.000063691              -0.000822253               0.002259645               0.001437392               0.000000000               0.000000000               0.000000000               0.000000000              -0.000148125               0.005795507              -0.000058235              -0.000779983               0.002191811               0.001411827               0.000000000               0.000000000               0.000000000               0.000000000              -0.000097622               0.005656314              -0.000043942              -0.000743645               0.002133301               0.001389655               0.000000000               0.000000000               0.000000000               0.000000000              -0.000053203               0.005541431              -0.000024022              -0.000712628               0.002084668               0.001372040               0.000000000               0.000000000               0.000000000               0.000000000              -0.000018957               0.005453434              -0.000008242              -0.000688786               0.002047388               0.001358602               0.000000000               0.000000000               0.000000000               0.000000000              -0.000012533               0.005403499              -0.000006743              -0.000680136               0.002027860               0.001347725               0.000000000               0.000000000               0.000000000               0.000000000               0.001728876               0.007045048               0.003143653              -0.000232306               0.002425760               0.002193454               0.000000000               0.000000000               0.000000000               0.000000000               0.000433129               0.007244543               0.002168387              -0.000743144               0.002662538               0.001919393               0.000000000               0.000000000               0.000000000               0.000000000              -0.000542879               0.007736906               0.001172573              -0.001170690               0.002969173               0.001798482               0.000000000               0.000000000               0.000000000               0.000000000              -0.000779559               0.007613465               0.000746131              -0.001244015               0.002952468               0.001708453               0.000000000               0.000000000               0.000000000               0.000000000              -0.000782438               0.007364340               0.000513996              -0.001213954               0.002859407               0.001645453               0.000000000               0.000000000               0.000000000               0.000000000              -0.000709600               0.007089188               0.000366231              -0.001152246               0.002747121               0.001594875               0.000000000               0.000000000               0.000000000               0.000000000              -0.000617788               0.006814212               0.000264520              -0.001083444               0.002632529               0.001549085               0.000000000               0.000000000               0.000000000               0.000000000              -0.000528513               0.006552413               0.000188603              -0.001017241               0.002523196               0.001505955               0.000000000               0.000000000               0.000000000               0.000000000              -0.000438132               0.006317436               0.000127651              -0.000953977               0.002423783               0.001469806               0.000000000               0.000000000               0.000000000               0.000000000              -0.000346223               0.006101419               0.000082021              -0.000892509               0.002331289               0.001438780               0.000000000               0.000000000               0.000000000               0.000000000              -0.000262163               0.005896857               0.000053536              -0.000835416               0.002244071               0.001408655               0.000000000               0.000000000               0.000000000               0.000000000              -0.000189585               0.005710680               0.000036264              -0.000784927               0.002165183               0.001380256               0.000000000               0.000000000               0.000000000               0.000000000              -0.000126915               0.005546323               0.000022453              -0.000740881               0.002095716               0.001354835               0.000000000               0.000000000               0.000000000               0.000000000              -0.000076909               0.005404100               0.000013936              -0.000704352               0.002036133               0.001331781               0.000000000               0.000000000               0.000000000               0.000000000              -0.000039489               0.005287580               0.000010595              -0.000675754               0.001987761               0.001312006               0.000000000               0.000000000               0.000000000               0.000000000              -0.000014188               0.005194229               0.000005685              -0.000654598               0.001949592               0.001294994               0.000000000               0.000000000               0.000000000               0.000000000              -0.000012296               0.005139391              -0.000002280              -0.000647033               0.001928791               0.001281758               0.000000000               0.000000000               0.000000000               0.000000000               0.001296892               0.005521740               0.002642465              -0.000203886               0.001908522               0.001704637               0.000000000               0.000000000               0.000000000               0.000000000               0.000105648               0.006256154               0.002090015              -0.000742401               0.002332830               0.001590429               0.000000000               0.000000000               0.000000000               0.000000000              -0.000831270               0.007147003               0.001439391              -0.001205099               0.002784010               0.001578911               0.000000000               0.000000000               0.000000000               0.000000000              -0.000969922               0.007211615               0.001053046              -0.001265170               0.002825571               0.001560401               0.000000000               0.000000000               0.000000000               0.000000000              -0.000900066               0.007063277               0.000797758              -0.001220432               0.002761213               0.001540781               0.000000000               0.000000000               0.000000000               0.000000000              -0.000772477               0.006841420               0.000617011              -0.001144854               0.002662068               0.001517215               0.000000000               0.000000000               0.000000000               0.000000000              -0.000638806               0.006596734               0.000481925              -0.001064141               0.002553603               0.001489462               0.000000000               0.000000000               0.000000000               0.000000000              -0.000516928               0.006361200               0.000374066              -0.000988996               0.002450044               0.001461048               0.000000000               0.000000000               0.000000000               0.000000000              -0.000407570               0.006142122               0.000284504              -0.000920602               0.002354221               0.001433619               0.000000000               0.000000000               0.000000000               0.000000000              -0.000305766               0.005926485               0.000215417              -0.000855471               0.002260632               0.001405161               0.000000000               0.000000000               0.000000000               0.000000000              -0.000222256               0.005715583               0.000164160              -0.000797792               0.002171106               0.001373314               0.000000000               0.000000000               0.000000000               0.000000000              -0.000155030               0.005525972               0.000123722              -0.000748881               0.002091599               0.001342718               0.000000000               0.000000000               0.000000000               0.000000000              -0.000098504               0.005361888               0.000087685              -0.000707173               0.002023003               0.001315829               0.000000000               0.000000000               0.000000000               0.000000000              -0.000058473               0.005221433               0.000056492              -0.000674605               0.001965329               0.001290724               0.000000000               0.000000000               0.000000000               0.000000000              -0.000039820               0.005104517               0.000032046              -0.000652996               0.001919154               0.001266158               0.000000000               0.000000000               0.000000000               0.000000000              -0.000038774               0.005012448               0.000013777              -0.000641095               0.001884498               0.001243403               0.000000000               0.000000000               0.000000000               0.000000000              -0.000044312               0.004964645               0.000003559              -0.000637196               0.001867264               0.001230068               0.000000000               0.000000000               0.000000000               0.000000000               0.000745921               0.004083230               0.002092565              -0.000230685               0.001437957               0.001207272               0.000000000               0.000000000               0.000000000               0.000000000              -0.000142547               0.005115785               0.001993359              -0.000692928               0.001936220               0.001243292               0.000000000               0.000000000               0.000000000               0.000000000              -0.000946316               0.006295522               0.001728714              -0.001141807               0.002479088               0.001337281               0.000000000               0.000000000               0.000000000               0.000000000              -0.001040014               0.006608720               0.001396228              -0.001216093               0.002608249               0.001392156               0.000000000               0.000000000               0.000000000               0.000000000              -0.000945460               0.006621886               0.001123501              -0.001182281               0.002601367               0.001419086               0.000000000               0.000000000               0.000000000               0.000000000              -0.000802600               0.006510001               0.000910296              -0.001114723               0.002541553               0.001426830               0.000000000               0.000000000               0.000000000               0.000000000              -0.000656641               0.006347262               0.000739341              -0.001039646               0.002462281               0.001422635               0.000000000               0.000000000               0.000000000               0.000000000              -0.000522094               0.006176116               0.000596203              -0.000967798               0.002381284               0.001413486               0.000000000               0.000000000               0.000000000               0.000000000              -0.000408708               0.006001288               0.000478178              -0.000903424               0.002301551               0.001398126               0.000000000               0.000000000               0.000000000               0.000000000              -0.000311419               0.005817833               0.000381154              -0.000844009               0.002220595               0.001376586               0.000000000               0.000000000               0.000000000               0.000000000              -0.000228720               0.005632133               0.000299530              -0.000789785               0.002140620               0.001350836               0.000000000               0.000000000               0.000000000               0.000000000              -0.000165792               0.005453683               0.000231757              -0.000743880               0.002065836               0.001321956               0.000000000               0.000000000               0.000000000               0.000000000              -0.000116461               0.005294829               0.000170297              -0.000705525               0.002000100               0.001294576               0.000000000               0.000000000               0.000000000               0.000000000              -0.000082408               0.005158927               0.000112415              -0.000675767               0.001944881               0.001269114               0.000000000               0.000000000               0.000000000               0.000000000              -0.000071004               0.005042597               0.000060370              -0.000656950               0.001899832               0.001242883               0.000000000               0.000000000               0.000000000               0.000000000              -0.000081839               0.004946768               0.000020702              -0.000649034               0.001865251               0.001216217               0.000000000               0.000000000               0.000000000               0.000000000              -0.000094705               0.004900004               0.000004112              -0.000648013               0.001849323               0.001201309               0.000000000               0.000000000               0.000000000               0.000000000              -0.000017106               0.002764881               0.001519648              -0.000352026               0.001038959               0.000686933               0.000000000               0.000000000               0.000000000               0.000000000              -0.000430258               0.003979006               0.001834214              -0.000658722               0.001545895               0.000887173               0.000000000               0.000000000               0.000000000               0.000000000              -0.000979459               0.005330317               0.001951401              -0.001033585               0.002121282               0.001087697               0.000000000               0.000000000               0.000000000               0.000000000              -0.001031763               0.005872918               0.001722878              -0.001121024               0.002331294               0.001210270               0.000000000               0.000000000               0.000000000               0.000000000              -0.000932771               0.006073047               0.001462241              -0.001108918               0.002393968               0.001285050               0.000000000               0.000000000               0.000000000               0.000000000              -0.000792330               0.006104070               0.001230071              -0.001060130               0.002388046               0.001327916               0.000000000               0.000000000               0.000000000               0.000000000              -0.000649304               0.006053023               0.001031147              -0.001000115               0.002351026               0.001350911               0.000000000               0.000000000               0.000000000               0.000000000              -0.000513787               0.005963311               0.000860541              -0.000938082               0.002300444               0.001362363               0.000000000               0.000000000               0.000000000               0.000000000              -0.000396286               0.005851331               0.000716073              -0.000880022               0.002243765               0.001363743               0.000000000               0.000000000               0.000000000               0.000000000              -0.000302231               0.005720824               0.000592980              -0.000828438               0.002183068               0.001354630               0.000000000               0.000000000               0.000000000               0.000000000              -0.000222620               0.005575647               0.000485064              -0.000780437               0.002118676               0.001338239               0.000000000               0.000000000               0.000000000               0.000000000              -0.000159300               0.005420246               0.000389949              -0.000737266               0.002052486               0.001315220               0.000000000               0.000000000               0.000000000               0.000000000              -0.000114027               0.005275351               0.000301061              -0.000702177               0.001992492               0.001290314               0.000000000               0.000000000               0.000000000               0.000000000              -0.000083890               0.005150976               0.000212874              -0.000675329               0.001942084               0.001266756               0.000000000               0.000000000               0.000000000               0.000000000              -0.000075631               0.005038775               0.000127288              -0.000658207               0.001898977               0.001240770               0.000000000               0.000000000               0.000000000               0.000000000              -0.000092554               0.004946013               0.000053612              -0.000652958               0.001866307               0.001213349               0.000000000               0.000000000               0.000000000               0.000000000              -0.000115700               0.004900382               0.000018652              -0.000655934               0.001852089               0.001196155               0.000000000               0.000000000               0.000000000               0.000000000              -0.000945512               0.001653436               0.000955730              -0.000561246               0.000738221               0.000176975               0.000000000               0.000000000               0.000000000               0.000000000              -0.000806950               0.002902973               0.001586198              -0.000665477               0.001189473               0.000523996               0.000000000               0.000000000               0.000000000               0.000000000              -0.000974534               0.004255494               0.002021276              -0.000897386               0.001717611               0.000820226               0.000000000               0.000000000               0.000000000               0.000000000              -0.000933679               0.004963205               0.001927043              -0.000970529               0.001977894               0.001007365               0.000000000               0.000000000               0.000000000               0.000000000              -0.000825808               0.005339142               0.001712269              -0.000977069               0.002105385               0.001128316               0.000000000               0.000000000               0.000000000               0.000000000              -0.000697923               0.005521794               0.001488142              -0.000951944               0.002157894               0.001205950               0.000000000               0.000000000               0.000000000               0.000000000              -0.000566743               0.005598024               0.001281240              -0.000912280               0.002170082               0.001257803               0.000000000               0.000000000               0.000000000               0.000000000              -0.000441210               0.005612969               0.001097305              -0.000867073               0.002159995               0.001292922               0.000000000               0.000000000               0.000000000               0.000000000              -0.000328317               0.005584122               0.000938391              -0.000821132               0.002135066               0.001313934               0.000000000               0.000000000               0.000000000               0.000000000              -0.000232960               0.005521500               0.000801314              -0.000777546               0.002099663               0.001322118               0.000000000               0.000000000               0.000000000               0.000000000              -0.000154339               0.005430554               0.000679482              -0.000736695               0.002055731               0.001319037               0.000000000               0.000000000               0.000000000               0.000000000              -0.000090444               0.005320315               0.000564761              -0.000698954               0.002006405               0.001307451               0.000000000               0.000000000               0.000000000               0.000000000              -0.000043999               0.005212677               0.000451697              -0.000668083               0.001960236               0.001292153               0.000000000               0.000000000               0.000000000               0.000000000              -0.000016584               0.005113162               0.000338224              -0.000645363               0.001919491               0.001274128               0.000000000               0.000000000               0.000000000               0.000000000              -0.000011685               0.005019380               0.000222562              -0.000631803               0.001883711               0.001251908               0.000000000               0.000000000               0.000000000               0.000000000              -0.000033816               0.004941727               0.000107778              -0.000630395               0.001857358               0.001226962               0.000000000               0.000000000               0.000000000               0.000000000              -0.000067421               0.004899248               0.000046741              -0.000637687               0.001845629               0.001207941               0.000000000               0.000000000               0.000000000               0.000000000              -0.001963255               0.000799187               0.000465797              -0.000836118               0.000545098              -0.000291020               0.000000000               0.000000000               0.000000000               0.000000000              -0.001241279               0.001936165               0.001273357              -0.000707499               0.000881214               0.000173715               0.000000000               0.000000000               0.000000000               0.000000000              -0.000950874               0.003154640               0.001913154              -0.000750907               0.001301838               0.000550930               0.000000000               0.000000000               0.000000000               0.000000000              -0.000768326               0.003948423               0.001945862              -0.000781675               0.001576685               0.000795011               0.000000000               0.000000000               0.000000000               0.000000000              -0.000630962               0.004463138               0.001798860              -0.000794502               0.001752531               0.000958029               0.000000000               0.000000000               0.000000000               0.000000000              -0.000511094               0.004789704               0.001610322              -0.000790372               0.001860009               0.001069637               0.000000000               0.000000000               0.000000000               0.000000000              -0.000396615               0.004993423               0.001420545              -0.000772908               0.001922093               0.001149186               0.000000000               0.000000000               0.000000000               0.000000000              -0.000287923               0.005120065               0.001242436              -0.000747978               0.001955997               0.001208019               0.000000000               0.000000000               0.000000000               0.000000000              -0.000184037               0.005187011               0.001086247              -0.000717389               0.001968116               0.001250727               0.000000000               0.000000000               0.000000000               0.000000000              -0.000088798               0.005201983               0.000951119              -0.000683546               0.001961826               0.001278280               0.000000000               0.000000000               0.000000000               0.000000000              -0.000008342               0.005179716               0.000828270              -0.000650591               0.001943418               0.001292827               0.000000000               0.000000000               0.000000000               0.000000000               0.000059280               0.005136991               0.000707809              -0.000619892               0.001918944               0.001299052               0.000000000               0.000000000               0.000000000               0.000000000               0.000114135               0.005082231               0.000584920              -0.000592477               0.001891552               0.001299075               0.000000000               0.000000000               0.000000000               0.000000000               0.000153950               0.005026347               0.000456635              -0.000570561               0.001865619               0.001295058               0.000000000               0.000000000               0.000000000               0.000000000               0.000171676               0.004973610               0.000318862              -0.000557322               0.001843627               0.001286306               0.000000000               0.000000000               0.000000000               0.000000000               0.000157193               0.004923678               0.000166902              -0.000556511               0.001826713               0.001270202               0.000000000               0.000000000               0.000000000               0.000000000               0.000124971               0.004890842               0.000081843              -0.000564489               0.001818427               0.001253938               0.000000000               0.000000000               0.000000000               0.000000000              -0.002954625               0.000208782               0.000114733              -0.001134081               0.000447618              -0.000686463               0.000000000               0.000000000               0.000000000               0.000000000              -0.001684629               0.001138266               0.000929958              -0.000774018               0.000637423              -0.000136595               0.000000000               0.000000000               0.000000000               0.000000000              -0.000924158               0.002134218               0.001621012              -0.000613336               0.000915843               0.000302507               0.000000000               0.000000000               0.000000000               0.000000000              -0.000568247               0.002937873               0.001738414              -0.000580327               0.001172723               0.000592396               0.000000000               0.000000000               0.000000000               0.000000000              -0.000374654               0.003543335               0.001662231              -0.000583412               0.001375570               0.000792158               0.000000000               0.000000000               0.000000000               0.000000000              -0.000249903               0.003985311               0.001525389              -0.000591877               0.001525715               0.000933838               0.000000000               0.000000000               0.000000000               0.000000000              -0.000152664               0.004299917               0.001372710              -0.000594738               0.001631537               0.001036799               0.000000000               0.000000000               0.000000000               0.000000000              -0.000060886               0.004529155               0.001224108              -0.000588976               0.001706028               0.001117052               0.000000000               0.000000000               0.000000000               0.000000000               0.000027225               0.004691847               0.001091968              -0.000576271               0.001756023               0.001179753               0.000000000               0.000000000               0.000000000               0.000000000               0.000112162               0.004797810               0.000973646              -0.000557665               0.001785142               0.001227477               0.000000000               0.000000000               0.000000000               0.000000000               0.000190626               0.004858047               0.000863757              -0.000535770               0.001797923               0.001262153               0.000000000               0.000000000               0.000000000               0.000000000               0.000263653               0.004889061               0.000755917              -0.000512262               0.001800424               0.001288163               0.000000000               0.000000000               0.000000000               0.000000000               0.000335647               0.004902346               0.000644483              -0.000486925               0.001796407               0.001309482               0.000000000               0.000000000               0.000000000               0.000000000               0.000405391               0.004905635               0.000523689              -0.000461182               0.001788923               0.001327741               0.000000000               0.000000000               0.000000000               0.000000000               0.000464487               0.004901983               0.000382151              -0.000438564               0.001780166               0.001341602               0.000000000               0.000000000               0.000000000               0.000000000               0.000497744               0.004890572               0.000208382              -0.000424667               0.001771730               0.001347063               0.000000000               0.000000000               0.000000000               0.000000000               0.000500611               0.004878478               0.000109901              -0.000422079               0.001766836               0.001344757               0.000000000               0.000000000               0.000000000               0.000000000              -0.003789707              -0.000145595              -0.000063315              -0.001402940               0.000419112              -0.000983828               0.000000000               0.000000000               0.000000000               0.000000000              -0.002079196               0.000555332               0.000591407              -0.000849114               0.000468145              -0.000380969               0.000000000               0.000000000               0.000000000               0.000000000              -0.000908491               0.001309423               0.001170295              -0.000504362               0.000604589               0.000100228               0.000000000               0.000000000               0.000000000               0.000000000              -0.000378115               0.002072743               0.001307880              -0.000400886               0.000824535               0.000423650               0.000000000               0.000000000               0.000000000               0.000000000              -0.000116462               0.002717265               0.001282980              -0.000383331               0.001033523               0.000650191               0.000000000               0.000000000               0.000000000               0.000000000               0.000022485               0.003233375               0.001197442              -0.000395740               0.001209694               0.000813954               0.000000000               0.000000000               0.000000000               0.000000000               0.000111712               0.003638173               0.001094597              -0.000412879               0.001350338               0.000937459               0.000000000               0.000000000               0.000000000               0.000000000               0.000187386               0.003956481               0.000991031              -0.000424290               0.001460243               0.001035954               0.000000000               0.000000000               0.000000000               0.000000000               0.000255437               0.004202997               0.000895931              -0.000429585               0.001544180               0.001114595               0.000000000               0.000000000               0.000000000               0.000000000               0.000321324               0.004391135               0.000810733              -0.000428395               0.001606495               0.001178100               0.000000000               0.000000000               0.000000000               0.000000000               0.000394435               0.004532266               0.000730330              -0.000418619               0.001650280               0.001231661               0.000000000               0.000000000               0.000000000               0.000000000               0.000475255               0.004637711               0.000652295              -0.000401493               0.001679719               0.001278226               0.000000000               0.000000000               0.000000000               0.000000000               0.000570853               0.004721528               0.000572298              -0.000376120               0.001699200               0.001323080               0.000000000               0.000000000               0.000000000               0.000000000               0.000679052               0.004785689               0.000480574              -0.000343566               0.001709735               0.001366170               0.000000000               0.000000000               0.000000000               0.000000000               0.000799990               0.004830035               0.000363690              -0.000303757               0.001711248               0.001407491               0.000000000               0.000000000               0.000000000               0.000000000               0.000930572               0.004858271               0.000204853              -0.000258319               0.001705514               0.001447195               0.000000000               0.000000000               0.000000000               0.000000000               0.001021115               0.004875701               0.000114584              -0.000226544               0.001700732               0.001474188               0.000000000               0.000000000               0.000000000               0.000000000              -0.004346963              -0.000317515              -0.000081141              -0.001590421               0.000424299              -0.001166122               0.000000000               0.000000000               0.000000000               0.000000000              -0.002359440               0.000209232               0.000281622              -0.000910943               0.000373389              -0.000537554               0.000000000               0.000000000               0.000000000               0.000000000              -0.000909018               0.000776161               0.000610466              -0.000437901               0.000404684              -0.000033217               0.000000000               0.000000000               0.000000000               0.000000000              -0.000244081               0.001487485               0.000700589              -0.000277466               0.000588312               0.000310846               0.000000000               0.000000000               0.000000000               0.000000000               0.000075173               0.002139564               0.000697902              -0.000239256               0.000792933               0.000553677               0.000000000               0.000000000               0.000000000               0.000000000               0.000233421               0.002694688               0.000658959              -0.000249303               0.000981321               0.000732018               0.000000000               0.000000000               0.000000000               0.000000000               0.000319736               0.003158160               0.000608350              -0.000274869               0.001144332               0.000869463               0.000000000               0.000000000               0.000000000               0.000000000               0.000377246               0.003537960               0.000554175              -0.000300777               0.001279567               0.000978790               0.000000000               0.000000000               0.000000000               0.000000000               0.000428750               0.003843713               0.000503908              -0.000319682               0.001387786               0.001068103               0.000000000               0.000000000               0.000000000               0.000000000               0.000483398               0.004090585               0.000460803              -0.000330048               0.001473531               0.001143482               0.000000000               0.000000000               0.000000000               0.000000000               0.000550460               0.004290389               0.000419687              -0.000329875               0.001540074               0.001210199               0.000000000               0.000000000               0.000000000               0.000000000               0.000637398               0.004452990               0.000380264              -0.000317599               0.001590181               0.001272583               0.000000000               0.000000000               0.000000000               0.000000000               0.000749562               0.004586693               0.000339618              -0.000292250               0.001626299               0.001334049               0.000000000               0.000000000               0.000000000               0.000000000               0.000892193               0.004695047               0.000290825              -0.000252308               0.001649103               0.001396795               0.000000000               0.000000000               0.000000000               0.000000000               0.001075269               0.004780190               0.000226574              -0.000194297               0.001658147               0.001463849               0.000000000               0.000000000               0.000000000               0.000000000               0.001310863               0.004837451               0.000131794              -0.000113108               0.001650170               0.001537063               0.000000000               0.000000000               0.000000000               0.000000000               0.001504598               0.004878787               0.000078028              -0.000045624               0.001641454               0.001595830               0.000000000               0.000000000               0.000000000               0.000000000              -0.004542897              -0.000364767               0.000000000              -0.001657989               0.000431071              -0.001226918               0.000000000               0.000000000               0.000000000               0.000000000              -0.002462994               0.000096143               0.000000000              -0.000935640               0.000343925              -0.000591714               0.000000000               0.000000000               0.000000000               0.000000000              -0.000913526               0.000590489               0.000000000              -0.000416383               0.000335621              -0.000080761               0.000000000               0.000000000               0.000000000               0.000000000              -0.000196547               0.001279103              -0.000000000              -0.000233593               0.000504227               0.000270635               0.000000000               0.000000000               0.000000000               0.000000000               0.000147190               0.001933097               0.000000000              -0.000186441               0.000706506               0.000520065               0.000000000               0.000000000               0.000000000               0.000000000               0.000315704               0.002499781               0.000000000              -0.000194083               0.000897946               0.000703863               0.000000000               0.000000000               0.000000000               0.000000000               0.000398245               0.002979965              -0.000000000              -0.000223153               0.001067696               0.000844543               0.000000000               0.000000000               0.000000000               0.000000000               0.000448119               0.003384268              -0.000000000              -0.000254989               0.001213074               0.000958086               0.000000000               0.000000000               0.000000000               0.000000000               0.000493700               0.003714299              -0.000000000              -0.000279149               0.001331137               0.001051988               0.000000000               0.000000000               0.000000000               0.000000000               0.000544686               0.003979751              -0.000000000              -0.000293211               0.001424307               0.001131096               0.000000000               0.000000000               0.000000000               0.000000000               0.000608123               0.004198658               0.000000000              -0.000296785               0.001498467               0.001201682               0.000000000               0.000000000               0.000000000               0.000000000               0.000697407               0.004384713               0.000000000              -0.000286561               0.001557077               0.001270516               0.000000000               0.000000000               0.000000000               0.000000000               0.000815359               0.004539629              -0.000000000              -0.000261694               0.001600426               0.001338732               0.000000000               0.000000000               0.000000000               0.000000000               0.000973629               0.004664968              -0.000000000              -0.000218010               0.001627644               0.001409634               0.000000000               0.000000000               0.000000000               0.000000000               0.001183370               0.004764671               0.000000000              -0.000151820               0.001638814               0.001486995               0.000000000               0.000000000               0.000000000               0.000000000               0.001463825               0.004831627               0.000000000              -0.000055019               0.001628866               0.001573847               0.000000000               0.000000000               0.000000000               0.000000000               0.001703004               0.004881655              -0.000000000               0.000028419               0.001617729               0.001646148               0.000000000               0.000000000               0.000000000               0.000000000               0.001517998               0.016978118              -0.000000000              -0.001553012               0.006176987               0.004623975               0.000000000               0.000000000               0.000000000               0.000000000               0.001574774               0.013597594               0.000000000              -0.001109156               0.004902205               0.003793049               0.000000000               0.000000000               0.000000000               0.000000000               0.002131653               0.010864002              -0.000000000              -0.000558629               0.003807508               0.003248878               0.000000000               0.000000000               0.000000000               0.000000000               0.002129127               0.009342516               0.000000000              -0.000369391               0.003237271               0.002867880               0.000000000               0.000000000               0.000000000               0.000000000               0.001923683               0.008416142               0.000000000              -0.000330636               0.002915564               0.002584929               0.000000000               0.000000000               0.000000000               0.000000000               0.001650278               0.007819665               0.000000000              -0.000358603               0.002726063               0.002367460               0.000000000               0.000000000               0.000000000               0.000000000               0.001376783               0.007415787               0.000000000              -0.000410679               0.002608797               0.002198118               0.000000000               0.000000000               0.000000000               0.000000000               0.001129525               0.007119032              -0.000000000              -0.000466306               0.002528422               0.002062116               0.000000000               0.000000000               0.000000000               0.000000000               0.000913619               0.006883257              -0.000000000              -0.000517799               0.002466996               0.001949197               0.000000000               0.000000000               0.000000000               0.000000000               0.000726292               0.006681821               0.000000000              -0.000562867               0.002414873               0.001852007               0.000000000               0.000000000               0.000000000               0.000000000               0.000561190               0.006492615               0.000000000              -0.000601129               0.002364560               0.001763431               0.000000000               0.000000000               0.000000000               0.000000000               0.000411824               0.006307639               0.000000000              -0.000634019               0.002313865               0.001679846               0.000000000               0.000000000               0.000000000               0.000000000               0.000279783               0.006125923              -0.000000000              -0.000660820               0.002262227               0.001601407               0.000000000               0.000000000               0.000000000               0.000000000               0.000173347               0.005940275               0.000000000              -0.000677528               0.002205915               0.001528387               0.000000000               0.000000000               0.000000000               0.000000000               0.000093221               0.005733280               0.000000000              -0.000681700               0.002138308               0.001456607               0.000000000               0.000000000               0.000000000               0.000000000               0.000039803               0.005490676              -0.000000000              -0.000671407               0.002054009               0.001382602               0.000000000               0.000000000               0.000000000               0.000000000              -0.000000665               0.005298310               0.000000000              -0.000662536               0.001986931               0.001324395               0.000000000               0.000000000               0.000000000               0.000000000               0.001584253               0.016649983              -0.001206975              -0.001487150               0.006045655               0.004558506               0.000000000               0.000000000               0.000000000               0.000000000               0.001566254               0.013380112              -0.000678016              -0.001085166               0.004821715               0.003736549               0.000000000               0.000000000               0.000000000               0.000000000               0.002042120               0.010762796              -0.000143447              -0.000579553               0.003780747               0.003201194               0.000000000               0.000000000               0.000000000               0.000000000               0.002003498               0.009300985               0.000091377              -0.000411310               0.003237401               0.002826090               0.000000000               0.000000000               0.000000000               0.000000000               0.001788989               0.008407689               0.000197039              -0.000380089               0.002929231               0.002549142               0.000000000               0.000000000               0.000000000               0.000000000               0.001524057               0.007828722               0.000245158              -0.000407068               0.002745237               0.002338169               0.000000000               0.000000000               0.000000000               0.000000000               0.001261845               0.007429284               0.000260542              -0.000455468               0.002628226               0.002172758               0.000000000               0.000000000               0.000000000               0.000000000               0.001024477               0.007130919               0.000257810              -0.000507185               0.002546011               0.002038826               0.000000000               0.000000000               0.000000000               0.000000000               0.000818407               0.006891237               0.000248349              -0.000554501               0.002481890               0.001927389               0.000000000               0.000000000               0.000000000               0.000000000               0.000641776               0.006686356               0.000234184              -0.000595127               0.002427139               0.001832012               0.000000000               0.000000000               0.000000000               0.000000000               0.000488046               0.006500376               0.000217611              -0.000629528               0.002376613               0.001747085               0.000000000               0.000000000               0.000000000               0.000000000               0.000351344               0.006322971               0.000202632              -0.000658616               0.002327175               0.001668559               0.000000000               0.000000000               0.000000000               0.000000000               0.000235438               0.006147624               0.000186836              -0.000680162               0.002275908               0.001595746               0.000000000               0.000000000               0.000000000               0.000000000               0.000145355               0.005966294               0.000162807              -0.000691277               0.002219170               0.001527894               0.000000000               0.000000000               0.000000000               0.000000000               0.000077540               0.005770869               0.000128070              -0.000692279               0.002154364               0.001462084               0.000000000               0.000000000               0.000000000               0.000000000               0.000030709               0.005553550               0.000075736              -0.000682676               0.002078723               0.001396047               0.000000000               0.000000000               0.000000000               0.000000000              -0.000003808               0.005389935               0.000046454              -0.000675168               0.002021683               0.001346515               0.000000000               0.000000000               0.000000000               0.000000000               0.001765795               0.015714005              -0.002266920              -0.001302075               0.005671974               0.004369899               0.000000000               0.000000000               0.000000000               0.000000000               0.001537601               0.012759578              -0.001277422              -0.001018345               0.004592598               0.003574254               0.000000000               0.000000000               0.000000000               0.000000000               0.001784523               0.010469982              -0.000286500              -0.000639550               0.003703142               0.003063592               0.000000000               0.000000000               0.000000000               0.000000000               0.001654226               0.009176405               0.000137205              -0.000526714               0.003234342               0.002707628               0.000000000               0.000000000               0.000000000               0.000000000               0.001420622               0.008374720               0.000324959              -0.000514105               0.002962914               0.002448808               0.000000000               0.000000000               0.000000000               0.000000000               0.001172572               0.007838676               0.000406455              -0.000540119               0.002792905               0.002252787               0.000000000               0.000000000               0.000000000               0.000000000               0.000941483               0.007452877               0.000429972              -0.000578552               0.002677118               0.002098566               0.000000000               0.000000000               0.000000000               0.000000000               0.000740314               0.007154344               0.000423340              -0.000616674               0.002590315               0.001973642               0.000000000               0.000000000               0.000000000               0.000000000               0.000569407               0.006908617               0.000406000              -0.000650048               0.002519532               0.001869484               0.000000000               0.000000000               0.000000000               0.000000000               0.000427223               0.006700703               0.000383211              -0.000677378               0.002459338               0.001781960               0.000000000               0.000000000               0.000000000               0.000000000               0.000307132               0.006519039               0.000356283              -0.000699704               0.002406226               0.001706522               0.000000000               0.000000000               0.000000000               0.000000000               0.000203609               0.006349847               0.000327055              -0.000717376               0.002355720               0.001638344               0.000000000               0.000000000               0.000000000               0.000000000               0.000120108               0.006181072               0.000291571              -0.000727592               0.002302867               0.001575276               0.000000000               0.000000000               0.000000000               0.000000000               0.000060544               0.006011282               0.000245517              -0.000728704               0.002246642               0.001517938               0.000000000               0.000000000               0.000000000               0.000000000               0.000025042               0.005843388               0.000187277              -0.000721031               0.002188120               0.001467089               0.000000000               0.000000000               0.000000000               0.000000000               0.000007483               0.005677550               0.000107178              -0.000706886               0.002128127               0.001421241               0.000000000               0.000000000               0.000000000               0.000000000              -0.000009137               0.005566019               0.000064334              -0.000699177               0.002088380               0.001389203               0.000000000               0.000000000               0.000000000               0.000000000               0.001996991               0.014297461              -0.003061412              -0.001038310               0.005111876               0.004073565               0.000000000               0.000000000               0.000000000               0.000000000               0.001466137               0.011825742              -0.001739108              -0.000928415               0.004251346               0.003322931               0.000000000               0.000000000               0.000000000               0.000000000               0.001387857               0.010028431              -0.000430347              -0.000733106               0.003587146               0.002854040               0.000000000               0.000000000               0.000000000               0.000000000               0.001150350               0.008980947               0.000108263              -0.000691236               0.003224031               0.002532795               0.000000000               0.000000000               0.000000000               0.000000000               0.000904876               0.008301616               0.000340282              -0.000698372               0.002999968               0.002301597               0.000000000               0.000000000               0.000000000               0.000000000               0.000688820               0.007821505               0.000439278              -0.000719379               0.002846935               0.002127556               0.000000000               0.000000000               0.000000000               0.000000000               0.000509490               0.007455746               0.000469321              -0.000740908               0.002732193               0.001991285               0.000000000               0.000000000               0.000000000               0.000000000               0.000364477               0.007160212               0.000461737              -0.000758346               0.002639495               0.001881149               0.000000000               0.000000000               0.000000000               0.000000000               0.000247128               0.006913231               0.000441888              -0.000771479               0.002561547               0.001790068               0.000000000               0.000000000               0.000000000               0.000000000               0.000151380               0.006704684               0.000416949              -0.000781316               0.002495311               0.001713995               0.000000000               0.000000000               0.000000000               0.000000000               0.000076811               0.006520482               0.000386140              -0.000786254               0.002435557               0.001649303               0.000000000               0.000000000               0.000000000               0.000000000               0.000018436               0.006347341               0.000349122              -0.000786502               0.002377927               0.001591425               0.000000000               0.000000000               0.000000000               0.000000000              -0.000023310               0.006182682               0.000304688              -0.000781575               0.002321398               0.001539824               0.000000000               0.000000000               0.000000000               0.000000000              -0.000043824               0.006031821               0.000251596              -0.000770410               0.002267390               0.001496980               0.000000000               0.000000000               0.000000000               0.000000000              -0.000044374               0.005896516               0.000187217              -0.000753703               0.002216720               0.001463017               0.000000000               0.000000000               0.000000000               0.000000000              -0.000027548               0.005780704               0.000104582              -0.000732917               0.002171188               0.001438271               0.000000000               0.000000000               0.000000000               0.000000000              -0.000022952               0.005712008               0.000061571              -0.000722606               0.002144852               0.001422246               0.000000000               0.000000000               0.000000000               0.000000000               0.002178821               0.012569309              -0.003527140              -0.000754107               0.004441096               0.003686989               0.000000000               0.000000000               0.000000000               0.000000000               0.001323989               0.010703848              -0.002036931              -0.000841484               0.003848408               0.003006924               0.000000000               0.000000000               0.000000000               0.000000000               0.000899884               0.009498537              -0.000578396              -0.000849859               0.003449433               0.002599575               0.000000000               0.000000000               0.000000000               0.000000000               0.000575677               0.008723973              -0.000004009              -0.000874616               0.003199500               0.002324885               0.000000000               0.000000000               0.000000000               0.000000000               0.000345916               0.008173747               0.000238237              -0.000891998               0.003021888               0.002129890               0.000000000               0.000000000               0.000000000               0.000000000               0.000186417               0.007752228               0.000342952              -0.000899120               0.002883757               0.001984637               0.000000000               0.000000000               0.000000000               0.000000000               0.000073607               0.007405605               0.000377883              -0.000898096               0.002767876               0.001869780               0.000000000               0.000000000               0.000000000               0.000000000              -0.000006252               0.007114165               0.000375959              -0.000891613               0.002668569               0.001776956               0.000000000               0.000000000               0.000000000               0.000000000              -0.000062749               0.006868977               0.000363960              -0.000882151               0.002583686               0.001701535               0.000000000               0.000000000               0.000000000               0.000000000              -0.000101132               0.006656183               0.000347708              -0.000869945               0.002508687               0.001638742               0.000000000               0.000000000               0.000000000               0.000000000              -0.000121057               0.006464031               0.000322527              -0.000853398               0.002439122               0.001585723               0.000000000               0.000000000               0.000000000               0.000000000              -0.000128089               0.006286425               0.000291084              -0.000833834               0.002373399               0.001539564               0.000000000               0.000000000               0.000000000               0.000000000              -0.000124349               0.006128494               0.000254722              -0.000812691               0.002313708               0.001501017               0.000000000               0.000000000               0.000000000               0.000000000              -0.000106972               0.005994338               0.000210017              -0.000789405               0.002261227               0.001471823               0.000000000               0.000000000               0.000000000               0.000000000              -0.000076364               0.005886204               0.000153519              -0.000764410               0.002216852               0.001452442               0.000000000               0.000000000               0.000000000               0.000000000              -0.000040068               0.005805246               0.000082982              -0.000740680               0.002181956               0.001441276               0.000000000               0.000000000               0.000000000               0.000000000              -0.000025209               0.005766542               0.000046034              -0.000730269               0.002165584               0.001435315               0.000000000               0.000000000               0.000000000               0.000000000               0.002216404               0.010694877              -0.003662098              -0.000505711               0.003733492               0.003227782               0.000000000               0.000000000               0.000000000               0.000000000               0.001091954               0.009512510              -0.002183348              -0.000779581               0.003430665               0.002651084               0.000000000               0.000000000               0.000000000               0.000000000               0.000373682               0.008929185              -0.000745009              -0.000976015               0.003301704               0.002325688               0.000000000               0.000000000               0.000000000               0.000000000               0.000019060               0.008410802              -0.000196282              -0.001044200               0.003151639               0.002107439               0.000000000               0.000000000               0.000000000               0.000000000              -0.000159201               0.007977034               0.000035690              -0.001056827               0.003011260               0.001954433               0.000000000               0.000000000               0.000000000               0.000000000              -0.000245178               0.007605089               0.000141470              -0.001042575               0.002882529               0.001839954               0.000000000               0.000000000               0.000000000               0.000000000              -0.000283756               0.007279390               0.000187037              -0.001016330               0.002765216               0.001748886               0.000000000               0.000000000               0.000000000               0.000000000              -0.000293156               0.006997259               0.000203554              -0.000984588               0.002660592               0.001676004               0.000000000               0.000000000               0.000000000               0.000000000              -0.000286597               0.006750707               0.000211021              -0.000951310               0.002567317               0.001616007               0.000000000               0.000000000               0.000000000               0.000000000              -0.000270183               0.006529502               0.000211982              -0.000917504               0.002482314               0.001564809               0.000000000               0.000000000               0.000000000               0.000000000              -0.000238020               0.006330555               0.000201380              -0.000880575               0.002403689               0.001523114               0.000000000               0.000000000               0.000000000               0.000000000              -0.000197846               0.006152410               0.000184006              -0.000843241               0.002331863               0.001488622               0.000000000               0.000000000               0.000000000               0.000000000              -0.000155583               0.005997432               0.000161938              -0.000808021               0.002268464               0.001460444               0.000000000               0.000000000               0.000000000               0.000000000              -0.000112035               0.005866971               0.000130696              -0.000775382               0.002214098               0.001438716               0.000000000               0.000000000               0.000000000               0.000000000              -0.000070120               0.005760833               0.000088126              -0.000746397               0.002169057               0.001422660               0.000000000               0.000000000               0.000000000               0.000000000              -0.000031413               0.005685070               0.000041541              -0.000722412               0.002135808               0.001413396               0.000000000               0.000000000               0.000000000               0.000000000              -0.000016683               0.005650429               0.000021394              -0.000712558               0.002120977               0.001408419               0.000000000               0.000000000               0.000000000               0.000000000               0.002060635               0.008815326              -0.003512485              -0.000329181               0.003048138               0.002718957               0.000000000               0.000000000               0.000000000               0.000000000               0.000785485               0.008339773              -0.002214628              -0.000747915               0.003029201               0.002281286               0.000000000               0.000000000               0.000000000               0.000000000              -0.000127232               0.008342322              -0.000942853              -0.001090500               0.003144246               0.002053746               0.000000000               0.000000000               0.000000000               0.000000000              -0.000448991               0.008040725              -0.000455083              -0.001173459               0.003071368               0.001897908               0.000000000               0.000000000               0.000000000               0.000000000              -0.000545592               0.007701979              -0.000232865              -0.001167341               0.002956414               0.001789073               0.000000000               0.000000000               0.000000000               0.000000000              -0.000549126               0.007377952              -0.000114066              -0.001128163               0.002835347               0.001707184               0.000000000               0.000000000               0.000000000               0.000000000              -0.000513911               0.007078629              -0.000043290              -0.001077542               0.002718700               0.001641158               0.000000000               0.000000000               0.000000000               0.000000000              -0.000466513               0.006804343               0.000001279              -0.001025483               0.002609919               0.001584436               0.000000000               0.000000000               0.000000000               0.000000000              -0.000410147               0.006559068               0.000033462              -0.000973686               0.002510896               0.001537210               0.000000000               0.000000000               0.000000000               0.000000000              -0.000347061               0.006338119               0.000056357              -0.000922411               0.002420155               0.001497745               0.000000000               0.000000000               0.000000000               0.000000000              -0.000276474               0.006137714               0.000064514              -0.000870890               0.002336181               0.001465291               0.000000000               0.000000000               0.000000000               0.000000000              -0.000207100               0.005956740               0.000063691              -0.000822253               0.002259645               0.001437392               0.000000000               0.000000000               0.000000000               0.000000000              -0.000148125               0.005795507               0.000058235              -0.000779983               0.002191811               0.001411827               0.000000000               0.000000000               0.000000000               0.000000000              -0.000097622               0.005656314               0.000043942              -0.000743645               0.002133301               0.001389655               0.000000000               0.000000000               0.000000000               0.000000000              -0.000053203               0.005541431               0.000024022              -0.000712628               0.002084668               0.001372040               0.000000000               0.000000000               0.000000000               0.000000000              -0.000018957               0.005453434               0.000008242              -0.000688786               0.002047388               0.001358602               0.000000000               0.000000000               0.000000000               0.000000000              -0.000012533               0.005403499               0.000006743              -0.000680136               0.002027860               0.001347725               0.000000000               0.000000000               0.000000000               0.000000000               0.001728876               0.007045048              -0.003143653              -0.000232306               0.002425760               0.002193454               0.000000000               0.000000000               0.000000000               0.000000000               0.000433129               0.007244543              -0.002168387              -0.000743144               0.002662538               0.001919393               0.000000000               0.000000000               0.000000000               0.000000000              -0.000542879               0.007736906              -0.001172573              -0.001170690               0.002969173               0.001798482               0.000000000               0.000000000               0.000000000               0.000000000              -0.000779559               0.007613465              -0.000746131              -0.001244015               0.002952468               0.001708453               0.000000000               0.000000000               0.000000000               0.000000000              -0.000782438               0.007364340              -0.000513996              -0.001213954               0.002859407               0.001645453               0.000000000               0.000000000               0.000000000               0.000000000              -0.000709600               0.007089188              -0.000366231              -0.001152246               0.002747121               0.001594875               0.000000000               0.000000000               0.000000000               0.000000000              -0.000617788               0.006814212              -0.000264520              -0.001083444               0.002632529               0.001549085               0.000000000               0.000000000               0.000000000               0.000000000              -0.000528513               0.006552413              -0.000188603              -0.001017241               0.002523196               0.001505955               0.000000000               0.000000000               0.000000000               0.000000000              -0.000438132               0.006317436              -0.000127651              -0.000953977               0.002423783               0.001469806               0.000000000               0.000000000               0.000000000               0.000000000              -0.000346223               0.006101419              -0.000082021              -0.000892509               0.002331289               0.001438780               0.000000000               0.000000000               0.000000000               0.000000000              -0.000262163               0.005896857              -0.000053536              -0.000835416               0.002244071               0.001408655               0.000000000               0.000000000               0.000000000               0.000000000              -0.000189585               0.005710680              -0.000036264              -0.000784927               0.002165183               0.001380256               0.000000000               0.000000000               0.000000000               0.000000000              -0.000126915               0.005546323              -0.000022453              -0.000740881               0.002095716               0.001354835               0.000000000               0.000000000               0.000000000               0.000000000              -0.000076909               0.005404100              -0.000013936              -0.000704352               0.002036133               0.001331781               0.000000000               0.000000000               0.000000000               0.000000000              -0.000039489               0.005287580              -0.000010595              -0.000675754               0.001987761               0.001312006               0.000000000               0.000000000               0.000000000               0.000000000              -0.000014188               0.005194229              -0.000005685              -0.000654598               0.001949592               0.001294994               0.000000000               0.000000000               0.000000000               0.000000000              -0.000012296               0.005139391               0.000002280              -0.000647033               0.001928791               0.001281758               0.000000000               0.000000000               0.000000000               0.000000000               0.001296892               0.005521740              -0.002642465              -0.000203886               0.001908522               0.001704637               0.000000000               0.000000000               0.000000000               0.000000000               0.000105648               0.006256154              -0.002090015              -0.000742401               0.002332830               0.001590429               0.000000000               0.000000000               0.000000000               0.000000000              -0.000831270               0.007147003              -0.001439391              -0.001205099               0.002784010               0.001578911               0.000000000               0.000000000               0.000000000               0.000000000              -0.000969922               0.007211615              -0.001053046              -0.001265170               0.002825571               0.001560401               0.000000000               0.000000000               0.000000000               0.000000000              -0.000900066               0.007063277              -0.000797758              -0.001220432               0.002761213               0.001540781               0.000000000               0.000000000               0.000000000               0.000000000              -0.000772477               0.006841420              -0.000617011              -0.001144854               0.002662068               0.001517215               0.000000000               0.000000000               0.000000000               0.000000000              -0.000638806               0.006596734              -0.000481925              -0.001064141               0.002553603               0.001489462               0.000000000               0.000000000               0.000000000               0.000000000              -0.000516928               0.006361200              -0.000374066              -0.000988996               0.002450044               0.001461048               0.000000000               0.000000000               0.000000000               0.000000000              -0.000407570               0.006142122              -0.000284504              -0.000920602               0.002354221               0.001433619               0.000000000               0.000000000               0.000000000               0.000000000              -0.000305766               0.005926485              -0.000215417              -0.000855471               0.002260632               0.001405161               0.000000000               0.000000000               0.000000000               0.000000000              -0.000222256               0.005715583              -0.000164160              -0.000797792               0.002171106               0.001373314               0.000000000               0.000000000               0.000000000               0.000000000              -0.000155030               0.005525972              -0.000123722              -0.000748881               0.002091599               0.001342718               0.000000000               0.000000000               0.000000000               0.000000000              -0.000098504               0.005361888              -0.000087685              -0.000707173               0.002023003               0.001315829               0.000000000               0.000000000               0.000000000               0.000000000              -0.000058473               0.005221433              -0.000056492              -0.000674605               0.001965329               0.001290724               0.000000000               0.000000000               0.000000000               0.000000000              -0.000039820               0.005104517              -0.000032046              -0.000652996               0.001919154               0.001266158               0.000000000               0.000000000               0.000000000               0.000000000              -0.000038774               0.005012448              -0.000013777              -0.000641095               0.001884498               0.001243403               0.000000000               0.000000000               0.000000000               0.000000000              -0.000044312               0.004964645              -0.000003559              -0.000637196               0.001867264               0.001230068               0.000000000               0.000000000               0.000000000               0.000000000               0.000745921               0.004083230              -0.002092565              -0.000230685               0.001437957               0.001207272               0.000000000               0.000000000               0.000000000               0.000000000              -0.000142547               0.005115785              -0.001993359              -0.000692928               0.001936220               0.001243292               0.000000000               0.000000000               0.000000000               0.000000000              -0.000946316               0.006295522              -0.001728714              -0.001141807               0.002479088               0.001337281               0.000000000               0.000000000               0.000000000               0.000000000              -0.001040014               0.006608720              -0.001396228              -0.001216093               0.002608249               0.001392156               0.000000000               0.000000000               0.000000000               0.000000000              -0.000945460               0.006621886              -0.001123501              -0.001182281               0.002601367               0.001419086               0.000000000               0.000000000               0.000000000               0.000000000              -0.000802600               0.006510001              -0.000910296              -0.001114723               0.002541553               0.001426830               0.000000000               0.000000000               0.000000000               0.000000000              -0.000656641               0.006347262              -0.000739341              -0.001039646               0.002462281               0.001422635               0.000000000               0.000000000               0.000000000               0.000000000              -0.000522094               0.006176116              -0.000596203              -0.000967798               0.002381284               0.001413486               0.000000000               0.000000000               0.000000000               0.000000000              -0.000408708               0.006001288              -0.000478178              -0.000903424               0.002301551               0.001398126               0.000000000               0.000000000               0.000000000               0.000000000              -0.000311419               0.005817833              -0.000381154              -0.000844009               0.002220595               0.001376586               0.000000000               0.000000000               0.000000000               0.000000000              -0.000228720               0.005632133              -0.000299530              -0.000789785               0.002140620               0.001350836               0.000000000               0.000000000               0.000000000               0.000000000              -0.000165792               0.005453683              -0.000231757              -0.000743880               0.002065836               0.001321956               0.000000000               0.000000000               0.000000000               0.000000000              -0.000116461               0.005294829              -0.000170297              -0.000705525               0.002000100               0.001294576               0.000000000               0.000000000               0.000000000               0.000000000              -0.000082408               0.005158927              -0.000112415              -0.000675767               0.001944881               0.001269114               0.000000000               0.000000000               0.000000000               0.000000000              -0.000071004               0.005042597              -0.000060370              -0.000656950               0.001899832               0.001242883               0.000000000               0.000000000               0.000000000               0.000000000              -0.000081839               0.004946768              -0.000020702              -0.000649034               0.001865251               0.001216217               0.000000000               0.000000000               0.000000000               0.000000000              -0.000094705               0.004900004              -0.000004112              -0.000648013               0.001849323               0.001201309               0.000000000               0.000000000               0.000000000               0.000000000              -0.000017106               0.002764881              -0.001519648              -0.000352026               0.001038959               0.000686933               0.000000000               0.000000000               0.000000000               0.000000000              -0.000430258               0.003979006              -0.001834214              -0.000658722               0.001545895               0.000887173               0.000000000               0.000000000               0.000000000               0.000000000              -0.000979459               0.005330317              -0.001951401              -0.001033585               0.002121282               0.001087697               0.000000000               0.000000000               0.000000000               0.000000000              -0.001031763               0.005872918              -0.001722878              -0.001121024               0.002331294               0.001210270               0.000000000               0.000000000               0.000000000               0.000000000              -0.000932771               0.006073047              -0.001462241              -0.001108918               0.002393968               0.001285050               0.000000000               0.000000000               0.000000000               0.000000000              -0.000792330               0.006104070              -0.001230071              -0.001060130               0.002388046               0.001327916               0.000000000               0.000000000               0.000000000               0.000000000              -0.000649304               0.006053023              -0.001031147              -0.001000115               0.002351026               0.001350911               0.000000000               0.000000000               0.000000000               0.000000000              -0.000513787               0.005963311              -0.000860541              -0.000938082               0.002300444               0.001362363               0.000000000               0.000000000               0.000000000               0.000000000              -0.000396286               0.005851331              -0.000716073              -0.000880022               0.002243765               0.001363743               0.000000000               0.000000000               0.000000000               0.000000000              -0.000302231               0.005720824              -0.000592980              -0.000828438               0.002183068               0.001354630               0.000000000               0.000000000               0.000000000               0.000000000              -0.000222620               0.005575647              -0.000485064              -0.000780437               0.002118676               0.001338239               0.000000000               0.000000000               0.000000000               0.000000000              -0.000159300               0.005420246              -0.000389949              -0.000737266               0.002052486               0.001315220               0.000000000               0.000000000               0.000000000               0.000000000              -0.000114027               0.005275351              -0.000301061              -0.000702177               0.001992492               0.001290314               0.000000000               0.000000000               0.000000000               0.000000000              -0.000083890               0.005150976              -0.000212874              -0.000675329               0.001942084               0.001266756               0.000000000               0.000000000               0.000000000               0.000000000              -0.000075631               0.005038775              -0.000127288              -0.000658207               0.001898977               0.001240770               0.000000000               0.000000000               0.000000000               0.000000000              -0.000092554               0.004946013              -0.000053612              -0.000652958               0.001866307               0.001213349               0.000000000               0.000000000               0.000000000               0.000000000              -0.000115700               0.004900382              -0.000018652              -0.000655934               0.001852089               0.001196155               0.000000000               0.000000000               0.000000000               0.000000000              -0.000945512               0.001653436              -0.000955730              -0.000561246               0.000738221               0.000176975               0.000000000               0.000000000               0.000000000               0.000000000              -0.000806950               0.002902973              -0.001586198              -0.000665477               0.001189473               0.000523996               0.000000000               0.000000000               0.000000000               0.000000000              -0.000974534               0.004255494              -0.002021276              -0.000897386               0.001717611               0.000820226               0.000000000               0.000000000               0.000000000               0.000000000              -0.000933679               0.004963205              -0.001927043              -0.000970529               0.001977894               0.001007365               0.000000000               0.000000000               0.000000000               0.000000000              -0.000825808               0.005339142              -0.001712269              -0.000977069               0.002105385               0.001128316               0.000000000               0.000000000               0.000000000               0.000000000              -0.000697923               0.005521794              -0.001488142              -0.000951944               0.002157894               0.001205950               0.000000000               0.000000000               0.000000000               0.000000000              -0.000566743               0.005598024              -0.001281240              -0.000912280               0.002170082               0.001257803               0.000000000               0.000000000               0.000000000               0.000000000              -0.000441210               0.005612969              -0.001097305              -0.000867073               0.002159995               0.001292922               0.000000000               0.000000000               0.000000000               0.000000000              -0.000328317               0.005584122              -0.000938391              -0.000821132               0.002135066               0.001313934               0.000000000               0.000000000               0.000000000               0.000000000              -0.000232960               0.005521500              -0.000801314              -0.000777546               0.002099663               0.001322118               0.000000000               0.000000000               0.000000000               0.000000000              -0.000154339               0.005430554              -0.000679482              -0.000736695               0.002055731               0.001319037               0.000000000               0.000000000               0.000000000               0.000000000              -0.000090444               0.005320315              -0.000564761              -0.000698954               0.002006405               0.001307451               0.000000000               0.000000000               0.000000000               0.000000000              -0.000043999               0.005212677              -0.000451697              -0.000668083               0.001960236               0.001292153               0.000000000               0.000000000               0.000000000               0.000000000              -0.000016584               0.005113162              -0.000338224              -0.000645363               0.001919491               0.001274128               0.000000000               0.000000000               0.000000000               0.000000000              -0.000011685               0.005019380              -0.000222562              -0.000631803               0.001883711               0.001251908               0.000000000               0.000000000               0.000000000               0.000000000              -0.000033816               0.004941727              -0.000107778              -0.000630395               0.001857358               0.001226962               0.000000000               0.000000000               0.000000000               0.000000000              -0.000067421               0.004899248              -0.000046741              -0.000637687               0.001845629               0.001207941               0.000000000               0.000000000               0.000000000               0.000000000              -0.001963255               0.000799187              -0.000465797              -0.000836118               0.000545098              -0.000291020               0.000000000               0.000000000               0.000000000               0.000000000              -0.001241279               0.001936165              -0.001273357              -0.000707499               0.000881214               0.000173715               0.000000000               0.000000000               0.000000000               0.000000000              -0.000950874               0.003154640              -0.001913154              -0.000750907               0.001301838               0.000550930               0.000000000               0.000000000               0.000000000               0.000000000              -0.000768326               0.003948423              -0.001945862              -0.000781675               0.001576685               0.000795011               0.000000000               0.000000000               0.000000000               0.000000000              -0.000630962               0.004463138              -0.001798860              -0.000794502               0.001752531               0.000958029               0.000000000               0.000000000               0.000000000               0.000000000              -0.000511094               0.004789704              -0.001610322              -0.000790372               0.001860009               0.001069637               0.000000000               0.000000000               0.000000000               0.000000000              -0.000396615               0.004993423              -0.001420545              -0.000772908               0.001922093               0.001149186               0.000000000               0.000000000               0.000000000               0.000000000              -0.000287923               0.005120065              -0.001242436              -0.000747978               0.001955997               0.001208019               0.000000000               0.000000000               0.000000000               0.000000000              -0.000184037               0.005187011              -0.001086247              -0.000717389               0.001968116               0.001250727               0.000000000               0.000000000               0.000000000               0.000000000              -0.000088798               0.005201983              -0.000951119              -0.000683546               0.001961826               0.001278280               0.000000000               0.000000000               0.000000000               0.000000000              -0.000008342               0.005179716              -0.000828270              -0.000650591               0.001943418               0.001292827               0.000000000               0.000000000               0.000000000               0.000000000               0.000059280               0.005136991              -0.000707809              -0.000619892               0.001918944               0.001299052               0.000000000               0.000000000               0.000000000               0.000000000               0.000114135               0.005082231              -0.000584920              -0.000592477               0.001891552               0.001299075               0.000000000               0.000000000               0.000000000               0.000000000               0.000153950               0.005026347              -0.000456635              -0.000570561               0.001865619               0.001295058               0.000000000               0.000000000               0.000000000               0.000000000               0.000171676               0.004973610              -0.000318862              -0.000557322               0.001843627               0.001286306               0.000000000               0.000000000               0.000000000               0.000000000               0.000157193               0.004923678              -0.000166902              -0.000556511               0.001826713               0.001270202               0.000000000               0.000000000               0.000000000               0.000000000               0.000124971               0.004890842              -0.000081843              -0.000564489               0.001818427               0.001253938               0.000000000               0.000000000               0.000000000               0.000000000              -0.002954625               0.000208782              -0.000114733              -0.001134081               0.000447618              -0.000686463               0.000000000               0.000000000               0.000000000               0.000000000              -0.001684629               0.001138266              -0.000929958              -0.000774018               0.000637423              -0.000136595               0.000000000               0.000000000               0.000000000               0.000000000              -0.000924158               0.002134218              -0.001621012              -0.000613336               0.000915843               0.000302507               0.000000000               0.000000000               0.000000000               0.000000000              -0.000568247               0.002937873              -0.001738414              -0.000580327               0.001172723               0.000592396               0.000000000               0.000000000               0.000000000               0.000000000              -0.000374654               0.003543335              -0.001662231              -0.000583412               0.001375570               0.000792158               0.000000000               0.000000000               0.000000000               0.000000000              -0.000249903               0.003985311              -0.001525389              -0.000591877               0.001525715               0.000933838               0.000000000               0.000000000               0.000000000               0.000000000              -0.000152664               0.004299917              -0.001372710              -0.000594738               0.001631537               0.001036799               0.000000000               0.000000000               0.000000000               0.000000000              -0.000060886               0.004529155              -0.001224108              -0.000588976               0.001706028               0.001117052               0.000000000               0.000000000               0.000000000               0.000000000               0.000027225               0.004691847              -0.001091968              -0.000576271               0.001756023               0.001179753               0.000000000               0.000000000               0.000000000               0.000000000               0.000112162               0.004797810              -0.000973646              -0.000557665               0.001785142               0.001227477               0.000000000               0.000000000               0.000000000               0.000000000               0.000190626               0.004858047              -0.000863757              -0.000535770               0.001797923               0.001262153               0.000000000               0.000000000               0.000000000               0.000000000               0.000263653               0.004889061              -0.000755917              -0.000512262               0.001800424               0.001288163               0.000000000               0.000000000               0.000000000               0.000000000               0.000335647               0.004902346              -0.000644483              -0.000486925               0.001796407               0.001309482               0.000000000               0.000000000               0.000000000               0.000000000               0.000405391               0.004905635              -0.000523689              -0.000461182               0.001788923               0.001327741               0.000000000               0.000000000               0.000000000               0.000000000               0.000464487               0.004901983              -0.000382151              -0.000438564               0.001780166               0.001341602               0.000000000               0.000000000               0.000000000               0.000000000               0.000497744               0.004890572              -0.000208382              -0.000424667               0.001771730               0.001347063               0.000000000               0.000000000               0.000000000               0.000000000               0.000500611               0.004878478              -0.000109901              -0.000422079               0.001766836               0.001344757               0.000000000               0.000000000               0.000000000               0.000000000              -0.003789707              -0.000145595               0.000063315              -0.001402940               0.000419112              -0.000983828               0.000000000               0.000000000               0.000000000               0.000000000              -0.002079196               0.000555332              -0.000591407              -0.000849114               0.000468145              -0.000380969               0.000000000               0.000000000               0.000000000               0.000000000              -0.000908491               0.001309423              -0.001170295              -0.000504362               0.000604589               0.000100228               0.000000000               0.000000000               0.000000000               0.000000000              -0.000378115               0.002072743              -0.001307880              -0.000400886               0.000824535               0.000423650               0.000000000               0.000000000               0.000000000               0.000000000              -0.000116462               0.002717265              -0.001282980              -0.000383331               0.001033523               0.000650191               0.000000000               0.000000000               0.000000000               0.000000000               0.000022485               0.003233375              -0.001197442              -0.000395740               0.001209694               0.000813954               0.000000000               0.000000000               0.000000000               0.000000000               0.000111712               0.003638173              -0.001094597              -0.000412879               0.001350338               0.000937459               0.000000000               0.000000000               0.000000000               0.000000000               0.000187386               0.003956481              -0.000991031              -0.000424290               0.001460243               0.001035954               0.000000000               0.000000000               0.000000000               0.000000000               0.000255437               0.004202997              -0.000895931              -0.000429585               0.001544180               0.001114595               0.000000000               0.000000000               0.000000000               0.000000000               0.000321324               0.004391135              -0.000810733              -0.000428395               0.001606495               0.001178100               0.000000000               0.000000000               0.000000000               0.000000000               0.000394435               0.004532266              -0.000730330              -0.000418619               0.001650280               0.001231661               0.000000000               0.000000000               0.000000000               0.000000000               0.000475255               0.004637711              -0.000652295              -0.000401493               0.001679719               0.001278226               0.000000000               0.000000000               0.000000000               0.000000000               0.000570853               0.004721528              -0.000572298              -0.000376120               0.001699200               0.001323080               0.000000000               0.000000000               0.000000000               0.000000000               0.000679052               0.004785689              -0.000480574              -0.000343566               0.001709735               0.001366170               0.000000000               0.000000000               0.000000000               0.000000000               0.000799990               0.004830035              -0.000363690              -0.000303757               0.001711248               0.001407491               0.000000000               0.000000000               0.000000000               0.000000000               0.000930572               0.004858271              -0.000204853              -0.000258319               0.001705514               0.001447195               0.000000000               0.000000000               0.000000000               0.000000000               0.001021115               0.004875701              -0.000114584              -0.000226544               0.001700732               0.001474188               0.000000000               0.000000000               0.000000000               0.000000000              -0.004346963              -0.000317515               0.000081141              -0.001590421               0.000424299              -0.001166122               0.000000000               0.000000000               0.000000000               0.000000000              -0.002359440               0.000209232              -0.000281622              -0.000910943               0.000373389              -0.000537554               0.000000000               0.000000000               0.000000000               0.000000000              -0.000909018               0.000776161              -0.000610466              -0.000437901               0.000404684              -0.000033217               0.000000000               0.000000000               0.000000000               0.000000000              -0.000244081               0.001487485              -0.000700589              -0.000277466               0.000588312               0.000310846               0.000000000               0.000000000               0.000000000               0.000000000               0.000075173               0.002139564              -0.000697902              -0.000239256               0.000792933               0.000553677               0.000000000               0.000000000               0.000000000               0.000000000               0.000233421               0.002694688              -0.000658959              -0.000249303               0.000981321               0.000732018               0.000000000               0.000000000               0.000000000               0.000000000               0.000319736               0.003158160              -0.000608350              -0.000274869               0.001144332               0.000869463               0.000000000               0.000000000               0.000000000               0.000000000               0.000377246               0.003537960              -0.000554175              -0.000300777               0.001279567               0.000978790               0.000000000               0.000000000               0.000000000               0.000000000               0.000428750               0.003843713              -0.000503908              -0.000319682               0.001387786               0.001068103               0.000000000               0.000000000               0.000000000               0.000000000               0.000483398               0.004090585              -0.000460803              -0.000330048               0.001473531               0.001143482               0.000000000               0.000000000               0.000000000               0.000000000               0.000550460               0.004290389              -0.000419687              -0.000329875               0.001540074               0.001210199               0.000000000               0.000000000               0.000000000               0.000000000               0.000637398               0.004452990              -0.000380264              -0.000317599               0.001590181               0.001272583               0.000000000               0.000000000               0.000000000               0.000000000               0.000749562               0.004586693              -0.000339618              -0.000292250               0.001626299               0.001334049               0.000000000               0.000000000               0.000000000               0.000000000               0.000892193               0.004695047              -0.000290825              -0.000252308               0.001649103               0.001396795               0.000000000               0.000000000               0.000000000               0.000000000               0.001075269               0.004780190              -0.000226574              -0.000194297               0.001658147               0.001463849               0.000000000               0.000000000               0.000000000               0.000000000               0.001310863               0.004837451              -0.000131794              -0.000113108               0.001650170               0.001537063               0.000000000               0.000000000               0.000000000               0.000000000               0.001504598               0.004878787              -0.000078028              -0.000045624               0.001641454               0.001595830               0.000000000               0.000000000               0.000000000               0.000000000               0.000000000               0.000000000               0.000000000               0.000000000               0.000000000               0.000000000               0.000000000               0.000000000               0.000000000               0.000000000               0.000000000               0.000000000               0.000000000               0.000000000               0.000000000               0.000000000               0.000000000               0.000000000               0.000000000               0.000000000               0.000000000               0.000000000               0.000000000               0.000000000               0.000000000               0.000000000               0.000000000               0.000000000               0.000000000               0.000000000               0.000000000               0.000000000               0.000000000               0.000000000               0.000000000               0.000000000               0.000000000               0.000000000               0.000000000               0.000000000               0.000000000               0.000000000               0.000000000               0.000000000               0.000000000               0.000000000               0.000000000               0.000000000               0.000000000               0.000000000               0.000000000               0.000000000               0.000000000               0.000000000               0.000000000               0.000000000               0.000000000               0.000000000               0.000000000               0.000000000               0.000000000               0.000000000               0.000000000               0.000000000               0.000000000               0.000000000               0.000000000               0.000000000               0.000000000               0.000000000               0.000000000               0.000000000               0.000000000               0.000000000               0.000000000               0.000000000               0.000000000               0.000000000               0.000000000               0.000000000               0.000000000               0.000000000               0.000000000               0.000000000               0.000000000               0.000000000               0.000000000               0.000000000               0.000000000               0.000000000               0.000000000               0.000000000               0.000000000               0.000000000               0.000000000               0.000000000               0.000000000               0.000000000               0.000000000               0.000000000               0.000000000               0.000000000               0.000000000               0.000000000               0.000000000               0.000000000               0.000000000               0.000000000               0.000000000               0.000000000               0.000000000               0.000000000               0.000000000               0.000000000               0.000000000               0.000000000               0.000000000               0.000000000               0.000000000               0.000000000               0.000000000               0.000000000               0.000000000               0.000000000               0.000000000               0.000000000               0.000000000               0.000000000               0.000000000               0.000000000               0.000000000               0.000000000               0.000000000               0.000000000               0.000000000               0.000000000               0.000000000               0.000000000               0.000000000               0.000000000               0.000000000               0.000000000               0.000000000               0.000000000               0.000000000               0.000000000               0.000000000               0.000000000               0.000000000               0.000000000               0.000000000               0.000000000               0.000000000               0.000000000               0.000000000               0.000000000               0.000000000               0.000000000               0.000000000               0.000000000               0.000000000               0.000000000               0.000000000               0.000000000               0.000000000               0.000000000               0.000000000               0.000000000               0.000000000               0.000000000               0.000000000               0.000000000               0.000000000               0.000000000               0.000000000               0.000000000               0.000000000               0.000000000               0.000000000               0.000000000               0.000000000               0.000000000               0.000000000               0.000000000               0.000000000               0.000000000               0.000000000               0.000000000               0.000000000               0.000000000               0.000000000               0.000000000               0.000000000               0.000000000               0.000000000               0.000000000               0.000000000               0.000000000               0.000000000               0.000000000               0.000000000               0.000000000               0.000000000               0.000000000               0.000000000               0.000000000               0.000000000               0.000000000               0.000000000               0.000000000               0.000000000               0.000000000               0.000000000               0.000000000               0.000000000               0.000000000               0.000000000               0.000000000               0.000000000               0.000000000               0.000000000               0.000000000               0.000000000               0.000000000               0.000000000               0.000000000               0.000000000               0.000000000               0.000000000               0.000000000               0.000000000               0.000000000               0.000000000               0.000000000               0.000000000               0.000000000               0.000000000               0.000000000               0.000000000               0.000000000               0.000000000               0.000000000               0.000000000               0.000000000               0.000000000               0.000000000               0.000000000               0.000000000               0.000000000               0.000000000               0.000000000               0.000000000               0.000000000               0.000000000               0.000000000               0.000000000               0.000000000               0.000000000               0.000000000               0.000000000               0.000000000               0.000000000               0.000000000               0.000000000               0.000000000               0.000000000               0.000000000               0.000000000               0.000000000               0.000000000               0.000000000               0.000000000               0.000000000               0.000000000               0.000000000               0.000000000               0.000000000               0.000000000               0.000000000               0.000000000               0.000000000               0.000000000               0.000000000               0.000000000               0.000000000               0.000000000               0.000000000               0.000000000               0.000000000               0.000000000               0.000000000               0.000000000               0.000000000               0.000000000               0.000000000               0.000000000               0.000000000               0.000000000               0.000000000               0.000000000               0.000000000               0.000000000               0.000000000               0.000000000               0.000000000               0.000000000               0.000000000               0.000000000               0.000000000               0.000000000               0.000000000               0.000000000               0.000000000               0.000000000               0.000000000               0.000000000               0.000000000               0.000000000               0.000000000               0.000000000               0.000000000               0.000000000               0.000000000               0.000000000               0.000000000               0.000000000               0.000000000               0.000000000               0.000000000               0.000000000               0.000000000               0.000000000               0.000000000               0.000000000               0.000000000               0.000000000               0.000000000               0.000000000               0.000000000               0.000000000               0.001584253               0.016649983               0.001206975              -0.001487150               0.006045655               0.004558506               0.000000000               0.000000000               0.000000000               0.000000000               0.001566254               0.013380112               0.000678016              -0.001085166               0.004821715               0.003736549               0.000000000               0.000000000               0.000000000               0.000000000               0.002042120               0.010762796               0.000143447              -0.000579553               0.003780747               0.003201194               0.000000000               0.000000000               0.000000000               0.000000000               0.002003498               0.009300985              -0.000091377              -0.000411310               0.003237401               0.002826090               0.000000000               0.000000000               0.000000000               0.000000000               0.001788989               0.008407689              -0.000197039              -0.000380089               0.002929231               0.002549142               0.000000000               0.000000000               0.000000000               0.000000000               0.001524057               0.007828722              -0.000245158              -0.000407068               0.002745237               0.002338169               0.000000000               0.000000000               0.000000000               0.000000000               0.001261845               0.007429284              -0.000260542              -0.000455468               0.002628226               0.002172758               0.000000000               0.000000000               0.000000000               0.000000000               0.001024477               0.007130919              -0.000257810              -0.000507185               0.002546011               0.002038826               0.000000000               0.000000000               0.000000000               0.000000000               0.000818407               0.006891237              -0.000248349              -0.000554501               0.002481890               0.001927389               0.000000000               0.000000000               0.000000000               0.000000000               0.000641776               0.006686356              -0.000234184              -0.000595127               0.002427139               0.001832012               0.000000000               0.000000000               0.000000000               0.000000000               0.000488046               0.006500376              -0.000217611              -0.000629528               0.002376613               0.001747085               0.000000000               0.000000000               0.000000000               0.000000000               0.000351344               0.006322971              -0.000202632              -0.000658616               0.002327175               0.001668559               0.000000000               0.000000000               0.000000000               0.000000000               0.000235438               0.006147624              -0.000186836              -0.000680162               0.002275908               0.001595746               0.000000000               0.000000000               0.000000000               0.000000000               0.000145355               0.005966294              -0.000162807              -0.000691277               0.002219170               0.001527894               0.000000000               0.000000000               0.000000000               0.000000000               0.000077540               0.005770869              -0.000128070              -0.000692279               0.002154364               0.001462084               0.000000000               0.000000000               0.000000000               0.000000000               0.000030709               0.005553550              -0.000075736              -0.000682676               0.002078723               0.001396047               0.000000000               0.000000000               0.000000000               0.000000000              -0.000003808               0.005389935              -0.000046454              -0.000675168               0.002021683               0.001346515               0.000000000               0.000000000               0.000000000               0.000000000               0.001765795               0.015714005               0.002266920              -0.001302075               0.005671974               0.004369899               0.000000000               0.000000000               0.000000000               0.000000000               0.001537601               0.012759578               0.001277422              -0.001018345               0.004592598               0.003574254               0.000000000               0.000000000               0.000000000               0.000000000               0.001784523               0.010469982               0.000286500              -0.000639550               0.003703142               0.003063592               0.000000000               0.000000000               0.000000000               0.000000000               0.001654226               0.009176405              -0.000137205              -0.000526714               0.003234342               0.002707628               0.000000000               0.000000000               0.000000000               0.000000000               0.001420622               0.008374720              -0.000324959              -0.000514105               0.002962914               0.002448808               0.000000000               0.000000000               0.000000000               0.000000000               0.001172572               0.007838676              -0.000406455              -0.000540119               0.002792905               0.002252787               0.000000000               0.000000000               0.000000000               0.000000000               0.000941483               0.007452877              -0.000429972              -0.000578552               0.002677118               0.002098566               0.000000000               0.000000000               0.000000000               0.000000000               0.000740314               0.007154344              -0.000423340              -0.000616674               0.002590315               0.001973642               0.000000000               0.000000000               0.000000000               0.000000000               0.000569407               0.006908617              -0.000406000              -0.000650048               0.002519532               0.001869484               0.000000000               0.000000000               0.000000000               0.000000000               0.000427223               0.006700703              -0.000383211              -0.000677378               0.002459338               0.001781960               0.000000000               0.000000000               0.000000000               0.000000000               0.000307132               0.006519039              -0.000356283              -0.000699704               0.002406226               0.001706522               0.000000000               0.000000000               0.000000000               0.000000000               0.000203609               0.006349847              -0.000327055              -0.000717376               0.002355720               0.001638344               0.000000000               0.000000000               0.000000000               0.000000000               0.000120108               0.006181072              -0.000291571              -0.000727592               0.002302867               0.001575276               0.000000000               0.000000000               0.000000000               0.000000000               0.000060544               0.006011282              -0.000245517              -0.000728704               0.002246642               0.001517938               0.000000000               0.000000000               0.000000000               0.000000000               0.000025042               0.005843388              -0.000187277              -0.000721031               0.002188120               0.001467089               0.000000000               0.000000000               0.000000000               0.000000000               0.000007483               0.005677550              -0.000107178              -0.000706886               0.002128127               0.001421241               0.000000000               0.000000000               0.000000000               0.000000000              -0.000009137               0.005566019              -0.000064334              -0.000699177               0.002088380               0.001389203               0.000000000               0.000000000               0.000000000               0.000000000               0.001996991               0.014297461               0.003061412              -0.001038310               0.005111876               0.004073565               0.000000000               0.000000000               0.000000000               0.000000000               0.001466137               0.011825742               0.001739108              -0.000928415               0.004251346               0.003322931               0.000000000               0.000000000               0.000000000               0.000000000               0.001387857               0.010028431               0.000430347              -0.000733106               0.003587146               0.002854040               0.000000000               0.000000000               0.000000000               0.000000000               0.001150350               0.008980947              -0.000108263              -0.000691236               0.003224031               0.002532795               0.000000000               0.000000000               0.000000000               0.000000000               0.000904876               0.008301616              -0.000340282              -0.000698372               0.002999968               0.002301597               0.000000000               0.000000000               0.000000000               0.000000000               0.000688820               0.007821505              -0.000439278              -0.000719379               0.002846935               0.002127556               0.000000000               0.000000000               0.000000000               0.000000000               0.000509490               0.007455746              -0.000469321              -0.000740908               0.002732193               0.001991285               0.000000000               0.000000000               0.000000000               0.000000000               0.000364477               0.007160212              -0.000461737              -0.000758346               0.002639495               0.001881149               0.000000000               0.000000000               0.000000000               0.000000000               0.000247128               0.006913231              -0.000441888              -0.000771479               0.002561547               0.001790068               0.000000000               0.000000000               0.000000000               0.000000000               0.000151380               0.006704684              -0.000416949              -0.000781316               0.002495311               0.001713995               0.000000000               0.000000000               0.000000000               0.000000000               0.000076811               0.006520482              -0.000386140              -0.000786254               0.002435557               0.001649303               0.000000000               0.000000000               0.000000000               0.000000000               0.000018436               0.006347341              -0.000349122              -0.000786502               0.002377927               0.001591425               0.000000000               0.000000000               0.000000000               0.000000000              -0.000023310               0.006182682              -0.000304688              -0.000781575               0.002321398               0.001539824               0.000000000               0.000000000               0.000000000               0.000000000              -0.000043824               0.006031821              -0.000251596              -0.000770410               0.002267390               0.001496980               0.000000000               0.000000000               0.000000000               0.000000000              -0.000044374               0.005896516              -0.000187217              -0.000753703               0.002216720               0.001463017               0.000000000               0.000000000               0.000000000               0.000000000              -0.000027548               0.005780704              -0.000104582              -0.000732917               0.002171188               0.001438271               0.000000000               0.000000000               0.000000000               0.000000000              -0.000022952               0.005712008              -0.000061571              -0.000722606               0.002144852               0.001422246               0.000000000               0.000000000               0.000000000               0.000000000               0.002178821               0.012569309               0.003527140              -0.000754107               0.004441096               0.003686989               0.000000000               0.000000000               0.000000000               0.000000000               0.001323989               0.010703848               0.002036931              -0.000841484               0.003848408               0.003006924               0.000000000               0.000000000               0.000000000               0.000000000               0.000899884               0.009498537               0.000578396              -0.000849859               0.003449433               0.002599575               0.000000000               0.000000000               0.000000000               0.000000000               0.000575677               0.008723973               0.000004009              -0.000874616               0.003199500               0.002324885               0.000000000               0.000000000               0.000000000               0.000000000               0.000345916               0.008173747              -0.000238237              -0.000891998               0.003021888               0.002129890               0.000000000               0.000000000               0.000000000               0.000000000               0.000186417               0.007752228              -0.000342952              -0.000899120               0.002883757               0.001984637               0.000000000               0.000000000               0.000000000               0.000000000               0.000073607               0.007405605              -0.000377883              -0.000898096               0.002767876               0.001869780               0.000000000               0.000000000               0.000000000               0.000000000              -0.000006252               0.007114165              -0.000375959              -0.000891613               0.002668569               0.001776956               0.000000000               0.000000000               0.000000000               0.000000000              -0.000062749               0.006868977              -0.000363960              -0.000882151               0.002583686               0.001701535               0.000000000               0.000000000               0.000000000               0.000000000              -0.000101132               0.006656183              -0.000347708              -0.000869945               0.002508687               0.001638742               0.000000000               0.000000000               0.000000000               0.000000000              -0.000121057               0.006464031              -0.000322527              -0.000853398               0.002439122               0.001585723               0.000000000               0.000000000               0.000000000               0.000000000              -0.000128089               0.006286425              -0.000291084              -0.000833834               0.002373399               0.001539564               0.000000000               0.000000000               0.000000000               0.000000000              -0.000124349               0.006128494              -0.000254722              -0.000812691               0.002313708               0.001501017               0.000000000               0.000000000               0.000000000               0.000000000              -0.000106972               0.005994338              -0.000210017              -0.000789405               0.002261227               0.001471823               0.000000000               0.000000000               0.000000000               0.000000000              -0.000076364               0.005886204              -0.000153519              -0.000764410               0.002216852               0.001452442               0.000000000               0.000000000               0.000000000               0.000000000              -0.000040068               0.005805246              -0.000082982              -0.000740680               0.002181956               0.001441276               0.000000000               0.000000000               0.000000000               0.000000000              -0.000025209               0.005766542              -0.000046034              -0.000730269               0.002165584               0.001435315               0.000000000               0.000000000               0.000000000               0.000000000               0.002216404               0.010694877               0.003662098              -0.000505711               0.003733492               0.003227782               0.000000000               0.000000000               0.000000000               0.000000000               0.001091954               0.009512510               0.002183348              -0.000779581               0.003430665               0.002651084               0.000000000               0.000000000               0.000000000               0.000000000               0.000373682               0.008929185               0.000745009              -0.000976015               0.003301704               0.002325688               0.000000000               0.000000000               0.000000000               0.000000000               0.000019060               0.008410802               0.000196282              -0.001044200               0.003151639               0.002107439               0.000000000               0.000000000               0.000000000               0.000000000              -0.000159201               0.007977034              -0.000035690              -0.001056827               0.003011260               0.001954433               0.000000000               0.000000000               0.000000000               0.000000000              -0.000245178               0.007605089              -0.000141470              -0.001042575               0.002882529               0.001839954               0.000000000               0.000000000               0.000000000               0.000000000              -0.000283756               0.007279390              -0.000187037              -0.001016330               0.002765216               0.001748886               0.000000000               0.000000000               0.000000000               0.000000000              -0.000293156               0.006997259              -0.000203554              -0.000984588               0.002660592               0.001676004               0.000000000               0.000000000               0.000000000               0.000000000              -0.000286597               0.006750707              -0.000211021              -0.000951310               0.002567317               0.001616007               0.000000000               0.000000000               0.000000000               0.000000000              -0.000270183               0.006529502              -0.000211982              -0.000917504               0.002482314               0.001564809               0.000000000               0.000000000               0.000000000               0.000000000              -0.000238020               0.006330555              -0.000201380              -0.000880575               0.002403689               0.001523114               0.000000000               0.000000000               0.000000000               0.000000000              -0.000197846               0.006152410              -0.000184006              -0.000843241               0.002331863               0.001488622               0.000000000               0.000000000               0.000000000               0.000000000              -0.000155583               0.005997432              -0.000161938              -0.000808021               0.002268464               0.001460444               0.000000000               0.000000000               0.000000000               0.000000000              -0.000112035               0.005866971              -0.000130696              -0.000775382               0.002214098               0.001438716               0.000000000               0.000000000               0.000000000               0.000000000              -0.000070120               0.005760833              -0.000088126              -0.000746397               0.002169057               0.001422660               0.000000000               0.000000000               0.000000000               0.000000000              -0.000031413               0.005685070              -0.000041541              -0.000722412               0.002135808               0.001413396               0.000000000               0.000000000               0.000000000               0.000000000              -0.000016683               0.005650429              -0.000021394              -0.000712558               0.002120977               0.001408419               0.000000000               0.000000000               0.000000000               0.000000000               0.002060635               0.008815326               0.003512485              -0.000329181               0.003048138               0.002718957               0.000000000               0.000000000               0.000000000               0.000000000               0.000785485               0.008339773               0.002214628              -0.000747915               0.003029201               0.002281286               0.000000000               0.000000000               0.000000000               0.000000000              -0.000127232               0.008342322               0.000942853              -0.001090500               0.003144246               0.002053746               0.000000000               0.000000000               0.000000000               0.000000000              -0.000448991               0.008040725               0.000455083              -0.001173459               0.003071368               0.001897908               0.000000000               0.000000000               0.000000000               0.000000000              -0.000545592               0.007701979               0.000232865              -0.001167341               0.002956414               0.001789073               0.000000000               0.000000000               0.000000000               0.000000000              -0.000549126               0.007377952               0.000114066              -0.001128163               0.002835347               0.001707184               0.000000000               0.000000000               0.000000000               0.000000000              -0.000513911               0.007078629               0.000043290              -0.001077542               0.002718700               0.001641158               0.000000000               0.000000000               0.000000000               0.000000000              -0.000466513               0.006804343              -0.000001279              -0.001025483               0.002609919               0.001584436               0.000000000               0.000000000               0.000000000               0.000000000              -0.000410147               0.006559068              -0.000033462              -0.000973686               0.002510896               0.001537210               0.000000000               0.000000000               0.000000000               0.000000000              -0.000347061               0.006338119              -0.000056357              -0.000922411               0.002420155               0.001497745               0.000000000               0.000000000               0.000000000               0.000000000              -0.000276474               0.006137714              -0.000064514              -0.000870890               0.002336181               0.001465291               0.000000000               0.000000000               0.000000000               0.000000000              -0.000207100               0.005956740              -0.000063691              -0.000822253               0.002259645               0.001437392               0.000000000               0.000000000               0.000000000               0.000000000              -0.000148125               0.005795507              -0.000058235              -0.000779983               0.002191811               0.001411827               0.000000000               0.000000000               0.000000000               0.000000000              -0.000097622               0.005656314              -0.000043942              -0.000743645               0.002133301               0.001389655               0.000000000               0.000000000               0.000000000               0.000000000              -0.000053203               0.005541431              -0.000024022              -0.000712628               0.002084668               0.001372040               0.000000000               0.000000000               0.000000000               0.000000000              -0.000018957               0.005453434              -0.000008242              -0.000688786               0.002047388               0.001358602               0.000000000               0.000000000               0.000000000               0.000000000              -0.000012533               0.005403499              -0.000006743              -0.000680136               0.002027860               0.001347725               0.000000000               0.000000000               0.000000000               0.000000000               0.001728876               0.007045048               0.003143653              -0.000232306               0.002425760               0.002193454               0.000000000               0.000000000               0.000000000               0.000000000               0.000433129               0.007244543               0.002168387              -0.000743144               0.002662538               0.001919393               0.000000000               0.000000000               0.000000000               0.000000000              -0.000542879               0.007736906               0.001172573              -0.001170690               0.002969173               0.001798482               0.000000000               0.000000000               0.000000000               0.000000000              -0.000779559               0.007613465               0.000746131              -0.001244015               0.002952468               0.001708453               0.000000000               0.000000000               0.000000000               0.000000000              -0.000782438               0.007364340               0.000513996              -0.001213954               0.002859407               0.001645453               0.000000000               0.000000000               0.000000000               0.000000000              -0.000709600               0.007089188               0.000366231              -0.001152246               0.002747121               0.001594875               0.000000000               0.000000000               0.000000000               0.000000000              -0.000617788               0.006814212               0.000264520              -0.001083444               0.002632529               0.001549085               0.000000000               0.000000000               0.000000000               0.000000000              -0.000528513               0.006552413               0.000188603              -0.001017241               0.002523196               0.001505955               0.000000000               0.000000000               0.000000000               0.000000000              -0.000438132               0.006317436               0.000127651              -0.000953977               0.002423783               0.001469806               0.000000000               0.000000000               0.000000000               0.000000000              -0.000346223               0.006101419               0.000082021              -0.000892509               0.002331289               0.001438780               0.000000000               0.000000000               0.000000000               0.000000000              -0.000262163               0.005896857               0.000053536              -0.000835416               0.002244071               0.001408655               0.000000000               0.000000000               0.000000000               0.000000000              -0.000189585               0.005710680               0.000036264              -0.000784927               0.002165183               0.001380256               0.000000000               0.000000000               0.000000000               0.000000000              -0.000126915               0.005546323               0.000022453              -0.000740881               0.002095716               0.001354835               0.000000000               0.000000000               0.000000000               0.000000000              -0.000076909               0.005404100               0.000013936              -0.000704352               0.002036133               0.001331781               0.000000000               0.000000000               0.000000000               0.000000000              -0.000039489               0.005287580               0.000010595              -0.000675754               0.001987761               0.001312006               0.000000000               0.000000000               0.000000000               0.000000000              -0.000014188               0.005194229               0.000005685              -0.000654598               0.001949592               0.001294994               0.000000000               0.000000000               0.000000000               0.000000000              -0.000012296               0.005139391              -0.000002280              -0.000647033               0.001928791               0.001281758               0.000000000               0.000000000               0.000000000               0.000000000               0.001296892               0.005521740               0.002642465              -0.000203886               0.001908522               0.001704637               0.000000000               0.000000000               0.000000000               0.000000000               0.000105648               0.006256154               0.002090015              -0.000742401               0.002332830               0.001590429               0.000000000               0.000000000               0.000000000               0.000000000              -0.000831270               0.007147003               0.001439391              -0.001205099               0.002784010               0.001578911               0.000000000               0.000000000               0.000000000               0.000000000              -0.000969922               0.007211615               0.001053046              -0.001265170               0.002825571               0.001560401               0.000000000               0.000000000               0.000000000               0.000000000              -0.000900066               0.007063277               0.000797758              -0.001220432               0.002761213               0.001540781               0.000000000               0.000000000               0.000000000               0.000000000              -0.000772477               0.006841420               0.000617011              -0.001144854               0.002662068               0.001517215               0.000000000               0.000000000               0.000000000               0.000000000              -0.000638806               0.006596734               0.000481925              -0.001064141               0.002553603               0.001489462               0.000000000               0.000000000               0.000000000               0.000000000              -0.000516928               0.006361200               0.000374066              -0.000988996               0.002450044               0.001461048               0.000000000               0.000000000               0.000000000               0.000000000              -0.000407570               0.006142122               0.000284504              -0.000920602               0.002354221               0.001433619               0.000000000               0.000000000               0.000000000               0.000000000              -0.000305766               0.005926485               0.000215417              -0.000855471               0.002260632               0.001405161               0.000000000               0.000000000               0.000000000               0.000000000              -0.000222256               0.005715583               0.000164160              -0.000797792               0.002171106               0.001373314               0.000000000               0.000000000               0.000000000               0.000000000              -0.000155030               0.005525972               0.000123722              -0.000748881               0.002091599               0.001342718               0.000000000               0.000000000               0.000000000               0.000000000              -0.000098504               0.005361888               0.000087685              -0.000707173               0.002023003               0.001315829               0.000000000               0.000000000               0.000000000               0.000000000              -0.000058473               0.005221433               0.000056492              -0.000674605               0.001965329               0.001290724               0.000000000               0.000000000               0.000000000               0.000000000              -0.000039820               0.005104517               0.000032046              -0.000652996               0.001919154               0.001266158               0.000000000               0.000000000               0.000000000               0.000000000              -0.000038774               0.005012448               0.000013777              -0.000641095               0.001884498               0.001243403               0.000000000               0.000000000               0.000000000               0.000000000              -0.000044312               0.004964645               0.000003559              -0.000637196               0.001867264               0.001230068               0.000000000               0.000000000               0.000000000               0.000000000               0.000745921               0.004083230               0.002092565              -0.000230685               0.001437957               0.001207272               0.000000000               0.000000000               0.000000000               0.000000000              -0.000142547               0.005115785               0.001993359              -0.000692928               0.001936220               0.001243292               0.000000000               0.000000000               0.000000000               0.000000000              -0.000946316               0.006295522               0.001728714              -0.001141807               0.002479088               0.001337281               0.000000000               0.000000000               0.000000000               0.000000000              -0.001040014               0.006608720               0.001396228              -0.001216093               0.002608249               0.001392156               0.000000000               0.000000000               0.000000000               0.000000000              -0.000945460               0.006621886               0.001123501              -0.001182281               0.002601367               0.001419086               0.000000000               0.000000000               0.000000000               0.000000000              -0.000802600               0.006510001               0.000910296              -0.001114723               0.002541553               0.001426830               0.000000000               0.000000000               0.000000000               0.000000000              -0.000656641               0.006347262               0.000739341              -0.001039646               0.002462281               0.001422635               0.000000000               0.000000000               0.000000000               0.000000000              -0.000522094               0.006176116               0.000596203              -0.000967798               0.002381284               0.001413486               0.000000000               0.000000000               0.000000000               0.000000000              -0.000408708               0.006001288               0.000478178              -0.000903424               0.002301551               0.001398126               0.000000000               0.000000000               0.000000000               0.000000000              -0.000311419               0.005817833               0.000381154              -0.000844009               0.002220595               0.001376586               0.000000000               0.000000000               0.000000000               0.000000000              -0.000228720               0.005632133               0.000299530              -0.000789785               0.002140620               0.001350836               0.000000000               0.000000000               0.000000000               0.000000000              -0.000165792               0.005453683               0.000231757              -0.000743880               0.002065836               0.001321956               0.000000000               0.000000000               0.000000000               0.000000000              -0.000116461               0.005294829               0.000170297              -0.000705525               0.002000100               0.001294576               0.000000000               0.000000000               0.000000000               0.000000000              -0.000082408               0.005158927               0.000112415              -0.000675767               0.001944881               0.001269114               0.000000000               0.000000000               0.000000000               0.000000000              -0.000071004               0.005042597               0.000060370              -0.000656950               0.001899832               0.001242883               0.000000000               0.000000000               0.000000000               0.000000000              -0.000081839               0.004946768               0.000020702              -0.000649034               0.001865251               0.001216217               0.000000000               0.000000000               0.000000000               0.000000000              -0.000094705               0.004900004               0.000004112              -0.000648013               0.001849323               0.001201309               0.000000000               0.000000000               0.000000000               0.000000000              -0.000017106               0.002764881               0.001519648              -0.000352026               0.001038959               0.000686933               0.000000000               0.000000000               0.000000000               0.000000000              -0.000430258               0.003979006               0.001834214              -0.000658722               0.001545895               0.000887173               0.000000000               0.000000000               0.000000000               0.000000000              -0.000979459               0.005330317               0.001951401              -0.001033585               0.002121282               0.001087697               0.000000000               0.000000000               0.000000000               0.000000000              -0.001031763               0.005872918               0.001722878              -0.001121024               0.002331294               0.001210270               0.000000000               0.000000000               0.000000000               0.000000000              -0.000932771               0.006073047               0.001462241              -0.001108918               0.002393968               0.001285050               0.000000000               0.000000000               0.000000000               0.000000000              -0.000792330               0.006104070               0.001230071              -0.001060130               0.002388046               0.001327916               0.000000000               0.000000000               0.000000000               0.000000000              -0.000649304               0.006053023               0.001031147              -0.001000115               0.002351026               0.001350911               0.000000000               0.000000000               0.000000000               0.000000000              -0.000513787               0.005963311               0.000860541              -0.000938082               0.002300444               0.001362363               0.000000000               0.000000000               0.000000000               0.000000000              -0.000396286               0.005851331               0.000716073              -0.000880022               0.002243765               0.001363743               0.000000000               0.000000000               0.000000000               0.000000000              -0.000302231               0.005720824               0.000592980              -0.000828438               0.002183068               0.001354630               0.000000000               0.000000000               0.000000000               0.000000000              -0.000222620               0.005575647               0.000485064              -0.000780437               0.002118676               0.001338239               0.000000000               0.000000000               0.000000000               0.000000000              -0.000159300               0.005420246               0.000389949              -0.000737266               0.002052486               0.001315220               0.000000000               0.000000000               0.000000000               0.000000000              -0.000114027               0.005275351               0.000301061              -0.000702177               0.001992492               0.001290314               0.000000000               0.000000000               0.000000000               0.000000000              -0.000083890               0.005150976               0.000212874              -0.000675329               0.001942084               0.001266756               0.000000000               0.000000000               0.000000000               0.000000000              -0.000075631               0.005038775               0.000127288              -0.000658207               0.001898977               0.001240770               0.000000000               0.000000000               0.000000000               0.000000000              -0.000092554               0.004946013               0.000053612              -0.000652958               0.001866307               0.001213349               0.000000000               0.000000000               0.000000000               0.000000000              -0.000115700               0.004900382               0.000018652              -0.000655934               0.001852089               0.001196155               0.000000000               0.000000000               0.000000000               0.000000000              -0.000945512               0.001653436               0.000955730              -0.000561246               0.000738221               0.000176975               0.000000000               0.000000000               0.000000000               0.000000000              -0.000806950               0.002902973               0.001586198              -0.000665477               0.001189473               0.000523996               0.000000000               0.000000000               0.000000000               0.000000000              -0.000974534               0.004255494               0.002021276              -0.000897386               0.001717611               0.000820226               0.000000000               0.000000000               0.000000000               0.000000000              -0.000933679               0.004963205               0.001927043              -0.000970529               0.001977894               0.001007365               0.000000000               0.000000000               0.000000000               0.000000000              -0.000825808               0.005339142               0.001712269              -0.000977069               0.002105385               0.001128316               0.000000000               0.000000000               0.000000000               0.000000000              -0.000697923               0.005521794               0.001488142              -0.000951944               0.002157894               0.001205950               0.000000000               0.000000000               0.000000000               0.000000000              -0.000566743               0.005598024               0.001281240              -0.000912280               0.002170082               0.001257803               0.000000000               0.000000000               0.000000000               0.000000000              -0.000441210               0.005612969               0.001097305              -0.000867073               0.002159995               0.001292922               0.000000000               0.000000000               0.000000000               0.000000000              -0.000328317               0.005584122               0.000938391              -0.000821132               0.002135066               0.001313934               0.000000000               0.000000000               0.000000000               0.000000000              -0.000232960               0.005521500               0.000801314              -0.000777546               0.002099663               0.001322118               0.000000000               0.000000000               0.000000000               0.000000000              -0.000154339               0.005430554               0.000679482              -0.000736695               0.002055731               0.001319037               0.000000000               0.000000000               0.000000000               0.000000000              -0.000090444               0.005320315               0.000564761              -0.000698954               0.002006405               0.001307451               0.000000000               0.000000000               0.000000000               0.000000000              -0.000043999               0.005212677               0.000451697              -0.000668083               0.001960236               0.001292153               0.000000000               0.000000000               0.000000000               0.000000000              -0.000016584               0.005113162               0.000338224              -0.000645363               0.001919491               0.001274128               0.000000000               0.000000000               0.000000000               0.000000000              -0.000011685               0.005019380               0.000222562              -0.000631803               0.001883711               0.001251908               0.000000000               0.000000000               0.000000000               0.000000000              -0.000033816               0.004941727               0.000107778              -0.000630395               0.001857358               0.001226962               0.000000000               0.000000000               0.000000000               0.000000000              -0.000067421               0.004899248               0.000046741              -0.000637687               0.001845629               0.001207941               0.000000000               0.000000000               0.000000000               0.000000000              -0.001963255               0.000799187               0.000465797              -0.000836118               0.000545098              -0.000291020               0.000000000               0.000000000               0.000000000               0.000000000              -0.001241279               0.001936165               0.001273357              -0.000707499               0.000881214               0.000173715               0.000000000               0.000000000               0.000000000               0.000000000              -0.000950874               0.003154640               0.001913154              -0.000750907               0.001301838               0.000550930               0.000000000               0.000000000               0.000000000               0.000000000              -0.000768326               0.003948423               0.001945862              -0.000781675               0.001576685               0.000795011               0.000000000               0.000000000               0.000000000               0.000000000              -0.000630962               0.004463138               0.001798860              -0.000794502               0.001752531               0.000958029               0.000000000               0.000000000               0.000000000               0.000000000              -0.000511094               0.004789704               0.001610322              -0.000790372               0.001860009               0.001069637               0.000000000               0.000000000               0.000000000               0.000000000              -0.000396615               0.004993423               0.001420545              -0.000772908               0.001922093               0.001149186               0.000000000               0.000000000               0.000000000               0.000000000              -0.000287923               0.005120065               0.001242436              -0.000747978               0.001955997               0.001208019               0.000000000               0.000000000               0.000000000               0.000000000              -0.000184037               0.005187011               0.001086247              -0.000717389               0.001968116               0.001250727               0.000000000               0.000000000               0.000000000               0.000000000              -0.000088798               0.005201983               0.000951119              -0.000683546               0.001961826               0.001278280               0.000000000               0.000000000               0.000000000               0.000000000              -0.000008342               0.005179716               0.000828270              -0.000650591               0.001943418               0.001292827               0.000000000               0.000000000               0.000000000               0.000000000               0.000059280               0.005136991               0.000707809              -0.000619892               0.001918944               0.001299052               0.000000000               0.000000000               0.000000000               0.000000000               0.000114135               0.005082231               0.000584920              -0.000592477               0.001891552               0.001299075               0.000000000               0.000000000               0.000000000               0.000000000               0.000153950               0.005026347               0.000456635              -0.000570561               0.001865619               0.001295058               0.000000000               0.000000000               0.000000000               0.000000000               0.000171676               0.004973610               0.000318862              -0.000557322               0.001843627               0.001286306               0.000000000               0.000000000               0.000000000               0.000000000               0.000157193               0.004923678               0.000166902              -0.000556511               0.001826713               0.001270202               0.000000000               0.000000000               0.000000000               0.000000000               0.000124971               0.004890842               0.000081843              -0.000564489               0.001818427               0.001253938               0.000000000               0.000000000               0.000000000               0.000000000              -0.002954625               0.000208782               0.000114733              -0.001134081               0.000447618              -0.000686463               0.000000000               0.000000000               0.000000000               0.000000000              -0.001684629               0.001138266               0.000929958              -0.000774018               0.000637423              -0.000136595               0.000000000               0.000000000               0.000000000               0.000000000              -0.000924158               0.002134218               0.001621012              -0.000613336               0.000915843               0.000302507               0.000000000               0.000000000               0.000000000               0.000000000              -0.000568247               0.002937873               0.001738414              -0.000580327               0.001172723               0.000592396               0.000000000               0.000000000               0.000000000               0.000000000              -0.000374654               0.003543335               0.001662231              -0.000583412               0.001375570               0.000792158               0.000000000               0.000000000               0.000000000               0.000000000              -0.000249903               0.003985311               0.001525389              -0.000591877               0.001525715               0.000933838               0.000000000               0.000000000               0.000000000               0.000000000              -0.000152664               0.004299917               0.001372710              -0.000594738               0.001631537               0.001036799               0.000000000               0.000000000               0.000000000               0.000000000              -0.000060886               0.004529155               0.001224108              -0.000588976               0.001706028               0.001117052               0.000000000               0.000000000               0.000000000               0.000000000               0.000027225               0.004691847               0.001091968              -0.000576271               0.001756023               0.001179753               0.000000000               0.000000000               0.000000000               0.000000000               0.000112162               0.004797810               0.000973646              -0.000557665               0.001785142               0.001227477               0.000000000               0.000000000               0.000000000               0.000000000               0.000190626               0.004858047               0.000863757              -0.000535770               0.001797923               0.001262153               0.000000000               0.000000000               0.000000000               0.000000000               0.000263653               0.004889061               0.000755917              -0.000512262               0.001800424               0.001288163               0.000000000               0.000000000               0.000000000               0.000000000               0.000335647               0.004902346               0.000644483              -0.000486925               0.001796407               0.001309482               0.000000000               0.000000000               0.000000000               0.000000000               0.000405391               0.004905635               0.000523689              -0.000461182               0.001788923               0.001327741               0.000000000               0.000000000               0.000000000               0.000000000               0.000464487               0.004901983               0.000382151              -0.000438564               0.001780166               0.001341602               0.000000000               0.000000000               0.000000000               0.000000000               0.000497744               0.004890572               0.000208382              -0.000424667               0.001771730               0.001347063               0.000000000               0.000000000               0.000000000               0.000000000               0.000500611               0.004878478               0.000109901              -0.000422079               0.001766836               0.001344757               0.000000000               0.000000000               0.000000000               0.000000000              -0.003789707              -0.000145595              -0.000063315              -0.001402940               0.000419112              -0.000983828               0.000000000               0.000000000               0.000000000               0.000000000              -0.002079196               0.000555332               0.000591407              -0.000849114               0.000468145              -0.000380969               0.000000000               0.000000000               0.000000000               0.000000000              -0.000908491               0.001309423               0.001170295              -0.000504362               0.000604589               0.000100228               0.000000000               0.000000000               0.000000000               0.000000000              -0.000378115               0.002072743               0.001307880              -0.000400886               0.000824535               0.000423650               0.000000000               0.000000000               0.000000000               0.000000000              -0.000116462               0.002717265               0.001282980              -0.000383331               0.001033523               0.000650191               0.000000000               0.000000000               0.000000000               0.000000000               0.000022485               0.003233375               0.001197442              -0.000395740               0.001209694               0.000813954               0.000000000               0.000000000               0.000000000               0.000000000               0.000111712               0.003638173               0.001094597              -0.000412879               0.001350338               0.000937459               0.000000000               0.000000000               0.000000000               0.000000000               0.000187386               0.003956481               0.000991031              -0.000424290               0.001460243               0.001035954               0.000000000               0.000000000               0.000000000               0.000000000               0.000255437               0.004202997               0.000895931              -0.000429585               0.001544180               0.001114595               0.000000000               0.000000000               0.000000000               0.000000000               0.000321324               0.004391135               0.000810733              -0.000428395               0.001606495               0.001178100               0.000000000               0.000000000               0.000000000               0.000000000               0.000394435               0.004532266               0.000730330              -0.000418619               0.001650280               0.001231661               0.000000000               0.000000000               0.000000000               0.000000000               0.000475255               0.004637711               0.000652295              -0.000401493               0.001679719               0.001278226               0.000000000               0.000000000               0.000000000               0.000000000               0.000570853               0.004721528               0.000572298              -0.000376120               0.001699200               0.001323080               0.000000000               0.000000000               0.000000000               0.000000000               0.000679052               0.004785689               0.000480574              -0.000343566               0.001709735               0.001366170               0.000000000               0.000000000               0.000000000               0.000000000               0.000799990               0.004830035               0.000363690              -0.000303757               0.001711248               0.001407491               0.000000000               0.000000000               0.000000000               0.000000000               0.000930572               0.004858271               0.000204853              -0.000258319               0.001705514               0.001447195               0.000000000               0.000000000               0.000000000               0.000000000               0.001021115               0.004875701               0.000114584              -0.000226544               0.001700732               0.001474188               0.000000000               0.000000000               0.000000000               0.000000000              -0.004346963              -0.000317515              -0.000081141              -0.001590421               0.000424299              -0.001166122               0.000000000               0.000000000               0.000000000               0.000000000              -0.002359440               0.000209232               0.000281622              -0.000910943               0.000373389              -0.000537554               0.000000000               0.000000000               0.000000000               0.000000000              -0.000909018               0.000776161               0.000610466              -0.000437901               0.000404684              -0.000033217               0.000000000               0.000000000               0.000000000               0.000000000              -0.000244081               0.001487485               0.000700589              -0.000277466               0.000588312               0.000310846               0.000000000               0.000000000               0.000000000               0.000000000               0.000075173               0.002139564               0.000697902              -0.000239256               0.000792933               0.000553677               0.000000000               0.000000000               0.000000000               0.000000000               0.000233421               0.002694688               0.000658959              -0.000249303               0.000981321               0.000732018               0.000000000               0.000000000               0.000000000               0.000000000               0.000319736               0.003158160               0.000608350              -0.000274869               0.001144332               0.000869463               0.000000000               0.000000000               0.000000000               0.000000000               0.000377246               0.003537960               0.000554175              -0.000300777               0.001279567               0.000978790               0.000000000               0.000000000               0.000000000               0.000000000               0.000428750               0.003843713               0.000503908              -0.000319682               0.001387786               0.001068103               0.000000000               0.000000000               0.000000000               0.000000000               0.000483398               0.004090585               0.000460803              -0.000330048               0.001473531               0.001143482               0.000000000               0.000000000               0.000000000               0.000000000               0.000550460               0.004290389               0.000419687              -0.000329875               0.001540074               0.001210199               0.000000000               0.000000000               0.000000000               0.000000000               0.000637398               0.004452990               0.000380264              -0.000317599               0.001590181               0.001272583               0.000000000               0.000000000               0.000000000               0.000000000               0.000749562               0.004586693               0.000339618              -0.000292250               0.001626299               0.001334049               0.000000000               0.000000000               0.000000000               0.000000000               0.000892193               0.004695047               0.000290825              -0.000252308               0.001649103               0.001396795               0.000000000               0.000000000               0.000000000               0.000000000               0.001075269               0.004780190               0.000226574              -0.000194297               0.001658147               0.001463849               0.000000000               0.000000000               0.000000000               0.000000000               0.001310863               0.004837451               0.000131794              -0.000113108               0.001650170               0.001537063               0.000000000               0.000000000               0.000000000               0.000000000               0.001504598               0.004878787               0.000078028              -0.000045624               0.001641454               0.001595830               0.000000000               0.000000000               0.000000000               0.000000000               0.000000000               0.000000000               0.000000000               0.000000000               0.000000000               0.000000000               0.000000000               0.000000000               0.000000000               0.000000000               0.000000000               0.000000000               0.000000000               0.000000000               0.000000000               0.000000000               0.000000000               0.000000000               0.000000000               0.000000000               0.000000000               0.000000000               0.000000000               0.000000000               0.000000000               0.000000000               0.000000000               0.000000000               0.000000000               0.000000000               0.000000000               0.000000000               0.000000000               0.000000000               0.000000000               0.000000000               0.000000000               0.000000000               0.000000000               0.000000000               0.000000000               0.000000000               0.000000000               0.000000000               0.000000000               0.000000000               0.000000000               0.000000000               0.000000000               0.000000000               0.000000000               0.000000000               0.000000000               0.000000000               0.000000000               0.000000000               0.000000000               0.000000000               0.000000000               0.000000000               0.000000000               0.000000000               0.000000000               0.000000000               0.000000000               0.000000000               0.000000000               0.000000000               0.000000000               0.000000000               0.000000000               0.000000000               0.000000000               0.000000000               0.000000000               0.000000000               0.000000000               0.000000000               0.000000000               0.000000000               0.000000000               0.000000000               0.000000000               0.000000000               0.000000000               0.000000000               0.000000000               0.000000000               0.000000000               0.000000000               0.000000000               0.000000000               0.000000000               0.000000000               0.000000000               0.000000000               0.000000000               0.000000000               0.000000000               0.000000000               0.000000000               0.000000000               0.000000000               0.000000000               0.000000000               0.000000000               0.000000000               0.000000000               0.000000000               0.000000000               0.000000000               0.000000000               0.000000000               0.000000000               0.000000000               0.000000000               0.000000000               0.000000000               0.000000000               0.000000000               0.000000000               0.000000000               0.000000000               0.000000000               0.000000000               0.000000000               0.000000000               0.000000000               0.000000000               0.000000000               0.000000000               0.000000000               0.000000000               0.000000000               0.000000000               0.000000000               0.000000000               0.000000000               0.000000000               0.000000000               0.000000000               0.000000000               0.000000000               0.000000000               0.000000000               0.000000000               0.000000000               0.000000000               0.000000000               0.000000000               0.000000000               0.000000000               0.000000000               0.000000000               0.000000000               0.000000000               0.000000000               0.000000000               0.000000000               0.000000000               0.000000000               0.000000000               0.000000000               0.000000000               0.000000000               0.000000000               0.000000000               0.000000000               0.000000000               0.000000000 </DataArray>
</PointData>
</Piece>
</UnstructuredGrid> </VTKFile>
