<?xml version="1.0"?>
<VTKFile type="UnstructuredGrid" version="0.1">
<UnstructuredGrid>
<Piece NumberOfPoints="      1156" NumberOfCells="      1024">
<Points>
<DataArray type="Float64"                                    Name="coordinates"                                                      NumberOfComponents=" 3" format="ascii">
              0.133000000               0.000000000               0.000000000               0.155937500               0.000000000               0.000000000               0.178875000               0.000000000               0.000000000               0.201812500               0.000000000               0.000000000               0.224750000               0.000000000               0.000000000               0.247687500               0.000000000               0.000000000               0.270625000               0.000000000               0.000000000               0.293562500               0.000000000               0.000000000               0.316500000               0.000000000               0.000000000               0.339437500               0.000000000               0.000000000               0.362375000               0.000000000               0.000000000               0.385312500               0.000000000               0.000000000               0.408250000               0.000000000               0.000000000               0.431187500               0.000000000               0.000000000               0.454125000               0.000000000               0.000000000               0.477062500               0.000000000               0.000000000               0.500000000               0.000000000               0.000000000               0.132359569               0.013036280               0.000000000               0.155337096               0.016127762               0.000000000               0.178314623               0.019219245               0.000000000               0.201292150               0.022310727               0.000000000               0.224269676               0.025402210               0.000000000               0.247247203               0.028493692               0.000000000               0.270224730               0.031585175               0.000000000               0.293202257               0.034676657               0.000000000               0.316179784               0.037768140               0.000000000               0.339157311               0.040859622               0.000000000               0.362134838               0.043951105               0.000000000               0.385112365               0.047042587               0.000000000               0.408089892               0.050134070               0.000000000               0.431067419               0.053225552               0.000000000               0.454044946               0.056317035               0.000000000               0.477022473               0.059408517               0.000000000               0.500000000               0.062500000               0.000000000               0.130444442               0.025947013               0.000000000               0.153541665               0.032137825               0.000000000               0.176638887               0.038328636               0.000000000               0.199736109               0.044519448               0.000000000               0.222833332               0.050710260               0.000000000               0.245930554               0.056901071               0.000000000               0.269027776               0.063091883               0.000000000               0.292124999               0.069282695               0.000000000               0.315222221               0.075473506               0.000000000               0.338319444               0.081664318               0.000000000               0.361416666               0.087855130               0.000000000               0.384513888               0.094045942               0.000000000               0.407611111               0.100236753               0.000000000               0.430708333               0.106427565               0.000000000               0.453805555               0.112618377               0.000000000               0.476902778               0.118809188               0.000000000               0.500000000               0.125000000               0.000000000               0.127273065               0.038607862               0.000000000               0.150568498               0.047913621               0.000000000               0.173863932               0.057219379               0.000000000               0.197159365               0.066525138               0.000000000               0.220454798               0.075830897               0.000000000               0.243750232               0.085136655               0.000000000               0.267045665               0.094442414               0.000000000               0.290341099               0.103748172               0.000000000               0.313636532               0.113053931               0.000000000               0.336931966               0.122359690               0.000000000               0.360227399               0.131665448               0.000000000               0.383522833               0.140971207               0.000000000               0.406818266               0.150276966               0.000000000               0.430113700               0.159582724               0.000000000               0.453409133               0.168888483               0.000000000               0.476704567               0.178194241               0.000000000               0.500000000               0.187500000               0.000000000               0.122875978               0.050896897               0.000000000               0.146446229               0.063340840               0.000000000               0.170016481               0.075784784               0.000000000               0.193586732               0.088228728               0.000000000               0.217156983               0.100672672               0.000000000               0.240727235               0.113116616               0.000000000               0.264297486               0.125560560               0.000000000               0.287867738               0.138004504               0.000000000               0.311437989               0.150448448               0.000000000               0.335008240               0.162892392               0.000000000               0.358578492               0.175336336               0.000000000               0.382148743               0.187780280               0.000000000               0.405718994               0.200224224               0.000000000               0.429289246               0.212668168               0.000000000               0.452859497               0.225112112               0.000000000               0.476429749               0.237556056               0.000000000               0.500000000               0.250000000               0.000000000               0.117295528               0.062695766               0.000000000               0.141214558               0.078308531               0.000000000               0.165133587               0.093921295               0.000000000               0.189052617               0.109534060               0.000000000               0.212971646               0.125146824               0.000000000               0.236890676               0.140759589               0.000000000               0.260809705               0.156372354               0.000000000               0.284728735               0.171985118               0.000000000               0.308647764               0.187597883               0.000000000               0.332566794               0.203210648               0.000000000               0.356485823               0.218823412               0.000000000               0.380404853               0.234436177               0.000000000               0.404323882               0.250048941               0.000000000               0.428242912               0.265661706               0.000000000               0.452161941               0.281274471               0.000000000               0.476080971               0.296887235               0.000000000               0.500000000               0.312500000               0.000000000               0.110585458               0.073890841               0.000000000               0.134923867               0.092710163               0.000000000               0.159262276               0.111529486               0.000000000               0.183600685               0.130348808               0.000000000               0.207939094               0.149168131               0.000000000               0.232277503               0.167987453               0.000000000               0.256615912               0.186806776               0.000000000               0.280954320               0.205626098               0.000000000               0.305292729               0.224445420               0.000000000               0.329631138               0.243264743               0.000000000               0.353969547               0.262084065               0.000000000               0.378307956               0.280903388               0.000000000               0.402646365               0.299722710               0.000000000               0.426984773               0.318542033               0.000000000               0.451323182               0.337361355               0.000000000               0.475661591               0.356180678               0.000000000               0.500000000               0.375000000               0.000000000               0.102810390               0.084374307               0.000000000               0.127634741               0.106444663               0.000000000               0.152459092               0.128515018               0.000000000               0.177283442               0.150585374               0.000000000               0.202107793               0.172655730               0.000000000               0.226932143               0.194726086               0.000000000               0.251756494               0.216796442               0.000000000               0.276580845               0.238866798               0.000000000               0.301405195               0.260937153               0.000000000               0.326229546               0.283007509               0.000000000               0.351053896               0.305077865               0.000000000               0.375878247               0.327148221               0.000000000               0.400702598               0.349218577               0.000000000               0.425526948               0.371288933               0.000000000               0.450351299               0.393359288               0.000000000               0.475175649               0.415429644               0.000000000               0.500000000               0.437500000               0.000000000               0.094045202               0.094045202               0.000000000               0.119417377               0.119417377               0.000000000               0.144789552               0.144789552               0.000000000               0.170161727               0.170161727               0.000000000               0.195533901               0.195533901               0.000000000               0.220906076               0.220906076               0.000000000               0.246278251               0.246278251               0.000000000               0.271650426               0.271650426               0.000000000               0.297022601               0.297022601               0.000000000               0.322394776               0.322394776               0.000000000               0.347766951               0.347766951               0.000000000               0.373139126               0.373139126               0.000000000               0.398511300               0.398511300               0.000000000               0.423883475               0.423883475               0.000000000               0.449255650               0.449255650               0.000000000               0.474627825               0.474627825               0.000000000               0.500000000               0.500000000               0.000000000               0.084374307               0.102810390               0.000000000               0.106444663               0.127634741               0.000000000               0.128515018               0.152459092               0.000000000               0.150585374               0.177283442               0.000000000               0.172655730               0.202107793               0.000000000               0.194726086               0.226932143               0.000000000               0.216796442               0.251756494               0.000000000               0.238866798               0.276580845               0.000000000               0.260937153               0.301405195               0.000000000               0.283007509               0.326229546               0.000000000               0.305077865               0.351053896               0.000000000               0.327148221               0.375878247               0.000000000               0.349218577               0.400702598               0.000000000               0.371288933               0.425526948               0.000000000               0.393359288               0.450351299               0.000000000               0.415429644               0.475175649               0.000000000               0.437500000               0.500000000               0.000000000               0.073890841               0.110585458               0.000000000               0.092710163               0.134923867               0.000000000               0.111529486               0.159262276               0.000000000               0.130348808               0.183600685               0.000000000               0.149168131               0.207939094               0.000000000               0.167987453               0.232277503               0.000000000               0.186806776               0.256615912               0.000000000               0.205626098               0.280954320               0.000000000               0.224445420               0.305292729               0.000000000               0.243264743               0.329631138               0.000000000               0.262084065               0.353969547               0.000000000               0.280903388               0.378307956               0.000000000               0.299722710               0.402646365               0.000000000               0.318542033               0.426984773               0.000000000               0.337361355               0.451323182               0.000000000               0.356180678               0.475661591               0.000000000               0.375000000               0.500000000               0.000000000               0.062695766               0.117295528               0.000000000               0.078308531               0.141214558               0.000000000               0.093921295               0.165133587               0.000000000               0.109534060               0.189052617               0.000000000               0.125146824               0.212971646               0.000000000               0.140759589               0.236890676               0.000000000               0.156372354               0.260809705               0.000000000               0.171985118               0.284728735               0.000000000               0.187597883               0.308647764               0.000000000               0.203210648               0.332566794               0.000000000               0.218823412               0.356485823               0.000000000               0.234436177               0.380404853               0.000000000               0.250048941               0.404323882               0.000000000               0.265661706               0.428242912               0.000000000               0.281274471               0.452161941               0.000000000               0.296887235               0.476080971               0.000000000               0.312500000               0.500000000               0.000000000               0.050896897               0.122875978               0.000000000               0.063340840               0.146446229               0.000000000               0.075784784               0.170016481               0.000000000               0.088228728               0.193586732               0.000000000               0.100672672               0.217156983               0.000000000               0.113116616               0.240727235               0.000000000               0.125560560               0.264297486               0.000000000               0.138004504               0.287867738               0.000000000               0.150448448               0.311437989               0.000000000               0.162892392               0.335008240               0.000000000               0.175336336               0.358578492               0.000000000               0.187780280               0.382148743               0.000000000               0.200224224               0.405718994               0.000000000               0.212668168               0.429289246               0.000000000               0.225112112               0.452859497               0.000000000               0.237556056               0.476429749               0.000000000               0.250000000               0.500000000               0.000000000               0.038607862               0.127273065               0.000000000               0.047913621               0.150568498               0.000000000               0.057219379               0.173863932               0.000000000               0.066525138               0.197159365               0.000000000               0.075830897               0.220454798               0.000000000               0.085136655               0.243750232               0.000000000               0.094442414               0.267045665               0.000000000               0.103748172               0.290341099               0.000000000               0.113053931               0.313636532               0.000000000               0.122359690               0.336931966               0.000000000               0.131665448               0.360227399               0.000000000               0.140971207               0.383522833               0.000000000               0.150276966               0.406818266               0.000000000               0.159582724               0.430113700               0.000000000               0.168888483               0.453409133               0.000000000               0.178194241               0.476704567               0.000000000               0.187500000               0.500000000               0.000000000               0.025947013               0.130444442               0.000000000               0.032137825               0.153541665               0.000000000               0.038328636               0.176638887               0.000000000               0.044519448               0.199736109               0.000000000               0.050710260               0.222833332               0.000000000               0.056901071               0.245930554               0.000000000               0.063091883               0.269027776               0.000000000               0.069282695               0.292124999               0.000000000               0.075473506               0.315222221               0.000000000               0.081664318               0.338319444               0.000000000               0.087855130               0.361416666               0.000000000               0.094045942               0.384513888               0.000000000               0.100236753               0.407611111               0.000000000               0.106427565               0.430708333               0.000000000               0.112618377               0.453805555               0.000000000               0.118809188               0.476902778               0.000000000               0.125000000               0.500000000               0.000000000               0.013036280               0.132359569               0.000000000               0.016127762               0.155337096               0.000000000               0.019219245               0.178314623               0.000000000               0.022310727               0.201292150               0.000000000               0.025402210               0.224269676               0.000000000               0.028493692               0.247247203               0.000000000               0.031585175               0.270224730               0.000000000               0.034676657               0.293202257               0.000000000               0.037768140               0.316179784               0.000000000               0.040859622               0.339157311               0.000000000               0.043951105               0.362134838               0.000000000               0.047042587               0.385112365               0.000000000               0.050134070               0.408089892               0.000000000               0.053225552               0.431067419               0.000000000               0.056317035               0.454044946               0.000000000               0.059408517               0.477022473               0.000000000               0.062500000               0.500000000               0.000000000               0.000000000               0.133000000               0.000000000               0.000000000               0.155937500               0.000000000               0.000000000               0.178875000               0.000000000               0.000000000               0.201812500               0.000000000               0.000000000               0.224750000               0.000000000               0.000000000               0.247687500               0.000000000               0.000000000               0.270625000               0.000000000               0.000000000               0.293562500               0.000000000               0.000000000               0.316500000               0.000000000               0.000000000               0.339437500               0.000000000               0.000000000               0.362375000               0.000000000               0.000000000               0.385312500               0.000000000               0.000000000               0.408250000               0.000000000               0.000000000               0.431187500               0.000000000               0.000000000               0.454125000               0.000000000               0.000000000               0.477062500               0.000000000               0.000000000               0.500000000               0.000000000               0.133000000               0.000000000               0.000000000               0.155937500               0.000000000               0.000000000               0.178875000               0.000000000               0.000000000               0.201812500               0.000000000               0.000000000               0.224750000               0.000000000               0.000000000               0.247687500               0.000000000               0.000000000               0.270625000               0.000000000               0.000000000               0.293562500               0.000000000               0.000000000               0.316500000               0.000000000               0.000000000               0.339437500               0.000000000               0.000000000               0.362375000               0.000000000               0.000000000               0.385312500               0.000000000               0.000000000               0.408250000               0.000000000               0.000000000               0.431187500               0.000000000               0.000000000               0.454125000               0.000000000               0.000000000               0.477062500               0.000000000               0.000000000               0.500000000               0.000000000               0.000000000               0.132359569              -0.013036280               0.000000000               0.155337096              -0.016127762               0.000000000               0.178314623              -0.019219245               0.000000000               0.201292150              -0.022310727               0.000000000               0.224269676              -0.025402210               0.000000000               0.247247203              -0.028493692               0.000000000               0.270224730              -0.031585175               0.000000000               0.293202257              -0.034676657               0.000000000               0.316179784              -0.037768140               0.000000000               0.339157311              -0.040859622               0.000000000               0.362134838              -0.043951105               0.000000000               0.385112365              -0.047042587               0.000000000               0.408089892              -0.050134070               0.000000000               0.431067419              -0.053225552               0.000000000               0.454044946              -0.056317035               0.000000000               0.477022473              -0.059408517               0.000000000               0.500000000              -0.062500000               0.000000000               0.130444442              -0.025947013               0.000000000               0.153541665              -0.032137825               0.000000000               0.176638887              -0.038328636               0.000000000               0.199736109              -0.044519448               0.000000000               0.222833332              -0.050710260               0.000000000               0.245930554              -0.056901071               0.000000000               0.269027776              -0.063091883               0.000000000               0.292124999              -0.069282695               0.000000000               0.315222221              -0.075473506               0.000000000               0.338319444              -0.081664318               0.000000000               0.361416666              -0.087855130               0.000000000               0.384513888              -0.094045942               0.000000000               0.407611111              -0.100236753               0.000000000               0.430708333              -0.106427565               0.000000000               0.453805555              -0.112618377               0.000000000               0.476902778              -0.118809188               0.000000000               0.500000000              -0.125000000               0.000000000               0.127273065              -0.038607862               0.000000000               0.150568498              -0.047913621               0.000000000               0.173863932              -0.057219379               0.000000000               0.197159365              -0.066525138               0.000000000               0.220454798              -0.075830897               0.000000000               0.243750232              -0.085136655               0.000000000               0.267045665              -0.094442414               0.000000000               0.290341099              -0.103748172               0.000000000               0.313636532              -0.113053931               0.000000000               0.336931966              -0.122359690               0.000000000               0.360227399              -0.131665448               0.000000000               0.383522833              -0.140971207               0.000000000               0.406818266              -0.150276966               0.000000000               0.430113700              -0.159582724               0.000000000               0.453409133              -0.168888483               0.000000000               0.476704567              -0.178194241               0.000000000               0.500000000              -0.187500000               0.000000000               0.122875978              -0.050896897               0.000000000               0.146446229              -0.063340840               0.000000000               0.170016481              -0.075784784               0.000000000               0.193586732              -0.088228728               0.000000000               0.217156983              -0.100672672               0.000000000               0.240727235              -0.113116616               0.000000000               0.264297486              -0.125560560               0.000000000               0.287867738              -0.138004504               0.000000000               0.311437989              -0.150448448               0.000000000               0.335008240              -0.162892392               0.000000000               0.358578492              -0.175336336               0.000000000               0.382148743              -0.187780280               0.000000000               0.405718994              -0.200224224               0.000000000               0.429289246              -0.212668168               0.000000000               0.452859497              -0.225112112               0.000000000               0.476429749              -0.237556056               0.000000000               0.500000000              -0.250000000               0.000000000               0.117295528              -0.062695766               0.000000000               0.141214558              -0.078308531               0.000000000               0.165133587              -0.093921295               0.000000000               0.189052617              -0.109534060               0.000000000               0.212971646              -0.125146824               0.000000000               0.236890676              -0.140759589               0.000000000               0.260809705              -0.156372354               0.000000000               0.284728735              -0.171985118               0.000000000               0.308647764              -0.187597883               0.000000000               0.332566794              -0.203210648               0.000000000               0.356485823              -0.218823412               0.000000000               0.380404853              -0.234436177               0.000000000               0.404323882              -0.250048941               0.000000000               0.428242912              -0.265661706               0.000000000               0.452161941              -0.281274471               0.000000000               0.476080971              -0.296887235               0.000000000               0.500000000              -0.312500000               0.000000000               0.110585458              -0.073890841               0.000000000               0.134923867              -0.092710163               0.000000000               0.159262276              -0.111529486               0.000000000               0.183600685              -0.130348808               0.000000000               0.207939094              -0.149168131               0.000000000               0.232277503              -0.167987453               0.000000000               0.256615912              -0.186806776               0.000000000               0.280954320              -0.205626098               0.000000000               0.305292729              -0.224445420               0.000000000               0.329631138              -0.243264743               0.000000000               0.353969547              -0.262084065               0.000000000               0.378307956              -0.280903388               0.000000000               0.402646365              -0.299722710               0.000000000               0.426984773              -0.318542033               0.000000000               0.451323182              -0.337361355               0.000000000               0.475661591              -0.356180678               0.000000000               0.500000000              -0.375000000               0.000000000               0.102810390              -0.084374307               0.000000000               0.127634741              -0.106444663               0.000000000               0.152459092              -0.128515018               0.000000000               0.177283442              -0.150585374               0.000000000               0.202107793              -0.172655730               0.000000000               0.226932143              -0.194726086               0.000000000               0.251756494              -0.216796442               0.000000000               0.276580845              -0.238866798               0.000000000               0.301405195              -0.260937153               0.000000000               0.326229546              -0.283007509               0.000000000               0.351053896              -0.305077865               0.000000000               0.375878247              -0.327148221               0.000000000               0.400702598              -0.349218577               0.000000000               0.425526948              -0.371288933               0.000000000               0.450351299              -0.393359288               0.000000000               0.475175649              -0.415429644               0.000000000               0.500000000              -0.437500000               0.000000000               0.094045202              -0.094045202               0.000000000               0.119417377              -0.119417377               0.000000000               0.144789552              -0.144789552               0.000000000               0.170161727              -0.170161727               0.000000000               0.195533901              -0.195533901               0.000000000               0.220906076              -0.220906076               0.000000000               0.246278251              -0.246278251               0.000000000               0.271650426              -0.271650426               0.000000000               0.297022601              -0.297022601               0.000000000               0.322394776              -0.322394776               0.000000000               0.347766951              -0.347766951               0.000000000               0.373139126              -0.373139126               0.000000000               0.398511300              -0.398511300               0.000000000               0.423883475              -0.423883475               0.000000000               0.449255650              -0.449255650               0.000000000               0.474627825              -0.474627825               0.000000000               0.500000000              -0.500000000               0.000000000               0.084374307              -0.102810390               0.000000000               0.106444663              -0.127634741               0.000000000               0.128515018              -0.152459092               0.000000000               0.150585374              -0.177283442               0.000000000               0.172655730              -0.202107793               0.000000000               0.194726086              -0.226932143               0.000000000               0.216796442              -0.251756494               0.000000000               0.238866798              -0.276580845               0.000000000               0.260937153              -0.301405195               0.000000000               0.283007509              -0.326229546               0.000000000               0.305077865              -0.351053896               0.000000000               0.327148221              -0.375878247               0.000000000               0.349218577              -0.400702598               0.000000000               0.371288933              -0.425526948               0.000000000               0.393359288              -0.450351299               0.000000000               0.415429644              -0.475175649               0.000000000               0.437500000              -0.500000000               0.000000000               0.073890841              -0.110585458               0.000000000               0.092710163              -0.134923867               0.000000000               0.111529486              -0.159262276               0.000000000               0.130348808              -0.183600685               0.000000000               0.149168131              -0.207939094               0.000000000               0.167987453              -0.232277503               0.000000000               0.186806776              -0.256615912               0.000000000               0.205626098              -0.280954320               0.000000000               0.224445420              -0.305292729               0.000000000               0.243264743              -0.329631138               0.000000000               0.262084065              -0.353969547               0.000000000               0.280903388              -0.378307956               0.000000000               0.299722710              -0.402646365               0.000000000               0.318542033              -0.426984773               0.000000000               0.337361355              -0.451323182               0.000000000               0.356180678              -0.475661591               0.000000000               0.375000000              -0.500000000               0.000000000               0.062695766              -0.117295528               0.000000000               0.078308531              -0.141214558               0.000000000               0.093921295              -0.165133587               0.000000000               0.109534060              -0.189052617               0.000000000               0.125146824              -0.212971646               0.000000000               0.140759589              -0.236890676               0.000000000               0.156372354              -0.260809705               0.000000000               0.171985118              -0.284728735               0.000000000               0.187597883              -0.308647764               0.000000000               0.203210648              -0.332566794               0.000000000               0.218823412              -0.356485823               0.000000000               0.234436177              -0.380404853               0.000000000               0.250048941              -0.404323882               0.000000000               0.265661706              -0.428242912               0.000000000               0.281274471              -0.452161941               0.000000000               0.296887235              -0.476080971               0.000000000               0.312500000              -0.500000000               0.000000000               0.050896897              -0.122875978               0.000000000               0.063340840              -0.146446229               0.000000000               0.075784784              -0.170016481               0.000000000               0.088228728              -0.193586732               0.000000000               0.100672672              -0.217156983               0.000000000               0.113116616              -0.240727235               0.000000000               0.125560560              -0.264297486               0.000000000               0.138004504              -0.287867738               0.000000000               0.150448448              -0.311437989               0.000000000               0.162892392              -0.335008240               0.000000000               0.175336336              -0.358578492               0.000000000               0.187780280              -0.382148743               0.000000000               0.200224224              -0.405718994               0.000000000               0.212668168              -0.429289246               0.000000000               0.225112112              -0.452859497               0.000000000               0.237556056              -0.476429749               0.000000000               0.250000000              -0.500000000               0.000000000               0.038607862              -0.127273065               0.000000000               0.047913621              -0.150568498               0.000000000               0.057219379              -0.173863932               0.000000000               0.066525138              -0.197159365               0.000000000               0.075830897              -0.220454798               0.000000000               0.085136655              -0.243750232               0.000000000               0.094442414              -0.267045665               0.000000000               0.103748172              -0.290341099               0.000000000               0.113053931              -0.313636532               0.000000000               0.122359690              -0.336931966               0.000000000               0.131665448              -0.360227399               0.000000000               0.140971207              -0.383522833               0.000000000               0.150276966              -0.406818266               0.000000000               0.159582724              -0.430113700               0.000000000               0.168888483              -0.453409133               0.000000000               0.178194241              -0.476704567               0.000000000               0.187500000              -0.500000000               0.000000000               0.025947013              -0.130444442               0.000000000               0.032137825              -0.153541665               0.000000000               0.038328636              -0.176638887               0.000000000               0.044519448              -0.199736109               0.000000000               0.050710260              -0.222833332               0.000000000               0.056901071              -0.245930554               0.000000000               0.063091883              -0.269027776               0.000000000               0.069282695              -0.292124999               0.000000000               0.075473506              -0.315222221               0.000000000               0.081664318              -0.338319444               0.000000000               0.087855130              -0.361416666               0.000000000               0.094045942              -0.384513888               0.000000000               0.100236753              -0.407611111               0.000000000               0.106427565              -0.430708333               0.000000000               0.112618377              -0.453805555               0.000000000               0.118809188              -0.476902778               0.000000000               0.125000000              -0.500000000               0.000000000               0.013036280              -0.132359569               0.000000000               0.016127762              -0.155337096               0.000000000               0.019219245              -0.178314623               0.000000000               0.022310727              -0.201292150               0.000000000               0.025402210              -0.224269676               0.000000000               0.028493692              -0.247247203               0.000000000               0.031585175              -0.270224730               0.000000000               0.034676657              -0.293202257               0.000000000               0.037768140              -0.316179784               0.000000000               0.040859622              -0.339157311               0.000000000               0.043951105              -0.362134838               0.000000000               0.047042587              -0.385112365               0.000000000               0.050134070              -0.408089892               0.000000000               0.053225552              -0.431067419               0.000000000               0.056317035              -0.454044946               0.000000000               0.059408517              -0.477022473               0.000000000               0.062500000              -0.500000000               0.000000000               0.000000000              -0.133000000               0.000000000               0.000000000              -0.155937500               0.000000000               0.000000000              -0.178875000               0.000000000               0.000000000              -0.201812500               0.000000000               0.000000000              -0.224750000               0.000000000               0.000000000              -0.247687500               0.000000000               0.000000000              -0.270625000               0.000000000               0.000000000              -0.293562500               0.000000000               0.000000000              -0.316500000               0.000000000               0.000000000              -0.339437500               0.000000000               0.000000000              -0.362375000               0.000000000               0.000000000              -0.385312500               0.000000000               0.000000000              -0.408250000               0.000000000               0.000000000              -0.431187500               0.000000000               0.000000000              -0.454125000               0.000000000               0.000000000              -0.477062500               0.000000000               0.000000000              -0.500000000               0.000000000              -0.133000000               0.000000000               0.000000000              -0.155937500               0.000000000               0.000000000              -0.178875000               0.000000000               0.000000000              -0.201812500               0.000000000               0.000000000              -0.224750000               0.000000000               0.000000000              -0.247687500               0.000000000               0.000000000              -0.270625000               0.000000000               0.000000000              -0.293562500               0.000000000               0.000000000              -0.316500000               0.000000000               0.000000000              -0.339437500               0.000000000               0.000000000              -0.362375000               0.000000000               0.000000000              -0.385312500               0.000000000               0.000000000              -0.408250000               0.000000000               0.000000000              -0.431187500               0.000000000               0.000000000              -0.454125000               0.000000000               0.000000000              -0.477062500               0.000000000               0.000000000              -0.500000000               0.000000000               0.000000000              -0.132359569              -0.013036280               0.000000000              -0.155337096              -0.016127762               0.000000000              -0.178314623              -0.019219245               0.000000000              -0.201292150              -0.022310727               0.000000000              -0.224269676              -0.025402210               0.000000000              -0.247247203              -0.028493692               0.000000000              -0.270224730              -0.031585175               0.000000000              -0.293202257              -0.034676657               0.000000000              -0.316179784              -0.037768140               0.000000000              -0.339157311              -0.040859622               0.000000000              -0.362134838              -0.043951105               0.000000000              -0.385112365              -0.047042587               0.000000000              -0.408089892              -0.050134070               0.000000000              -0.431067419              -0.053225552               0.000000000              -0.454044946              -0.056317035               0.000000000              -0.477022473              -0.059408517               0.000000000              -0.500000000              -0.062500000               0.000000000              -0.130444442              -0.025947013               0.000000000              -0.153541665              -0.032137825               0.000000000              -0.176638887              -0.038328636               0.000000000              -0.199736109              -0.044519448               0.000000000              -0.222833332              -0.050710260               0.000000000              -0.245930554              -0.056901071               0.000000000              -0.269027776              -0.063091883               0.000000000              -0.292124999              -0.069282695               0.000000000              -0.315222221              -0.075473506               0.000000000              -0.338319444              -0.081664318               0.000000000              -0.361416666              -0.087855130               0.000000000              -0.384513888              -0.094045942               0.000000000              -0.407611111              -0.100236753               0.000000000              -0.430708333              -0.106427565               0.000000000              -0.453805555              -0.112618377               0.000000000              -0.476902778              -0.118809188               0.000000000              -0.500000000              -0.125000000               0.000000000              -0.127273065              -0.038607862               0.000000000              -0.150568498              -0.047913621               0.000000000              -0.173863932              -0.057219379               0.000000000              -0.197159365              -0.066525138               0.000000000              -0.220454798              -0.075830897               0.000000000              -0.243750232              -0.085136655               0.000000000              -0.267045665              -0.094442414               0.000000000              -0.290341099              -0.103748172               0.000000000              -0.313636532              -0.113053931               0.000000000              -0.336931966              -0.122359690               0.000000000              -0.360227399              -0.131665448               0.000000000              -0.383522833              -0.140971207               0.000000000              -0.406818266              -0.150276966               0.000000000              -0.430113700              -0.159582724               0.000000000              -0.453409133              -0.168888483               0.000000000              -0.476704567              -0.178194241               0.000000000              -0.500000000              -0.187500000               0.000000000              -0.122875978              -0.050896897               0.000000000              -0.146446229              -0.063340840               0.000000000              -0.170016481              -0.075784784               0.000000000              -0.193586732              -0.088228728               0.000000000              -0.217156983              -0.100672672               0.000000000              -0.240727235              -0.113116616               0.000000000              -0.264297486              -0.125560560               0.000000000              -0.287867738              -0.138004504               0.000000000              -0.311437989              -0.150448448               0.000000000              -0.335008240              -0.162892392               0.000000000              -0.358578492              -0.175336336               0.000000000              -0.382148743              -0.187780280               0.000000000              -0.405718994              -0.200224224               0.000000000              -0.429289246              -0.212668168               0.000000000              -0.452859497              -0.225112112               0.000000000              -0.476429749              -0.237556056               0.000000000              -0.500000000              -0.250000000               0.000000000              -0.117295528              -0.062695766               0.000000000              -0.141214558              -0.078308531               0.000000000              -0.165133587              -0.093921295               0.000000000              -0.189052617              -0.109534060               0.000000000              -0.212971646              -0.125146824               0.000000000              -0.236890676              -0.140759589               0.000000000              -0.260809705              -0.156372354               0.000000000              -0.284728735              -0.171985118               0.000000000              -0.308647764              -0.187597883               0.000000000              -0.332566794              -0.203210648               0.000000000              -0.356485823              -0.218823412               0.000000000              -0.380404853              -0.234436177               0.000000000              -0.404323882              -0.250048941               0.000000000              -0.428242912              -0.265661706               0.000000000              -0.452161941              -0.281274471               0.000000000              -0.476080971              -0.296887235               0.000000000              -0.500000000              -0.312500000               0.000000000              -0.110585458              -0.073890841               0.000000000              -0.134923867              -0.092710163               0.000000000              -0.159262276              -0.111529486               0.000000000              -0.183600685              -0.130348808               0.000000000              -0.207939094              -0.149168131               0.000000000              -0.232277503              -0.167987453               0.000000000              -0.256615912              -0.186806776               0.000000000              -0.280954320              -0.205626098               0.000000000              -0.305292729              -0.224445420               0.000000000              -0.329631138              -0.243264743               0.000000000              -0.353969547              -0.262084065               0.000000000              -0.378307956              -0.280903388               0.000000000              -0.402646365              -0.299722710               0.000000000              -0.426984773              -0.318542033               0.000000000              -0.451323182              -0.337361355               0.000000000              -0.475661591              -0.356180678               0.000000000              -0.500000000              -0.375000000               0.000000000              -0.102810390              -0.084374307               0.000000000              -0.127634741              -0.106444663               0.000000000              -0.152459092              -0.128515018               0.000000000              -0.177283442              -0.150585374               0.000000000              -0.202107793              -0.172655730               0.000000000              -0.226932143              -0.194726086               0.000000000              -0.251756494              -0.216796442               0.000000000              -0.276580845              -0.238866798               0.000000000              -0.301405195              -0.260937153               0.000000000              -0.326229546              -0.283007509               0.000000000              -0.351053896              -0.305077865               0.000000000              -0.375878247              -0.327148221               0.000000000              -0.400702598              -0.349218577               0.000000000              -0.425526948              -0.371288933               0.000000000              -0.450351299              -0.393359288               0.000000000              -0.475175649              -0.415429644               0.000000000              -0.500000000              -0.437500000               0.000000000              -0.094045202              -0.094045202               0.000000000              -0.119417377              -0.119417377               0.000000000              -0.144789552              -0.144789552               0.000000000              -0.170161727              -0.170161727               0.000000000              -0.195533901              -0.195533901               0.000000000              -0.220906076              -0.220906076               0.000000000              -0.246278251              -0.246278251               0.000000000              -0.271650426              -0.271650426               0.000000000              -0.297022601              -0.297022601               0.000000000              -0.322394776              -0.322394776               0.000000000              -0.347766951              -0.347766951               0.000000000              -0.373139126              -0.373139126               0.000000000              -0.398511300              -0.398511300               0.000000000              -0.423883475              -0.423883475               0.000000000              -0.449255650              -0.449255650               0.000000000              -0.474627825              -0.474627825               0.000000000              -0.500000000              -0.500000000               0.000000000              -0.084374307              -0.102810390               0.000000000              -0.106444663              -0.127634741               0.000000000              -0.128515018              -0.152459092               0.000000000              -0.150585374              -0.177283442               0.000000000              -0.172655730              -0.202107793               0.000000000              -0.194726086              -0.226932143               0.000000000              -0.216796442              -0.251756494               0.000000000              -0.238866798              -0.276580845               0.000000000              -0.260937153              -0.301405195               0.000000000              -0.283007509              -0.326229546               0.000000000              -0.305077865              -0.351053896               0.000000000              -0.327148221              -0.375878247               0.000000000              -0.349218577              -0.400702598               0.000000000              -0.371288933              -0.425526948               0.000000000              -0.393359288              -0.450351299               0.000000000              -0.415429644              -0.475175649               0.000000000              -0.437500000              -0.500000000               0.000000000              -0.073890841              -0.110585458               0.000000000              -0.092710163              -0.134923867               0.000000000              -0.111529486              -0.159262276               0.000000000              -0.130348808              -0.183600685               0.000000000              -0.149168131              -0.207939094               0.000000000              -0.167987453              -0.232277503               0.000000000              -0.186806776              -0.256615912               0.000000000              -0.205626098              -0.280954320               0.000000000              -0.224445420              -0.305292729               0.000000000              -0.243264743              -0.329631138               0.000000000              -0.262084065              -0.353969547               0.000000000              -0.280903388              -0.378307956               0.000000000              -0.299722710              -0.402646365               0.000000000              -0.318542033              -0.426984773               0.000000000              -0.337361355              -0.451323182               0.000000000              -0.356180678              -0.475661591               0.000000000              -0.375000000              -0.500000000               0.000000000              -0.062695766              -0.117295528               0.000000000              -0.078308531              -0.141214558               0.000000000              -0.093921295              -0.165133587               0.000000000              -0.109534060              -0.189052617               0.000000000              -0.125146824              -0.212971646               0.000000000              -0.140759589              -0.236890676               0.000000000              -0.156372354              -0.260809705               0.000000000              -0.171985118              -0.284728735               0.000000000              -0.187597883              -0.308647764               0.000000000              -0.203210648              -0.332566794               0.000000000              -0.218823412              -0.356485823               0.000000000              -0.234436177              -0.380404853               0.000000000              -0.250048941              -0.404323882               0.000000000              -0.265661706              -0.428242912               0.000000000              -0.281274471              -0.452161941               0.000000000              -0.296887235              -0.476080971               0.000000000              -0.312500000              -0.500000000               0.000000000              -0.050896897              -0.122875978               0.000000000              -0.063340840              -0.146446229               0.000000000              -0.075784784              -0.170016481               0.000000000              -0.088228728              -0.193586732               0.000000000              -0.100672672              -0.217156983               0.000000000              -0.113116616              -0.240727235               0.000000000              -0.125560560              -0.264297486               0.000000000              -0.138004504              -0.287867738               0.000000000              -0.150448448              -0.311437989               0.000000000              -0.162892392              -0.335008240               0.000000000              -0.175336336              -0.358578492               0.000000000              -0.187780280              -0.382148743               0.000000000              -0.200224224              -0.405718994               0.000000000              -0.212668168              -0.429289246               0.000000000              -0.225112112              -0.452859497               0.000000000              -0.237556056              -0.476429749               0.000000000              -0.250000000              -0.500000000               0.000000000              -0.038607862              -0.127273065               0.000000000              -0.047913621              -0.150568498               0.000000000              -0.057219379              -0.173863932               0.000000000              -0.066525138              -0.197159365               0.000000000              -0.075830897              -0.220454798               0.000000000              -0.085136655              -0.243750232               0.000000000              -0.094442414              -0.267045665               0.000000000              -0.103748172              -0.290341099               0.000000000              -0.113053931              -0.313636532               0.000000000              -0.122359690              -0.336931966               0.000000000              -0.131665448              -0.360227399               0.000000000              -0.140971207              -0.383522833               0.000000000              -0.150276966              -0.406818266               0.000000000              -0.159582724              -0.430113700               0.000000000              -0.168888483              -0.453409133               0.000000000              -0.178194241              -0.476704567               0.000000000              -0.187500000              -0.500000000               0.000000000              -0.025947013              -0.130444442               0.000000000              -0.032137825              -0.153541665               0.000000000              -0.038328636              -0.176638887               0.000000000              -0.044519448              -0.199736109               0.000000000              -0.050710260              -0.222833332               0.000000000              -0.056901071              -0.245930554               0.000000000              -0.063091883              -0.269027776               0.000000000              -0.069282695              -0.292124999               0.000000000              -0.075473506              -0.315222221               0.000000000              -0.081664318              -0.338319444               0.000000000              -0.087855130              -0.361416666               0.000000000              -0.094045942              -0.384513888               0.000000000              -0.100236753              -0.407611111               0.000000000              -0.106427565              -0.430708333               0.000000000              -0.112618377              -0.453805555               0.000000000              -0.118809188              -0.476902778               0.000000000              -0.125000000              -0.500000000               0.000000000              -0.013036280              -0.132359569               0.000000000              -0.016127762              -0.155337096               0.000000000              -0.019219245              -0.178314623               0.000000000              -0.022310727              -0.201292150               0.000000000              -0.025402210              -0.224269676               0.000000000              -0.028493692              -0.247247203               0.000000000              -0.031585175              -0.270224730               0.000000000              -0.034676657              -0.293202257               0.000000000              -0.037768140              -0.316179784               0.000000000              -0.040859622              -0.339157311               0.000000000              -0.043951105              -0.362134838               0.000000000              -0.047042587              -0.385112365               0.000000000              -0.050134070              -0.408089892               0.000000000              -0.053225552              -0.431067419               0.000000000              -0.056317035              -0.454044946               0.000000000              -0.059408517              -0.477022473               0.000000000              -0.062500000              -0.500000000               0.000000000               0.000000000              -0.133000000               0.000000000               0.000000000              -0.155937500               0.000000000               0.000000000              -0.178875000               0.000000000               0.000000000              -0.201812500               0.000000000               0.000000000              -0.224750000               0.000000000               0.000000000              -0.247687500               0.000000000               0.000000000              -0.270625000               0.000000000               0.000000000              -0.293562500               0.000000000               0.000000000              -0.316500000               0.000000000               0.000000000              -0.339437500               0.000000000               0.000000000              -0.362375000               0.000000000               0.000000000              -0.385312500               0.000000000               0.000000000              -0.408250000               0.000000000               0.000000000              -0.431187500               0.000000000               0.000000000              -0.454125000               0.000000000               0.000000000              -0.477062500               0.000000000               0.000000000              -0.500000000               0.000000000              -0.133000000               0.000000000               0.000000000              -0.155937500               0.000000000               0.000000000              -0.178875000               0.000000000               0.000000000              -0.201812500               0.000000000               0.000000000              -0.224750000               0.000000000               0.000000000              -0.247687500               0.000000000               0.000000000              -0.270625000               0.000000000               0.000000000              -0.293562500               0.000000000               0.000000000              -0.316500000               0.000000000               0.000000000              -0.339437500               0.000000000               0.000000000              -0.362375000               0.000000000               0.000000000              -0.385312500               0.000000000               0.000000000              -0.408250000               0.000000000               0.000000000              -0.431187500               0.000000000               0.000000000              -0.454125000               0.000000000               0.000000000              -0.477062500               0.000000000               0.000000000              -0.500000000               0.000000000               0.000000000              -0.132359569               0.013036280               0.000000000              -0.155337096               0.016127762               0.000000000              -0.178314623               0.019219245               0.000000000              -0.201292150               0.022310727               0.000000000              -0.224269676               0.025402210               0.000000000              -0.247247203               0.028493692               0.000000000              -0.270224730               0.031585175               0.000000000              -0.293202257               0.034676657               0.000000000              -0.316179784               0.037768140               0.000000000              -0.339157311               0.040859622               0.000000000              -0.362134838               0.043951105               0.000000000              -0.385112365               0.047042587               0.000000000              -0.408089892               0.050134070               0.000000000              -0.431067419               0.053225552               0.000000000              -0.454044946               0.056317035               0.000000000              -0.477022473               0.059408517               0.000000000              -0.500000000               0.062500000               0.000000000              -0.130444442               0.025947013               0.000000000              -0.153541665               0.032137825               0.000000000              -0.176638887               0.038328636               0.000000000              -0.199736109               0.044519448               0.000000000              -0.222833332               0.050710260               0.000000000              -0.245930554               0.056901071               0.000000000              -0.269027776               0.063091883               0.000000000              -0.292124999               0.069282695               0.000000000              -0.315222221               0.075473506               0.000000000              -0.338319444               0.081664318               0.000000000              -0.361416666               0.087855130               0.000000000              -0.384513888               0.094045942               0.000000000              -0.407611111               0.100236753               0.000000000              -0.430708333               0.106427565               0.000000000              -0.453805555               0.112618377               0.000000000              -0.476902778               0.118809188               0.000000000              -0.500000000               0.125000000               0.000000000              -0.127273065               0.038607862               0.000000000              -0.150568498               0.047913621               0.000000000              -0.173863932               0.057219379               0.000000000              -0.197159365               0.066525138               0.000000000              -0.220454798               0.075830897               0.000000000              -0.243750232               0.085136655               0.000000000              -0.267045665               0.094442414               0.000000000              -0.290341099               0.103748172               0.000000000              -0.313636532               0.113053931               0.000000000              -0.336931966               0.122359690               0.000000000              -0.360227399               0.131665448               0.000000000              -0.383522833               0.140971207               0.000000000              -0.406818266               0.150276966               0.000000000              -0.430113700               0.159582724               0.000000000              -0.453409133               0.168888483               0.000000000              -0.476704567               0.178194241               0.000000000              -0.500000000               0.187500000               0.000000000              -0.122875978               0.050896897               0.000000000              -0.146446229               0.063340840               0.000000000              -0.170016481               0.075784784               0.000000000              -0.193586732               0.088228728               0.000000000              -0.217156983               0.100672672               0.000000000              -0.240727235               0.113116616               0.000000000              -0.264297486               0.125560560               0.000000000              -0.287867738               0.138004504               0.000000000              -0.311437989               0.150448448               0.000000000              -0.335008240               0.162892392               0.000000000              -0.358578492               0.175336336               0.000000000              -0.382148743               0.187780280               0.000000000              -0.405718994               0.200224224               0.000000000              -0.429289246               0.212668168               0.000000000              -0.452859497               0.225112112               0.000000000              -0.476429749               0.237556056               0.000000000              -0.500000000               0.250000000               0.000000000              -0.117295528               0.062695766               0.000000000              -0.141214558               0.078308531               0.000000000              -0.165133587               0.093921295               0.000000000              -0.189052617               0.109534060               0.000000000              -0.212971646               0.125146824               0.000000000              -0.236890676               0.140759589               0.000000000              -0.260809705               0.156372354               0.000000000              -0.284728735               0.171985118               0.000000000              -0.308647764               0.187597883               0.000000000              -0.332566794               0.203210648               0.000000000              -0.356485823               0.218823412               0.000000000              -0.380404853               0.234436177               0.000000000              -0.404323882               0.250048941               0.000000000              -0.428242912               0.265661706               0.000000000              -0.452161941               0.281274471               0.000000000              -0.476080971               0.296887235               0.000000000              -0.500000000               0.312500000               0.000000000              -0.110585458               0.073890841               0.000000000              -0.134923867               0.092710163               0.000000000              -0.159262276               0.111529486               0.000000000              -0.183600685               0.130348808               0.000000000              -0.207939094               0.149168131               0.000000000              -0.232277503               0.167987453               0.000000000              -0.256615912               0.186806776               0.000000000              -0.280954320               0.205626098               0.000000000              -0.305292729               0.224445420               0.000000000              -0.329631138               0.243264743               0.000000000              -0.353969547               0.262084065               0.000000000              -0.378307956               0.280903388               0.000000000              -0.402646365               0.299722710               0.000000000              -0.426984773               0.318542033               0.000000000              -0.451323182               0.337361355               0.000000000              -0.475661591               0.356180678               0.000000000              -0.500000000               0.375000000               0.000000000              -0.102810390               0.084374307               0.000000000              -0.127634741               0.106444663               0.000000000              -0.152459092               0.128515018               0.000000000              -0.177283442               0.150585374               0.000000000              -0.202107793               0.172655730               0.000000000              -0.226932143               0.194726086               0.000000000              -0.251756494               0.216796442               0.000000000              -0.276580845               0.238866798               0.000000000              -0.301405195               0.260937153               0.000000000              -0.326229546               0.283007509               0.000000000              -0.351053896               0.305077865               0.000000000              -0.375878247               0.327148221               0.000000000              -0.400702598               0.349218577               0.000000000              -0.425526948               0.371288933               0.000000000              -0.450351299               0.393359288               0.000000000              -0.475175649               0.415429644               0.000000000              -0.500000000               0.437500000               0.000000000              -0.094045202               0.094045202               0.000000000              -0.119417377               0.119417377               0.000000000              -0.144789552               0.144789552               0.000000000              -0.170161727               0.170161727               0.000000000              -0.195533901               0.195533901               0.000000000              -0.220906076               0.220906076               0.000000000              -0.246278251               0.246278251               0.000000000              -0.271650426               0.271650426               0.000000000              -0.297022601               0.297022601               0.000000000              -0.322394776               0.322394776               0.000000000              -0.347766951               0.347766951               0.000000000              -0.373139126               0.373139126               0.000000000              -0.398511300               0.398511300               0.000000000              -0.423883475               0.423883475               0.000000000              -0.449255650               0.449255650               0.000000000              -0.474627825               0.474627825               0.000000000              -0.500000000               0.500000000               0.000000000              -0.084374307               0.102810390               0.000000000              -0.106444663               0.127634741               0.000000000              -0.128515018               0.152459092               0.000000000              -0.150585374               0.177283442               0.000000000              -0.172655730               0.202107793               0.000000000              -0.194726086               0.226932143               0.000000000              -0.216796442               0.251756494               0.000000000              -0.238866798               0.276580845               0.000000000              -0.260937153               0.301405195               0.000000000              -0.283007509               0.326229546               0.000000000              -0.305077865               0.351053896               0.000000000              -0.327148221               0.375878247               0.000000000              -0.349218577               0.400702598               0.000000000              -0.371288933               0.425526948               0.000000000              -0.393359288               0.450351299               0.000000000              -0.415429644               0.475175649               0.000000000              -0.437500000               0.500000000               0.000000000              -0.073890841               0.110585458               0.000000000              -0.092710163               0.134923867               0.000000000              -0.111529486               0.159262276               0.000000000              -0.130348808               0.183600685               0.000000000              -0.149168131               0.207939094               0.000000000              -0.167987453               0.232277503               0.000000000              -0.186806776               0.256615912               0.000000000              -0.205626098               0.280954320               0.000000000              -0.224445420               0.305292729               0.000000000              -0.243264743               0.329631138               0.000000000              -0.262084065               0.353969547               0.000000000              -0.280903388               0.378307956               0.000000000              -0.299722710               0.402646365               0.000000000              -0.318542033               0.426984773               0.000000000              -0.337361355               0.451323182               0.000000000              -0.356180678               0.475661591               0.000000000              -0.375000000               0.500000000               0.000000000              -0.062695766               0.117295528               0.000000000              -0.078308531               0.141214558               0.000000000              -0.093921295               0.165133587               0.000000000              -0.109534060               0.189052617               0.000000000              -0.125146824               0.212971646               0.000000000              -0.140759589               0.236890676               0.000000000              -0.156372354               0.260809705               0.000000000              -0.171985118               0.284728735               0.000000000              -0.187597883               0.308647764               0.000000000              -0.203210648               0.332566794               0.000000000              -0.218823412               0.356485823               0.000000000              -0.234436177               0.380404853               0.000000000              -0.250048941               0.404323882               0.000000000              -0.265661706               0.428242912               0.000000000              -0.281274471               0.452161941               0.000000000              -0.296887235               0.476080971               0.000000000              -0.312500000               0.500000000               0.000000000              -0.050896897               0.122875978               0.000000000              -0.063340840               0.146446229               0.000000000              -0.075784784               0.170016481               0.000000000              -0.088228728               0.193586732               0.000000000              -0.100672672               0.217156983               0.000000000              -0.113116616               0.240727235               0.000000000              -0.125560560               0.264297486               0.000000000              -0.138004504               0.287867738               0.000000000              -0.150448448               0.311437989               0.000000000              -0.162892392               0.335008240               0.000000000              -0.175336336               0.358578492               0.000000000              -0.187780280               0.382148743               0.000000000              -0.200224224               0.405718994               0.000000000              -0.212668168               0.429289246               0.000000000              -0.225112112               0.452859497               0.000000000              -0.237556056               0.476429749               0.000000000              -0.250000000               0.500000000               0.000000000              -0.038607862               0.127273065               0.000000000              -0.047913621               0.150568498               0.000000000              -0.057219379               0.173863932               0.000000000              -0.066525138               0.197159365               0.000000000              -0.075830897               0.220454798               0.000000000              -0.085136655               0.243750232               0.000000000              -0.094442414               0.267045665               0.000000000              -0.103748172               0.290341099               0.000000000              -0.113053931               0.313636532               0.000000000              -0.122359690               0.336931966               0.000000000              -0.131665448               0.360227399               0.000000000              -0.140971207               0.383522833               0.000000000              -0.150276966               0.406818266               0.000000000              -0.159582724               0.430113700               0.000000000              -0.168888483               0.453409133               0.000000000              -0.178194241               0.476704567               0.000000000              -0.187500000               0.500000000               0.000000000              -0.025947013               0.130444442               0.000000000              -0.032137825               0.153541665               0.000000000              -0.038328636               0.176638887               0.000000000              -0.044519448               0.199736109               0.000000000              -0.050710260               0.222833332               0.000000000              -0.056901071               0.245930554               0.000000000              -0.063091883               0.269027776               0.000000000              -0.069282695               0.292124999               0.000000000              -0.075473506               0.315222221               0.000000000              -0.081664318               0.338319444               0.000000000              -0.087855130               0.361416666               0.000000000              -0.094045942               0.384513888               0.000000000              -0.100236753               0.407611111               0.000000000              -0.106427565               0.430708333               0.000000000              -0.112618377               0.453805555               0.000000000              -0.118809188               0.476902778               0.000000000              -0.125000000               0.500000000               0.000000000              -0.013036280               0.132359569               0.000000000              -0.016127762               0.155337096               0.000000000              -0.019219245               0.178314623               0.000000000              -0.022310727               0.201292150               0.000000000              -0.025402210               0.224269676               0.000000000              -0.028493692               0.247247203               0.000000000              -0.031585175               0.270224730               0.000000000              -0.034676657               0.293202257               0.000000000              -0.037768140               0.316179784               0.000000000              -0.040859622               0.339157311               0.000000000              -0.043951105               0.362134838               0.000000000              -0.047042587               0.385112365               0.000000000              -0.050134070               0.408089892               0.000000000              -0.053225552               0.431067419               0.000000000              -0.056317035               0.454044946               0.000000000              -0.059408517               0.477022473               0.000000000              -0.062500000               0.500000000               0.000000000               0.000000000               0.133000000               0.000000000               0.000000000               0.155937500               0.000000000               0.000000000               0.178875000               0.000000000               0.000000000               0.201812500               0.000000000               0.000000000               0.224750000               0.000000000               0.000000000               0.247687500               0.000000000               0.000000000               0.270625000               0.000000000               0.000000000               0.293562500               0.000000000               0.000000000               0.316500000               0.000000000               0.000000000               0.339437500               0.000000000               0.000000000               0.362375000               0.000000000               0.000000000               0.385312500               0.000000000               0.000000000               0.408250000               0.000000000               0.000000000               0.431187500               0.000000000               0.000000000               0.454125000               0.000000000               0.000000000               0.477062500               0.000000000               0.000000000               0.500000000               0.000000000 </DataArray>
</Points>
<Cells>
<DataArray type="Int32"                                    Name="connectivity"                                                      NumberOfComponents=" 1" format="ascii">
         0          1         18         17          1          2         19         18          2          3         20         19          3          4         21         20          4          5         22         21          5          6         23         22          6          7         24         23          7          8         25         24          8          9         26         25          9         10         27         26         10         11         28         27         11         12         29         28         12         13         30         29         13         14         31         30         14         15         32         31         15         16         33         32         17         18         35         34         18         19         36         35         19         20         37         36         20         21         38         37         21         22         39         38         22         23         40         39         23         24         41         40         24         25         42         41         25         26         43         42         26         27         44         43         27         28         45         44         28         29         46         45         29         30         47         46         30         31         48         47         31         32         49         48         32         33         50         49         34         35         52         51         35         36         53         52         36         37         54         53         37         38         55         54         38         39         56         55         39         40         57         56         40         41         58         57         41         42         59         58         42         43         60         59         43         44         61         60         44         45         62         61         45         46         63         62         46         47         64         63         47         48         65         64         48         49         66         65         49         50         67         66         51         52         69         68         52         53         70         69         53         54         71         70         54         55         72         71         55         56         73         72         56         57         74         73         57         58         75         74         58         59         76         75         59         60         77         76         60         61         78         77         61         62         79         78         62         63         80         79         63         64         81         80         64         65         82         81         65         66         83         82         66         67         84         83         68         69         86         85         69         70         87         86         70         71         88         87         71         72         89         88         72         73         90         89         73         74         91         90         74         75         92         91         75         76         93         92         76         77         94         93         77         78         95         94         78         79         96         95         79         80         97         96         80         81         98         97         81         82         99         98         82         83        100         99         83         84        101        100         85         86        103        102         86         87        104        103         87         88        105        104         88         89        106        105         89         90        107        106         90         91        108        107         91         92        109        108         92         93        110        109         93         94        111        110         94         95        112        111         95         96        113        112         96         97        114        113         97         98        115        114         98         99        116        115         99        100        117        116        100        101        118        117        102        103        120        119        103        104        121        120        104        105        122        121        105        106        123        122        106        107        124        123        107        108        125        124        108        109        126        125        109        110        127        126        110        111        128        127        111        112        129        128        112        113        130        129        113        114        131        130        114        115        132        131        115        116        133        132        116        117        134        133        117        118        135        134        119        120        137        136        120        121        138        137        121        122        139        138        122        123        140        139        123        124        141        140        124        125        142        141        125        126        143        142        126        127        144        143        127        128        145        144        128        129        146        145        129        130        147        146        130        131        148        147        131        132        149        148        132        133        150        149        133        134        151        150        134        135        152        151        136        137        154        153        137        138        155        154        138        139        156        155        139        140        157        156        140        141        158        157        141        142        159        158        142        143        160        159        143        144        161        160        144        145        162        161        145        146        163        162        146        147        164        163        147        148        165        164        148        149        166        165        149        150        167        166        150        151        168        167        151        152        169        168        153        154        171        170        154        155        172        171        155        156        173        172        156        157        174        173        157        158        175        174        158        159        176        175        159        160        177        176        160        161        178        177        161        162        179        178        162        163        180        179        163        164        181        180        164        165        182        181        165        166        183        182        166        167        184        183        167        168        185        184        168        169        186        185        170        171        188        187        171        172        189        188        172        173        190        189        173        174        191        190        174        175        192        191        175        176        193        192        176        177        194        193        177        178        195        194        178        179        196        195        179        180        197        196        180        181        198        197        181        182        199        198        182        183        200        199        183        184        201        200        184        185        202        201        185        186        203        202        187        188        205        204        188        189        206        205        189        190        207        206        190        191        208        207        191        192        209        208        192        193        210        209        193        194        211        210        194        195        212        211        195        196        213        212        196        197        214        213        197        198        215        214        198        199        216        215        199        200        217        216        200        201        218        217        201        202        219        218        202        203        220        219        204        205        222        221        205        206        223        222        206        207        224        223        207        208        225        224        208        209        226        225        209        210        227        226        210        211        228        227        211        212        229        228        212        213        230        229        213        214        231        230        214        215        232        231        215        216        233        232        216        217        234        233        217        218        235        234        218        219        236        235        219        220        237        236        221        222        239        238        222        223        240        239        223        224        241        240        224        225        242        241        225        226        243        242        226        227        244        243        227        228        245        244        228        229        246        245        229        230        247        246        230        231        248        247        231        232        249        248        232        233        250        249        233        234        251        250        234        235        252        251        235        236        253        252        236        237        254        253        238        239        256        255        239        240        257        256        240        241        258        257        241        242        259        258        242        243        260        259        243        244        261        260        244        245        262        261        245        246        263        262        246        247        264        263        247        248        265        264        248        249        266        265        249        250        267        266        250        251        268        267        251        252        269        268        252        253        270        269        253        254        271        270        255        256        273        272        256        257        274        273        257        258        275        274        258        259        276        275        259        260        277        276        260        261        278        277        261        262        279        278        262        263        280        279        263        264        281        280        264        265        282        281        265        266        283        282        266        267        284        283        267        268        285        284        268        269        286        285        269        270        287        286        270        271        288        287        306        307          1          0        307        308          2          1        308        309          3          2        309        310          4          3        310        311          5          4        311        312          6          5        312        313          7          6        313        314          8          7        314        315          9          8        315        316         10          9        316        317         11         10        317        318         12         11        318        319         13         12        319        320         14         13        320        321         15         14        321        322         16         15        323        324        307        306        324        325        308        307        325        326        309        308        326        327        310        309        327        328        311        310        328        329        312        311        329        330        313        312        330        331        314        313        331        332        315        314        332        333        316        315        333        334        317        316        334        335        318        317        335        336        319        318        336        337        320        319        337        338        321        320        338        339        322        321        340        341        324        323        341        342        325        324        342        343        326        325        343        344        327        326        344        345        328        327        345        346        329        328        346        347        330        329        347        348        331        330        348        349        332        331        349        350        333        332        350        351        334        333        351        352        335        334        352        353        336        335        353        354        337        336        354        355        338        337        355        356        339        338        357        358        341        340        358        359        342        341        359        360        343        342        360        361        344        343        361        362        345        344        362        363        346        345        363        364        347        346        364        365        348        347        365        366        349        348        366        367        350        349        367        368        351        350        368        369        352        351        369        370        353        352        370        371        354        353        371        372        355        354        372        373        356        355        374        375        358        357        375        376        359        358        376        377        360        359        377        378        361        360        378        379        362        361        379        380        363        362        380        381        364        363        381        382        365        364        382        383        366        365        383        384        367        366        384        385        368        367        385        386        369        368        386        387        370        369        387        388        371        370        388        389        372        371        389        390        373        372        391        392        375        374        392        393        376        375        393        394        377        376        394        395        378        377        395        396        379        378        396        397        380        379        397        398        381        380        398        399        382        381        399        400        383        382        400        401        384        383        401        402        385        384        402        403        386        385        403        404        387        386        404        405        388        387        405        406        389        388        406        407        390        389        408        409        392        391        409        410        393        392        410        411        394        393        411        412        395        394        412        413        396        395        413        414        397        396        414        415        398        397        415        416        399        398        416        417        400        399        417        418        401        400        418        419        402        401        419        420        403        402        420        421        404        403        421        422        405        404        422        423        406        405        423        424        407        406        425        426        409        408        426        427        410        409        427        428        411        410        428        429        412        411        429        430        413        412        430        431        414        413        431        432        415        414        432        433        416        415        433        434        417        416        434        435        418        417        435        436        419        418        436        437        420        419        437        438        421        420        438        439        422        421        439        440        423        422        440        441        424        423        442        443        426        425        443        444        427        426        444        445        428        427        445        446        429        428        446        447        430        429        447        448        431        430        448        449        432        431        449        450        433        432        450        451        434        433        451        452        435        434        452        453        436        435        453        454        437        436        454        455        438        437        455        456        439        438        456        457        440        439        457        458        441        440        459        460        443        442        460        461        444        443        461        462        445        444        462        463        446        445        463        464        447        446        464        465        448        447        465        466        449        448        466        467        450        449        467        468        451        450        468        469        452        451        469        470        453        452        470        471        454        453        471        472        455        454        472        473        456        455        473        474        457        456        474        475        458        457        476        477        460        459        477        478        461        460        478        479        462        461        479        480        463        462        480        481        464        463        481        482        465        464        482        483        466        465        483        484        467        466        484        485        468        467        485        486        469        468        486        487        470        469        487        488        471        470        488        489        472        471        489        490        473        472        490        491        474        473        491        492        475        474        493        494        477        476        494        495        478        477        495        496        479        478        496        497        480        479        497        498        481        480        498        499        482        481        499        500        483        482        500        501        484        483        501        502        485        484        502        503        486        485        503        504        487        486        504        505        488        487        505        506        489        488        506        507        490        489        507        508        491        490        508        509        492        491        510        511        494        493        511        512        495        494        512        513        496        495        513        514        497        496        514        515        498        497        515        516        499        498        516        517        500        499        517        518        501        500        518        519        502        501        519        520        503        502        520        521        504        503        521        522        505        504        522        523        506        505        523        524        507        506        524        525        508        507        525        526        509        508        527        528        511        510        528        529        512        511        529        530        513        512        530        531        514        513        531        532        515        514        532        533        516        515        533        534        517        516        534        535        518        517        535        536        519        518        536        537        520        519        537        538        521        520        538        539        522        521        539        540        523        522        540        541        524        523        541        542        525        524        542        543        526        525        544        545        528        527        545        546        529        528        546        547        530        529        547        548        531        530        548        549        532        531        549        550        533        532        550        551        534        533        551        552        535        534        552        553        536        535        553        554        537        536        554        555        538        537        555        556        539        538        556        557        540        539        557        558        541        540        558        559        542        541        559        560        543        542        561        562        545        544        562        563        546        545        563        564        547        546        564        565        548        547        565        566        549        548        566        567        550        549        567        568        551        550        568        569        552        551        569        570        553        552        570        571        554        553        571        572        555        554        572        573        556        555        573        574        557        556        574        575        558        557        575        576        559        558        576        577        560        559        578        579        596        595        579        580        597        596        580        581        598        597        581        582        599        598        582        583        600        599        583        584        601        600        584        585        602        601        585        586        603        602        586        587        604        603        587        588        605        604        588        589        606        605        589        590        607        606        590        591        608        607        591        592        609        608        592        593        610        609        593        594        611        610        595        596        613        612        596        597        614        613        597        598        615        614        598        599        616        615        599        600        617        616        600        601        618        617        601        602        619        618        602        603        620        619        603        604        621        620        604        605        622        621        605        606        623        622        606        607        624        623        607        608        625        624        608        609        626        625        609        610        627        626        610        611        628        627        612        613        630        629        613        614        631        630        614        615        632        631        615        616        633        632        616        617        634        633        617        618        635        634        618        619        636        635        619        620        637        636        620        621        638        637        621        622        639        638        622        623        640        639        623        624        641        640        624        625        642        641        625        626        643        642        626        627        644        643        627        628        645        644        629        630        647        646        630        631        648        647        631        632        649        648        632        633        650        649        633        634        651        650        634        635        652        651        635        636        653        652        636        637        654        653        637        638        655        654        638        639        656        655        639        640        657        656        640        641        658        657        641        642        659        658        642        643        660        659        643        644        661        660        644        645        662        661        646        647        664        663        647        648        665        664        648        649        666        665        649        650        667        666        650        651        668        667        651        652        669        668        652        653        670        669        653        654        671        670        654        655        672        671        655        656        673        672        656        657        674        673        657        658        675        674        658        659        676        675        659        660        677        676        660        661        678        677        661        662        679        678        663        664        681        680        664        665        682        681        665        666        683        682        666        667        684        683        667        668        685        684        668        669        686        685        669        670        687        686        670        671        688        687        671        672        689        688        672        673        690        689        673        674        691        690        674        675        692        691        675        676        693        692        676        677        694        693        677        678        695        694        678        679        696        695        680        681        698        697        681        682        699        698        682        683        700        699        683        684        701        700        684        685        702        701        685        686        703        702        686        687        704        703        687        688        705        704        688        689        706        705        689        690        707        706        690        691        708        707        691        692        709        708        692        693        710        709        693        694        711        710        694        695        712        711        695        696        713        712        697        698        715        714        698        699        716        715        699        700        717        716        700        701        718        717        701        702        719        718        702        703        720        719        703        704        721        720        704        705        722        721        705        706        723        722        706        707        724        723        707        708        725        724        708        709        726        725        709        710        727        726        710        711        728        727        711        712        729        728        712        713        730        729        714        715        732        731        715        716        733        732        716        717        734        733        717        718        735        734        718        719        736        735        719        720        737        736        720        721        738        737        721        722        739        738        722        723        740        739        723        724        741        740        724        725        742        741        725        726        743        742        726        727        744        743        727        728        745        744        728        729        746        745        729        730        747        746        731        732        749        748        732        733        750        749        733        734        751        750        734        735        752        751        735        736        753        752        736        737        754        753        737        738        755        754        738        739        756        755        739        740        757        756        740        741        758        757        741        742        759        758        742        743        760        759        743        744        761        760        744        745        762        761        745        746        763        762        746        747        764        763        748        749        766        765        749        750        767        766        750        751        768        767        751        752        769        768        752        753        770        769        753        754        771        770        754        755        772        771        755        756        773        772        756        757        774        773        757        758        775        774        758        759        776        775        759        760        777        776        760        761        778        777        761        762        779        778        762        763        780        779        763        764        781        780        765        766        783        782        766        767        784        783        767        768        785        784        768        769        786        785        769        770        787        786        770        771        788        787        771        772        789        788        772        773        790        789        773        774        791        790        774        775        792        791        775        776        793        792        776        777        794        793        777        778        795        794        778        779        796        795        779        780        797        796        780        781        798        797        782        783        800        799        783        784        801        800        784        785        802        801        785        786        803        802        786        787        804        803        787        788        805        804        788        789        806        805        789        790        807        806        790        791        808        807        791        792        809        808        792        793        810        809        793        794        811        810        794        795        812        811        795        796        813        812        796        797        814        813        797        798        815        814        799        800        817        816        800        801        818        817        801        802        819        818        802        803        820        819        803        804        821        820        804        805        822        821        805        806        823        822        806        807        824        823        807        808        825        824        808        809        826        825        809        810        827        826        810        811        828        827        811        812        829        828        812        813        830        829        813        814        831        830        814        815        832        831        816        817        834        833        817        818        835        834        818        819        836        835        819        820        837        836        820        821        838        837        821        822        839        838        822        823        840        839        823        824        841        840        824        825        842        841        825        826        843        842        826        827        844        843        827        828        845        844        828        829        846        845        829        830        847        846        830        831        848        847        831        832        849        848        833        834        562        561        834        835        563        562        835        836        564        563        836        837        565        564        837        838        566        565        838        839        567        566        839        840        568        567        840        841        569        568        841        842        570        569        842        843        571        570        843        844        572        571        844        845        573        572        845        846        574        573        846        847        575        574        847        848        576        575        848        849        577        576        884        885        579        578        885        886        580        579        886        887        581        580        887        888        582        581        888        889        583        582        889        890        584        583        890        891        585        584        891        892        586        585        892        893        587        586        893        894        588        587        894        895        589        588        895        896        590        589        896        897        591        590        897        898        592        591        898        899        593        592        899        900        594        593        901        902        885        884        902        903        886        885        903        904        887        886        904        905        888        887        905        906        889        888        906        907        890        889        907        908        891        890        908        909        892        891        909        910        893        892        910        911        894        893        911        912        895        894        912        913        896        895        913        914        897        896        914        915        898        897        915        916        899        898        916        917        900        899        918        919        902        901        919        920        903        902        920        921        904        903        921        922        905        904        922        923        906        905        923        924        907        906        924        925        908        907        925        926        909        908        926        927        910        909        927        928        911        910        928        929        912        911        929        930        913        912        930        931        914        913        931        932        915        914        932        933        916        915        933        934        917        916        935        936        919        918        936        937        920        919        937        938        921        920        938        939        922        921        939        940        923        922        940        941        924        923        941        942        925        924        942        943        926        925        943        944        927        926        944        945        928        927        945        946        929        928        946        947        930        929        947        948        931        930        948        949        932        931        949        950        933        932        950        951        934        933        952        953        936        935        953        954        937        936        954        955        938        937        955        956        939        938        956        957        940        939        957        958        941        940        958        959        942        941        959        960        943        942        960        961        944        943        961        962        945        944        962        963        946        945        963        964        947        946        964        965        948        947        965        966        949        948        966        967        950        949        967        968        951        950        969        970        953        952        970        971        954        953        971        972        955        954        972        973        956        955        973        974        957        956        974        975        958        957        975        976        959        958        976        977        960        959        977        978        961        960        978        979        962        961        979        980        963        962        980        981        964        963        981        982        965        964        982        983        966        965        983        984        967        966        984        985        968        967        986        987        970        969        987        988        971        970        988        989        972        971        989        990        973        972        990        991        974        973        991        992        975        974        992        993        976        975        993        994        977        976        994        995        978        977        995        996        979        978        996        997        980        979        997        998        981        980        998        999        982        981        999       1000        983        982       1000       1001        984        983       1001       1002        985        984       1003       1004        987        986       1004       1005        988        987       1005       1006        989        988       1006       1007        990        989       1007       1008        991        990       1008       1009        992        991       1009       1010        993        992       1010       1011        994        993       1011       1012        995        994       1012       1013        996        995       1013       1014        997        996       1014       1015        998        997       1015       1016        999        998       1016       1017       1000        999       1017       1018       1001       1000       1018       1019       1002       1001       1020       1021       1004       1003       1021       1022       1005       1004       1022       1023       1006       1005       1023       1024       1007       1006       1024       1025       1008       1007       1025       1026       1009       1008       1026       1027       1010       1009       1027       1028       1011       1010       1028       1029       1012       1011       1029       1030       1013       1012       1030       1031       1014       1013       1031       1032       1015       1014       1032       1033       1016       1015       1033       1034       1017       1016       1034       1035       1018       1017       1035       1036       1019       1018       1037       1038       1021       1020       1038       1039       1022       1021       1039       1040       1023       1022       1040       1041       1024       1023       1041       1042       1025       1024       1042       1043       1026       1025       1043       1044       1027       1026       1044       1045       1028       1027       1045       1046       1029       1028       1046       1047       1030       1029       1047       1048       1031       1030       1048       1049       1032       1031       1049       1050       1033       1032       1050       1051       1034       1033       1051       1052       1035       1034       1052       1053       1036       1035       1054       1055       1038       1037       1055       1056       1039       1038       1056       1057       1040       1039       1057       1058       1041       1040       1058       1059       1042       1041       1059       1060       1043       1042       1060       1061       1044       1043       1061       1062       1045       1044       1062       1063       1046       1045       1063       1064       1047       1046       1064       1065       1048       1047       1065       1066       1049       1048       1066       1067       1050       1049       1067       1068       1051       1050       1068       1069       1052       1051       1069       1070       1053       1052       1071       1072       1055       1054       1072       1073       1056       1055       1073       1074       1057       1056       1074       1075       1058       1057       1075       1076       1059       1058       1076       1077       1060       1059       1077       1078       1061       1060       1078       1079       1062       1061       1079       1080       1063       1062       1080       1081       1064       1063       1081       1082       1065       1064       1082       1083       1066       1065       1083       1084       1067       1066       1084       1085       1068       1067       1085       1086       1069       1068       1086       1087       1070       1069       1088       1089       1072       1071       1089       1090       1073       1072       1090       1091       1074       1073       1091       1092       1075       1074       1092       1093       1076       1075       1093       1094       1077       1076       1094       1095       1078       1077       1095       1096       1079       1078       1096       1097       1080       1079       1097       1098       1081       1080       1098       1099       1082       1081       1099       1100       1083       1082       1100       1101       1084       1083       1101       1102       1085       1084       1102       1103       1086       1085       1103       1104       1087       1086       1105       1106       1089       1088       1106       1107       1090       1089       1107       1108       1091       1090       1108       1109       1092       1091       1109       1110       1093       1092       1110       1111       1094       1093       1111       1112       1095       1094       1112       1113       1096       1095       1113       1114       1097       1096       1114       1115       1098       1097       1115       1116       1099       1098       1116       1117       1100       1099       1117       1118       1101       1100       1118       1119       1102       1101       1119       1120       1103       1102       1120       1121       1104       1103       1122       1123       1106       1105       1123       1124       1107       1106       1124       1125       1108       1107       1125       1126       1109       1108       1126       1127       1110       1109       1127       1128       1111       1110       1128       1129       1112       1111       1129       1130       1113       1112       1130       1131       1114       1113       1131       1132       1115       1114       1132       1133       1116       1115       1133       1134       1117       1116       1134       1135       1118       1117       1135       1136       1119       1118       1136       1137       1120       1119       1137       1138       1121       1120        272        273       1123       1122        273        274       1124       1123        274        275       1125       1124        275        276       1126       1125        276        277       1127       1126        277        278       1128       1127        278        279       1129       1128        279        280       1130       1129        280        281       1131       1130        281        282       1132       1131        282        283       1133       1132        283        284       1134       1133        284        285       1135       1134        285        286       1136       1135        286        287       1137       1136        287        288       1138       1137 </DataArray>
<DataArray type="Int32"                                    Name="offsets"                                                      NumberOfComponents=" 1" format="ascii">
         4          8         12         16         20         24         28         32         36         40         44         48         52         56         60         64         68         72         76         80         84         88         92         96        100        104        108        112        116        120        124        128        132        136        140        144        148        152        156        160        164        168        172        176        180        184        188        192        196        200        204        208        212        216        220        224        228        232        236        240        244        248        252        256        260        264        268        272        276        280        284        288        292        296        300        304        308        312        316        320        324        328        332        336        340        344        348        352        356        360        364        368        372        376        380        384        388        392        396        400        404        408        412        416        420        424        428        432        436        440        444        448        452        456        460        464        468        472        476        480        484        488        492        496        500        504        508        512        516        520        524        528        532        536        540        544        548        552        556        560        564        568        572        576        580        584        588        592        596        600        604        608        612        616        620        624        628        632        636        640        644        648        652        656        660        664        668        672        676        680        684        688        692        696        700        704        708        712        716        720        724        728        732        736        740        744        748        752        756        760        764        768        772        776        780        784        788        792        796        800        804        808        812        816        820        824        828        832        836        840        844        848        852        856        860        864        868        872        876        880        884        888        892        896        900        904        908        912        916        920        924        928        932        936        940        944        948        952        956        960        964        968        972        976        980        984        988        992        996       1000       1004       1008       1012       1016       1020       1024       1028       1032       1036       1040       1044       1048       1052       1056       1060       1064       1068       1072       1076       1080       1084       1088       1092       1096       1100       1104       1108       1112       1116       1120       1124       1128       1132       1136       1140       1144       1148       1152       1156       1160       1164       1168       1172       1176       1180       1184       1188       1192       1196       1200       1204       1208       1212       1216       1220       1224       1228       1232       1236       1240       1244       1248       1252       1256       1260       1264       1268       1272       1276       1280       1284       1288       1292       1296       1300       1304       1308       1312       1316       1320       1324       1328       1332       1336       1340       1344       1348       1352       1356       1360       1364       1368       1372       1376       1380       1384       1388       1392       1396       1400       1404       1408       1412       1416       1420       1424       1428       1432       1436       1440       1444       1448       1452       1456       1460       1464       1468       1472       1476       1480       1484       1488       1492       1496       1500       1504       1508       1512       1516       1520       1524       1528       1532       1536       1540       1544       1548       1552       1556       1560       1564       1568       1572       1576       1580       1584       1588       1592       1596       1600       1604       1608       1612       1616       1620       1624       1628       1632       1636       1640       1644       1648       1652       1656       1660       1664       1668       1672       1676       1680       1684       1688       1692       1696       1700       1704       1708       1712       1716       1720       1724       1728       1732       1736       1740       1744       1748       1752       1756       1760       1764       1768       1772       1776       1780       1784       1788       1792       1796       1800       1804       1808       1812       1816       1820       1824       1828       1832       1836       1840       1844       1848       1852       1856       1860       1864       1868       1872       1876       1880       1884       1888       1892       1896       1900       1904       1908       1912       1916       1920       1924       1928       1932       1936       1940       1944       1948       1952       1956       1960       1964       1968       1972       1976       1980       1984       1988       1992       1996       2000       2004       2008       2012       2016       2020       2024       2028       2032       2036       2040       2044       2048       2052       2056       2060       2064       2068       2072       2076       2080       2084       2088       2092       2096       2100       2104       2108       2112       2116       2120       2124       2128       2132       2136       2140       2144       2148       2152       2156       2160       2164       2168       2172       2176       2180       2184       2188       2192       2196       2200       2204       2208       2212       2216       2220       2224       2228       2232       2236       2240       2244       2248       2252       2256       2260       2264       2268       2272       2276       2280       2284       2288       2292       2296       2300       2304       2308       2312       2316       2320       2324       2328       2332       2336       2340       2344       2348       2352       2356       2360       2364       2368       2372       2376       2380       2384       2388       2392       2396       2400       2404       2408       2412       2416       2420       2424       2428       2432       2436       2440       2444       2448       2452       2456       2460       2464       2468       2472       2476       2480       2484       2488       2492       2496       2500       2504       2508       2512       2516       2520       2524       2528       2532       2536       2540       2544       2548       2552       2556       2560       2564       2568       2572       2576       2580       2584       2588       2592       2596       2600       2604       2608       2612       2616       2620       2624       2628       2632       2636       2640       2644       2648       2652       2656       2660       2664       2668       2672       2676       2680       2684       2688       2692       2696       2700       2704       2708       2712       2716       2720       2724       2728       2732       2736       2740       2744       2748       2752       2756       2760       2764       2768       2772       2776       2780       2784       2788       2792       2796       2800       2804       2808       2812       2816       2820       2824       2828       2832       2836       2840       2844       2848       2852       2856       2860       2864       2868       2872       2876       2880       2884       2888       2892       2896       2900       2904       2908       2912       2916       2920       2924       2928       2932       2936       2940       2944       2948       2952       2956       2960       2964       2968       2972       2976       2980       2984       2988       2992       2996       3000       3004       3008       3012       3016       3020       3024       3028       3032       3036       3040       3044       3048       3052       3056       3060       3064       3068       3072       3076       3080       3084       3088       3092       3096       3100       3104       3108       3112       3116       3120       3124       3128       3132       3136       3140       3144       3148       3152       3156       3160       3164       3168       3172       3176       3180       3184       3188       3192       3196       3200       3204       3208       3212       3216       3220       3224       3228       3232       3236       3240       3244       3248       3252       3256       3260       3264       3268       3272       3276       3280       3284       3288       3292       3296       3300       3304       3308       3312       3316       3320       3324       3328       3332       3336       3340       3344       3348       3352       3356       3360       3364       3368       3372       3376       3380       3384       3388       3392       3396       3400       3404       3408       3412       3416       3420       3424       3428       3432       3436       3440       3444       3448       3452       3456       3460       3464       3468       3472       3476       3480       3484       3488       3492       3496       3500       3504       3508       3512       3516       3520       3524       3528       3532       3536       3540       3544       3548       3552       3556       3560       3564       3568       3572       3576       3580       3584       3588       3592       3596       3600       3604       3608       3612       3616       3620       3624       3628       3632       3636       3640       3644       3648       3652       3656       3660       3664       3668       3672       3676       3680       3684       3688       3692       3696       3700       3704       3708       3712       3716       3720       3724       3728       3732       3736       3740       3744       3748       3752       3756       3760       3764       3768       3772       3776       3780       3784       3788       3792       3796       3800       3804       3808       3812       3816       3820       3824       3828       3832       3836       3840       3844       3848       3852       3856       3860       3864       3868       3872       3876       3880       3884       3888       3892       3896       3900       3904       3908       3912       3916       3920       3924       3928       3932       3936       3940       3944       3948       3952       3956       3960       3964       3968       3972       3976       3980       3984       3988       3992       3996       4000       4004       4008       4012       4016       4020       4024       4028       4032       4036       4040       4044       4048       4052       4056       4060       4064       4068       4072       4076       4080       4084       4088       4092       4096 </DataArray>
<DataArray type="UInt8"                                    Name="types"                                                      NumberOfComponents=" 1" format="ascii">
         9          9          9          9          9          9          9          9          9          9          9          9          9          9          9          9          9          9          9          9          9          9          9          9          9          9          9          9          9          9          9          9          9          9          9          9          9          9          9          9          9          9          9          9          9          9          9          9          9          9          9          9          9          9          9          9          9          9          9          9          9          9          9          9          9          9          9          9          9          9          9          9          9          9          9          9          9          9          9          9          9          9          9          9          9          9          9          9          9          9          9          9          9          9          9          9          9          9          9          9          9          9          9          9          9          9          9          9          9          9          9          9          9          9          9          9          9          9          9          9          9          9          9          9          9          9          9          9          9          9          9          9          9          9          9          9          9          9          9          9          9          9          9          9          9          9          9          9          9          9          9          9          9          9          9          9          9          9          9          9          9          9          9          9          9          9          9          9          9          9          9          9          9          9          9          9          9          9          9          9          9          9          9          9          9          9          9          9          9          9          9          9          9          9          9          9          9          9          9          9          9          9          9          9          9          9          9          9          9          9          9          9          9          9          9          9          9          9          9          9          9          9          9          9          9          9          9          9          9          9          9          9          9          9          9          9          9          9          9          9          9          9          9          9          9          9          9          9          9          9          9          9          9          9          9          9          9          9          9          9          9          9          9          9          9          9          9          9          9          9          9          9          9          9          9          9          9          9          9          9          9          9          9          9          9          9          9          9          9          9          9          9          9          9          9          9          9          9          9          9          9          9          9          9          9          9          9          9          9          9          9          9          9          9          9          9          9          9          9          9          9          9          9          9          9          9          9          9          9          9          9          9          9          9          9          9          9          9          9          9          9          9          9          9          9          9          9          9          9          9          9          9          9          9          9          9          9          9          9          9          9          9          9          9          9          9          9          9          9          9          9          9          9          9          9          9          9          9          9          9          9          9          9          9          9          9          9          9          9          9          9          9          9          9          9          9          9          9          9          9          9          9          9          9          9          9          9          9          9          9          9          9          9          9          9          9          9          9          9          9          9          9          9          9          9          9          9          9          9          9          9          9          9          9          9          9          9          9          9          9          9          9          9          9          9          9          9          9          9          9          9          9          9          9          9          9          9          9          9          9          9          9          9          9          9          9          9          9          9          9          9          9          9          9          9          9          9          9          9          9          9          9          9          9          9          9          9          9          9          9          9          9          9          9          9          9          9          9          9          9          9          9          9          9          9          9          9          9          9          9          9          9          9          9          9          9          9          9          9          9          9          9          9          9          9          9          9          9          9          9          9          9          9          9          9          9          9          9          9          9          9          9          9          9          9          9          9          9          9          9          9          9          9          9          9          9          9          9          9          9          9          9          9          9          9          9          9          9          9          9          9          9          9          9          9          9          9          9          9          9          9          9          9          9          9          9          9          9          9          9          9          9          9          9          9          9          9          9          9          9          9          9          9          9          9          9          9          9          9          9          9          9          9          9          9          9          9          9          9          9          9          9          9          9          9          9          9          9          9          9          9          9          9          9          9          9          9          9          9          9          9          9          9          9          9          9          9          9          9          9          9          9          9          9          9          9          9          9          9          9          9          9          9          9          9          9          9          9          9          9          9          9          9          9          9          9          9          9          9          9          9          9          9          9          9          9          9          9          9          9          9          9          9          9          9          9          9          9          9          9          9          9          9          9          9          9          9          9          9          9          9          9          9          9          9          9          9          9          9          9          9          9          9          9          9          9          9          9          9          9          9          9          9          9          9          9          9          9          9          9          9          9          9          9          9          9          9          9          9          9          9          9          9          9          9          9          9          9          9          9          9          9          9          9          9          9          9          9          9          9          9          9          9          9          9          9          9          9          9          9          9          9          9          9          9          9          9          9          9          9          9          9          9          9          9          9          9          9          9          9          9          9          9          9          9          9          9          9          9          9          9          9          9          9          9          9          9          9          9          9          9          9          9          9          9          9          9          9          9          9          9          9          9          9          9          9          9          9          9          9          9          9          9          9          9          9          9          9          9          9          9          9          9          9          9          9          9          9          9          9          9          9          9          9          9          9          9          9          9          9          9          9          9          9          9          9          9          9          9          9          9          9          9          9          9          9          9          9          9          9          9          9          9          9          9          9          9          9          9          9          9          9          9          9          9          9          9          9          9          9          9          9          9          9          9          9          9          9          9          9          9          9          9          9          9          9          9          9          9          9          9          9          9          9          9          9          9          9          9          9          9          9          9          9          9          9          9          9          9          9          9          9          9          9          9          9          9          9          9          9          9          9          9          9          9          9          9          9          9          9          9          9          9          9          9          9          9          9          9          9          9          9          9          9          9          9          9          9          9          9          9          9          9          9          9          9          9          9          9          9          9          9          9          9          9          9          9          9          9          9          9          9          9          9          9          9          9          9          9          9          9          9          9          9 </DataArray>
</Cells>
<CellData>
<DataArray type="Int32"                                    Name="material"                                                      NumberOfComponents=" 1" format="ascii">
         1          1          1          1          1          1          1          1          1          1          1          1          1          1          1          1          1          1          1          1          1          1          1          1          1          1          1          1          1          1          1          1          1          1          1          1          1          1          1          1          1          1          1          1          1          1          1          1          1          1          1          1          1          1          1          1          1          1          1          1          1          1          1          1          1          1          1          1          1          1          1          1          1          1          1          1          1          1          1          1          1          1          1          1          1          1          1          1          1          1          1          1          1          1          1          1          1          1          1          1          1          1          1          1          1          1          1          1          1          1          1          1          1          1          1          1          1          1          1          1          1          1          1          1          1          1          1          1          1          1          1          1          1          1          1          1          1          1          1          1          1          1          1          1          1          1          1          1          1          1          1          1          1          1          1          1          1          1          1          1          1          1          1          1          1          1          1          1          1          1          1          1          1          1          1          1          1          1          1          1          1          1          1          1          1          1          1          1          1          1          1          1          1          1          1          1          1          1          1          1          1          1          1          1          1          1          1          1          1          1          1          1          1          1          1          1          1          1          1          1          1          1          1          1          1          1          1          1          1          1          1          1          1          1          1          1          1          1          1          1          1          1          1          1          1          1          1          1          1          1          1          1          1          1          1          1          1          1          1          1          1          1          1          1          1          1          1          1          1          1          1          1          1          1          1          1          1          1          1          1          1          1          1          1          1          1          1          1          1          1          1          1          1          1          1          1          1          1          1          1          1          1          1          1          1          1          1          1          1          1          1          1          1          1          1          1          1          1          1          1          1          1          1          1          1          1          1          1          1          1          1          1          1          1          1          1          1          1          1          1          1          1          1          1          1          1          1          1          1          1          1          1          1          1          1          1          1          1          1          1          1          1          1          1          1          1          1          1          1          1          1          1          1          1          1          1          1          1          1          1          1          1          1          1          1          1          1          1          1          1          1          1          1          1          1          1          1          1          1          1          1          1          1          1          1          1          1          1          1          1          1          1          1          1          1          1          1          1          1          1          1          1          1          1          1          1          1          1          1          1          1          1          1          1          1          1          1          1          1          1          1          1          1          1          1          1          1          1          1          1          1          1          1          1          1          1          1          1          1          1          1          1          1          1          1          1          1          1          1          1          1          1          1          1          1          1          1          1          1          1          1          1          1          1          1          1          1          1          1          1          1          1          1          1          1          1          1          1          1          1          1          1          1          1          1          1          1          1          1          1          1          1          1          1          1          1          1          1          1          1          1          1          1          1          1          1          1          1          1          1          1          1          1          1          1          1          1          1          1          1          1          1          1          1          1          1          1          1          1          1          1          1          1          1          1          1          1          1          1          1          1          1          1          1          1          1          1          1          1          1          1          1          1          1          1          1          1          1          1          1          1          1          1          1          1          1          1          1          1          1          1          1          1          1          1          1          1          1          1          1          1          1          1          1          1          1          1          1          1          1          1          1          1          1          1          1          1          1          1          1          1          1          1          1          1          1          1          1          1          1          1          1          1          1          1          1          1          1          1          1          1          1          1          1          1          1          1          1          1          1          1          1          1          1          1          1          1          1          1          1          1          1          1          1          1          1          1          1          1          1          1          1          1          1          1          1          1          1          1          1          1          1          1          1          1          1          1          1          1          1          1          1          1          1          1          1          1          1          1          1          1          1          1          1          1          1          1          1          1          1          1          1          1          1          1          1          1          1          1          1          1          1          1          1          1          1          1          1          1          1          1          1          1          1          1          1          1          1          1          1          1          1          1          1          1          1          1          1          1          1          1          1          1          1          1          1          1          1          1          1          1          1          1          1          1          1          1          1          1          1          1          1          1          1          1          1          1          1          1          1          1          1          1          1          1          1          1          1          1          1          1          1          1          1          1          1          1          1          1          1          1          1          1          1          1          1          1          1          1          1          1          1          1          1          1          1          1          1          1          1          1          1          1          1          1          1          1          1          1          1          1          1          1          1          1          1          1          1          1          1          1          1          1          1          1          1          1          1          1          1          1          1          1          1          1          1          1          1          1          1          1          1          1          1          1          1          1          1          1          1          1          1          1          1          1          1          1          1          1          1          1          1          1          1          1          1          1          1          1          1          1          1          1          1          1          1          1          1          1          1          1          1          1          1          1          1          1          1          1          1          1          1          1          1          1          1          1          1          1          1          1          1          1          1          1          1          1          1          1          1          1          1          1          1          1          1          1          1          1          1          1          1          1          1          1          1          1          1          1          1          1          1          1          1          1          1          1          1          1          1          1          1          1          1          1          1          1          1          1          1          1          1          1          1          1          1          1          1          1          1          1          1          1          1          1          1          1          1          1          1          1          1          1          1          1          1          1          1          1          1          1          1          1          1          1          1          1          1          1          1          1          1          1          1          1          1          1          1          1          1          1          1          1          1 </DataArray>
</CellData>
<PointData>
<DataArray type="Float64"                                    Name="u"                                                      NumberOfComponents=" 3" format="ascii">
             -0.000820266               0.000000000               0.999999984              -0.000871662              -0.000000000               0.999999984              -0.000893735               0.000000000               0.999999984              -0.000906043              -0.000000000               0.999999984              -0.000915792               0.000000000               0.999999984              -0.000925660               0.000000000               0.999999984              -0.000936513               0.000000000               0.999999984              -0.000948620               0.000000000               0.999999984              -0.000961894               0.000000000               0.999999984              -0.000976247               0.000000000               0.999999984              -0.000991283               0.000000000               0.999999984              -0.001006575               0.000000000               0.999999984              -0.001021758               0.000000000               0.999999984              -0.001036179               0.000000000               0.999999984              -0.001049241               0.000000000               0.999999984              -0.001060138               0.000000000               0.999999984              -0.001067981               0.000000000               0.999999984              -0.000815711               0.000133512               0.999999984              -0.000863064               0.000107458               0.999999984              -0.000882618               0.000095690               0.999999984              -0.000893304               0.000090975               0.999999984              -0.000901831               0.000089944               0.999999984              -0.000910794               0.000090562               0.999999984              -0.000920933               0.000092046               0.999999984              -0.000932361               0.000093722               0.999999984              -0.000944955               0.000095329               0.999999984              -0.000958410               0.000096360               0.999999984              -0.000972324               0.000096366               0.999999984              -0.000986215               0.000095057               0.999999984              -0.000999580               0.000091945               0.999999984              -0.001011907               0.000086533               0.999999984              -0.001022588               0.000078219               0.999999984              -0.001031014               0.000065876               0.999999984              -0.001036543               0.000048586               0.999999984              -0.000802256               0.000265835               0.999999984              -0.000837776               0.000214383               0.999999984              -0.000850019               0.000192135               0.999999984              -0.000856228               0.000183798               0.999999984              -0.000861861               0.000182392               0.999999984              -0.000868651               0.000184326               0.999999984              -0.000876930               0.000187718               0.999999984              -0.000886549               0.000191322               0.999999984              -0.000896993               0.000194602               0.999999984              -0.000907747               0.000196575               0.999999984              -0.000918249               0.000196449               0.999999984              -0.000927921               0.000193711               0.999999984              -0.000936373               0.000187555               0.999999984              -0.000943049               0.000177261               0.999999984              -0.000947477               0.000161783               0.999999984              -0.000949414               0.000139793               0.999999984              -0.000948772               0.000110057               0.999999984              -0.000780155               0.000395792               0.999999984              -0.000796965               0.000320453               0.999999984              -0.000798547               0.000289932               0.999999984              -0.000798595               0.000279904               0.999999984              -0.000800488               0.000279457               0.999999984              -0.000804600               0.000283508               0.999999984              -0.000810471               0.000289275               0.999999984              -0.000817376               0.000295120               0.999999984              -0.000824520               0.000300020               0.999999984              -0.000831113               0.000302698               0.999999984              -0.000836546               0.000302164               0.999999984              -0.000840215               0.000297817               0.999999984              -0.000841586               0.000288781               0.999999984              -0.000840334               0.000274342               0.999999984              -0.000836354               0.000253819               0.999999984              -0.000829756               0.000226150               0.999999984              -0.000821019               0.000190729               0.999999984              -0.000749771               0.000522145               0.999999984              -0.000742569               0.000425617               0.999999984              -0.000732328               0.000389575               0.999999984              -0.000726357               0.000379749               0.999999984              -0.000724770               0.000381663               0.999999984              -0.000726492               0.000388474               0.999999984              -0.000729837               0.000396980               0.999999984              -0.000733617               0.000405027               0.999999984              -0.000736791               0.000411217               0.999999984              -0.000738285               0.000414125               0.999999984              -0.000737400               0.000412774               0.999999984              -0.000733637               0.000406684               0.999999984              -0.000726788               0.000395125               0.999999984              -0.000716813               0.000377564               0.999999984              -0.000703836               0.000353840               0.999999984              -0.000688346               0.000323919               0.999999984              -0.000671027               0.000288094               0.999999984              -0.000711683               0.000643722               0.999999984              -0.000677481               0.000529839               0.999999984              -0.000656258               0.000491208               0.999999984              -0.000645878               0.000483184               0.999999984              -0.000642227               0.000488065               0.999999984              -0.000642116               0.000498019               0.999999984              -0.000643154               0.000509018               0.999999984              -0.000643578               0.000518821               0.999999984              -0.000641947               0.000525786               0.999999984              -0.000637481               0.000528341               0.999999984              -0.000629561               0.000525740               0.999999984              -0.000617915               0.000517677               0.999999984              -0.000602477               0.000503900               0.999999984              -0.000583408               0.000484189               0.999999984              -0.000561223               0.000458876               0.999999984              -0.000536595               0.000428828               0.999999984              -0.000510281               0.000394986               0.999999984              -0.000666472               0.000759473               0.999999984              -0.000604963               0.000633215               0.999999984              -0.000575564               0.000594305               0.999999984              -0.000563155               0.000588995               0.999999984              -0.000558915               0.000596948               0.999999984              -0.000557747               0.000609551               0.999999984              -0.000556420               0.000622494               0.999999984              -0.000552918               0.000633433               0.999999984              -0.000546126               0.000640484               0.999999984              -0.000535112               0.000642186               0.999999984              -0.000519482               0.000638091               0.999999984              -0.000499062               0.000628310               0.999999984              -0.000474109               0.000612804               0.999999984              -0.000445190               0.000592058               0.999999984              -0.000413214               0.000566698               0.999999984              -0.000379042               0.000537939               0.999999984              -0.000343599               0.000507291               0.999999984              -0.000615293               0.000868035               0.999999984              -0.000528575               0.000735485               0.999999984              -0.000494662               0.000698038               0.999999984              -0.000482976               0.000695225               0.999999984              -0.000479339               0.000705750               0.999999984              -0.000477342               0.000720513               0.999999984              -0.000473512               0.000734686               0.999999984              -0.000465947               0.000745793               0.999999984              -0.000453348               0.000752321               0.999999984              -0.000434778               0.000752854               0.999999984              -0.000410168               0.000747303               0.999999984              -0.000379697               0.000736221               0.999999984              -0.000344211               0.000719927               0.999999984              -0.000304762               0.000699212               0.999999984              -0.000262610               0.000675230               0.999999984              -0.000218802               0.000649254               0.999999984              -0.000174295               0.000622681               0.999999984              -0.000559772               0.000967513               0.999999984              -0.000450921               0.000836493               0.999999984              -0.000417734               0.000800770               0.999999984              -0.000408514               0.000799834               0.999999984              -0.000406165               0.000812280               0.999999984              -0.000403431               0.000828394               0.999999984              -0.000396850               0.000843055               0.999999984              -0.000384373               0.000853925               0.999999984              -0.000364797               0.000859460               0.999999984              -0.000337464               0.000858682               0.999999984              -0.000302478               0.000851970               0.999999984              -0.000260800               0.000840116               0.999999984              -0.000213933               0.000823887               0.999999984              -0.000163464               0.000804459               0.999999984              -0.000110785               0.000783258               0.999999984              -0.000057190               0.000761401               0.999999984              -0.000003505               0.000739505               0.999999984              -0.000502325               0.001061624               0.999999984              -0.000386040               0.000949329               0.999999984              -0.000349985               0.000909485               0.999999984              -0.000339851               0.000903002               0.999999984              -0.000337598               0.000911398               0.999999984              -0.000335943               0.000925621               0.999999984              -0.000331302               0.000940793               0.999999984              -0.000321728               0.000953996               0.999999984              -0.000306286               0.000963904               0.999999984              -0.000283750               0.000969549               0.999999984              -0.000253642               0.000970554               0.999999984              -0.000216487               0.000967201               0.999999984              -0.000173144               0.000960077               0.999999984              -0.000124999               0.000949834               0.999999984              -0.000073482               0.000937520               0.999999984              -0.000019765               0.000923962               0.999999984               0.000034734               0.000910185               0.999999984              -0.000439570               0.001147221               0.999999984              -0.000324025               0.001058503               0.999999984              -0.000285299               0.001021013               0.999999984              -0.000273396               0.001011481               0.999999984              -0.000270411               0.001016940               0.999999984              -0.000269057               0.001029755               0.999999984              -0.000265891               0.001045241               0.999999984              -0.000258734               0.001060618               0.999999984              -0.000246592               0.001074369               0.999999984              -0.000228420               0.001085429               0.999999984              -0.000203425               0.001093054               0.999999984              -0.000171230               0.001097163               0.999999984              -0.000132186               0.001098014               0.999999984              -0.000087148               0.001096121               0.999999984              -0.000037398               0.001092066               0.999999984               0.000015937               0.001086515               0.999999984               0.000071235               0.001080472               0.999999984              -0.000372722               0.001222236               0.999999984              -0.000264876               0.001160675               0.999999984              -0.000225366               0.001130197               0.999999984              -0.000211509               0.001121113               0.999999984              -0.000207202               0.001125441               0.999999984              -0.000205633               0.001137634               0.999999984              -0.000203262               0.001153717               0.999999984              -0.000198037               0.001171245               0.999999984              -0.000188614               0.001188610               0.999999984              -0.000174184               0.001204719               0.999999984              -0.000153844               0.001218612               0.999999984              -0.000126864               0.001229789               0.999999984              -0.000092746               0.001238112               0.999999984              -0.000051931               0.001243809               0.999999984              -0.000004917               0.001247234               0.999999984               0.000047403               0.001249135               0.999999984               0.000103676               0.001250382               0.999999984              -0.000302432               0.001285343               0.999999984              -0.000208597               0.001251474               0.999999984              -0.000170937               0.001231538               0.999999984              -0.000155990               0.001226016               0.999999984              -0.000150502               0.001231393               0.999999984              -0.000148408               0.001244059               0.999999984              -0.000146323               0.001261376               0.999999984              -0.000142298               0.001281385               0.999999984              -0.000135188               0.001302412               0.999999984              -0.000124136               0.001323256               0.999999984              -0.000108141               0.001343033               0.999999984              -0.000086318               0.001361051               0.999999984              -0.000057955               0.001376803               0.999999984              -0.000022537               0.001390147               0.999999984               0.000020150               0.001401260               0.999999984               0.000070164               0.001410767               0.999999984               0.000126929               0.001419192               0.999999984              -0.000229360               0.001335563               0.999999984              -0.000154596               0.001326881               0.999999984              -0.000122107               0.001318952               0.999999984              -0.000107941               0.001319079               0.999999984              -0.000102001               0.001327349               0.999999984              -0.000099402               0.001342068               0.999999984              -0.000097369               0.001361437               0.999999984              -0.000094237               0.001383981               0.999999984              -0.000088984               0.001408463               0.999999984              -0.000080813               0.001433811               0.999999984              -0.000068946               0.001459161               0.999999984              -0.000052409               0.001483777               0.999999984              -0.000030327               0.001506963               0.999999984              -0.000001799               0.001528365               0.999999984               0.000034244               0.001547798               0.999999984               0.000078839               0.001565260               0.999999984               0.000132734               0.001581137               0.999999984              -0.000154168               0.001372020               0.999999984              -0.000102225               0.001383399               0.999999984              -0.000078309               0.001386416               0.999999984              -0.000067145               0.001392734               0.999999984              -0.000061949               0.001404704               0.999999984              -0.000059426               0.001422182               0.999999984              -0.000057781               0.001444122               0.999999984              -0.000055522               0.001469349               0.999999984              -0.000051818               0.001496942               0.999999984              -0.000046234               0.001526214               0.999999984              -0.000038366               0.001556523               0.999999984              -0.000027241               0.001586979               0.999999984              -0.000011960               0.001617018               0.999999984               0.000008465               0.001646183               0.999999984               0.000035017               0.001673851               0.999999984               0.000069297               0.001699440               0.999999984               0.000113250               0.001722859               0.999999984              -0.000077484               0.001394109               0.999999984              -0.000050870               0.001418413               0.999999984              -0.000038206               0.001429059               0.999999984              -0.000032010               0.001440050               0.999999984              -0.000028924               0.001455164               0.999999984              -0.000027401               0.001474938               0.999999984              -0.000026436               0.001498952               0.999999984              -0.000025263               0.001526449               0.999999984              -0.000023318               0.001556640               0.999999984              -0.000020404               0.001588938               0.999999984              -0.000016407               0.001622709               0.999999984              -0.000010694               0.001657377               0.999999984              -0.000002744               0.001692382               0.999999984               0.000007946               0.001727037               0.999999984               0.000022137               0.001760687               0.999999984               0.000040848               0.001792591               0.999999984               0.000065909               0.001822094               0.999999984               0.000000000               0.001401516               0.999999984              -0.000000000               0.001430267               0.999999984              -0.000000000               0.001443671               0.999999984              -0.000000000               0.001456438               0.999999984              -0.000000000               0.001472754               0.999999984              -0.000000000               0.001493425               0.999999984               0.000000000               0.001518221               0.999999984               0.000000000               0.001546673               0.999999984              -0.000000000               0.001577959               0.999999984              -0.000000000               0.001611392               0.999999984              -0.000000000               0.001646530               0.999999984              -0.000000000               0.001682693               0.999999984               0.000000000               0.001719359               0.999999984               0.000000000               0.001755976               0.999999984              -0.000000000               0.001791868               0.999999984               0.000000000               0.001826184               0.999999984               0.000000000               0.001857989               0.999999984              -0.000820266               0.000000000               0.999999984              -0.000871662              -0.000000000               0.999999984              -0.000893735               0.000000000               0.999999984              -0.000906043              -0.000000000               0.999999984              -0.000915792               0.000000000               0.999999984              -0.000925660               0.000000000               0.999999984              -0.000936513               0.000000000               0.999999984              -0.000948620               0.000000000               0.999999984              -0.000961894               0.000000000               0.999999984              -0.000976247               0.000000000               0.999999984              -0.000991283               0.000000000               0.999999984              -0.001006575               0.000000000               0.999999984              -0.001021758               0.000000000               0.999999984              -0.001036179               0.000000000               0.999999984              -0.001049241               0.000000000               0.999999984              -0.001060138               0.000000000               0.999999984              -0.001067981               0.000000000               0.999999984              -0.000815711              -0.000133512               0.999999984              -0.000863064              -0.000107458               0.999999984              -0.000882618              -0.000095690               0.999999984              -0.000893304              -0.000090975               0.999999984              -0.000901831              -0.000089944               0.999999984              -0.000910794              -0.000090562               0.999999984              -0.000920933              -0.000092046               0.999999984              -0.000932361              -0.000093722               0.999999984              -0.000944955              -0.000095329               0.999999984              -0.000958410              -0.000096360               0.999999984              -0.000972324              -0.000096366               0.999999984              -0.000986215              -0.000095057               0.999999984              -0.000999580              -0.000091945               0.999999984              -0.001011907              -0.000086533               0.999999984              -0.001022588              -0.000078219               0.999999984              -0.001031014              -0.000065876               0.999999984              -0.001036543              -0.000048586               0.999999984              -0.000802256              -0.000265835               0.999999984              -0.000837776              -0.000214383               0.999999984              -0.000850019              -0.000192135               0.999999984              -0.000856228              -0.000183798               0.999999984              -0.000861861              -0.000182392               0.999999984              -0.000868651              -0.000184326               0.999999984              -0.000876930              -0.000187718               0.999999984              -0.000886549              -0.000191322               0.999999984              -0.000896993              -0.000194602               0.999999984              -0.000907747              -0.000196575               0.999999984              -0.000918249              -0.000196449               0.999999984              -0.000927921              -0.000193711               0.999999984              -0.000936373              -0.000187555               0.999999984              -0.000943049              -0.000177261               0.999999984              -0.000947477              -0.000161783               0.999999984              -0.000949414              -0.000139793               0.999999984              -0.000948772              -0.000110057               0.999999984              -0.000780155              -0.000395792               0.999999984              -0.000796965              -0.000320453               0.999999984              -0.000798547              -0.000289932               0.999999984              -0.000798595              -0.000279904               0.999999984              -0.000800488              -0.000279457               0.999999984              -0.000804600              -0.000283508               0.999999984              -0.000810471              -0.000289275               0.999999984              -0.000817376              -0.000295120               0.999999984              -0.000824520              -0.000300020               0.999999984              -0.000831113              -0.000302698               0.999999984              -0.000836546              -0.000302164               0.999999984              -0.000840215              -0.000297817               0.999999984              -0.000841586              -0.000288781               0.999999984              -0.000840334              -0.000274342               0.999999984              -0.000836354              -0.000253819               0.999999984              -0.000829756              -0.000226150               0.999999984              -0.000821019              -0.000190729               0.999999984              -0.000749771              -0.000522145               0.999999984              -0.000742569              -0.000425617               0.999999984              -0.000732328              -0.000389575               0.999999984              -0.000726357              -0.000379749               0.999999984              -0.000724770              -0.000381663               0.999999984              -0.000726492              -0.000388474               0.999999984              -0.000729837              -0.000396980               0.999999984              -0.000733617              -0.000405027               0.999999984              -0.000736791              -0.000411217               0.999999984              -0.000738285              -0.000414125               0.999999984              -0.000737400              -0.000412774               0.999999984              -0.000733637              -0.000406684               0.999999984              -0.000726788              -0.000395125               0.999999984              -0.000716813              -0.000377564               0.999999984              -0.000703836              -0.000353840               0.999999984              -0.000688346              -0.000323919               0.999999984              -0.000671027              -0.000288094               0.999999984              -0.000711683              -0.000643722               0.999999984              -0.000677481              -0.000529839               0.999999984              -0.000656258              -0.000491208               0.999999984              -0.000645878              -0.000483184               0.999999984              -0.000642227              -0.000488065               0.999999984              -0.000642116              -0.000498019               0.999999984              -0.000643154              -0.000509018               0.999999984              -0.000643578              -0.000518821               0.999999984              -0.000641947              -0.000525786               0.999999984              -0.000637481              -0.000528341               0.999999984              -0.000629561              -0.000525740               0.999999984              -0.000617915              -0.000517677               0.999999984              -0.000602477              -0.000503900               0.999999984              -0.000583408              -0.000484189               0.999999984              -0.000561223              -0.000458876               0.999999984              -0.000536595              -0.000428828               0.999999984              -0.000510281              -0.000394986               0.999999984              -0.000666472              -0.000759473               0.999999984              -0.000604963              -0.000633215               0.999999984              -0.000575564              -0.000594305               0.999999984              -0.000563155              -0.000588995               0.999999984              -0.000558915              -0.000596948               0.999999984              -0.000557747              -0.000609551               0.999999984              -0.000556420              -0.000622494               0.999999984              -0.000552918              -0.000633433               0.999999984              -0.000546126              -0.000640484               0.999999984              -0.000535112              -0.000642186               0.999999984              -0.000519482              -0.000638091               0.999999984              -0.000499062              -0.000628310               0.999999984              -0.000474109              -0.000612804               0.999999984              -0.000445190              -0.000592058               0.999999984              -0.000413214              -0.000566698               0.999999984              -0.000379042              -0.000537939               0.999999984              -0.000343599              -0.000507291               0.999999984              -0.000615293              -0.000868035               0.999999984              -0.000528575              -0.000735485               0.999999984              -0.000494662              -0.000698038               0.999999984              -0.000482976              -0.000695225               0.999999984              -0.000479339              -0.000705750               0.999999984              -0.000477342              -0.000720513               0.999999984              -0.000473512              -0.000734686               0.999999984              -0.000465947              -0.000745793               0.999999984              -0.000453348              -0.000752321               0.999999984              -0.000434778              -0.000752854               0.999999984              -0.000410168              -0.000747303               0.999999984              -0.000379697              -0.000736221               0.999999984              -0.000344211              -0.000719927               0.999999984              -0.000304762              -0.000699212               0.999999984              -0.000262610              -0.000675230               0.999999984              -0.000218802              -0.000649254               0.999999984              -0.000174295              -0.000622681               0.999999984              -0.000559772              -0.000967513               0.999999984              -0.000450921              -0.000836493               0.999999984              -0.000417734              -0.000800770               0.999999984              -0.000408514              -0.000799834               0.999999984              -0.000406165              -0.000812280               0.999999984              -0.000403431              -0.000828394               0.999999984              -0.000396850              -0.000843055               0.999999984              -0.000384373              -0.000853925               0.999999984              -0.000364797              -0.000859460               0.999999984              -0.000337464              -0.000858682               0.999999984              -0.000302478              -0.000851970               0.999999984              -0.000260800              -0.000840116               0.999999984              -0.000213933              -0.000823887               0.999999984              -0.000163464              -0.000804459               0.999999984              -0.000110785              -0.000783258               0.999999984              -0.000057190              -0.000761401               0.999999984              -0.000003505              -0.000739505               0.999999984              -0.000502325              -0.001061624               0.999999984              -0.000386040              -0.000949329               0.999999984              -0.000349985              -0.000909485               0.999999984              -0.000339851              -0.000903002               0.999999984              -0.000337598              -0.000911398               0.999999984              -0.000335943              -0.000925621               0.999999984              -0.000331302              -0.000940793               0.999999984              -0.000321728              -0.000953996               0.999999984              -0.000306286              -0.000963904               0.999999984              -0.000283750              -0.000969549               0.999999984              -0.000253642              -0.000970554               0.999999984              -0.000216487              -0.000967201               0.999999984              -0.000173144              -0.000960077               0.999999984              -0.000124999              -0.000949834               0.999999984              -0.000073482              -0.000937520               0.999999984              -0.000019765              -0.000923962               0.999999984               0.000034734              -0.000910185               0.999999984              -0.000439570              -0.001147221               0.999999984              -0.000324025              -0.001058503               0.999999984              -0.000285299              -0.001021013               0.999999984              -0.000273396              -0.001011481               0.999999984              -0.000270411              -0.001016940               0.999999984              -0.000269057              -0.001029755               0.999999984              -0.000265891              -0.001045241               0.999999984              -0.000258734              -0.001060618               0.999999984              -0.000246592              -0.001074369               0.999999984              -0.000228420              -0.001085429               0.999999984              -0.000203425              -0.001093054               0.999999984              -0.000171230              -0.001097163               0.999999984              -0.000132186              -0.001098014               0.999999984              -0.000087148              -0.001096121               0.999999984              -0.000037398              -0.001092066               0.999999984               0.000015937              -0.001086515               0.999999984               0.000071235              -0.001080472               0.999999984              -0.000372722              -0.001222236               0.999999984              -0.000264876              -0.001160675               0.999999984              -0.000225366              -0.001130197               0.999999984              -0.000211509              -0.001121113               0.999999984              -0.000207202              -0.001125441               0.999999984              -0.000205633              -0.001137634               0.999999984              -0.000203262              -0.001153717               0.999999984              -0.000198037              -0.001171245               0.999999984              -0.000188614              -0.001188610               0.999999984              -0.000174184              -0.001204719               0.999999984              -0.000153844              -0.001218612               0.999999984              -0.000126864              -0.001229789               0.999999984              -0.000092746              -0.001238112               0.999999984              -0.000051931              -0.001243809               0.999999984              -0.000004917              -0.001247234               0.999999984               0.000047403              -0.001249135               0.999999984               0.000103676              -0.001250382               0.999999984              -0.000302432              -0.001285343               0.999999984              -0.000208597              -0.001251474               0.999999984              -0.000170937              -0.001231538               0.999999984              -0.000155990              -0.001226016               0.999999984              -0.000150502              -0.001231393               0.999999984              -0.000148408              -0.001244059               0.999999984              -0.000146323              -0.001261376               0.999999984              -0.000142298              -0.001281385               0.999999984              -0.000135188              -0.001302412               0.999999984              -0.000124136              -0.001323256               0.999999984              -0.000108141              -0.001343033               0.999999984              -0.000086318              -0.001361051               0.999999984              -0.000057955              -0.001376803               0.999999984              -0.000022537              -0.001390147               0.999999984               0.000020150              -0.001401260               0.999999984               0.000070164              -0.001410767               0.999999984               0.000126929              -0.001419192               0.999999984              -0.000229360              -0.001335563               0.999999984              -0.000154596              -0.001326881               0.999999984              -0.000122107              -0.001318952               0.999999984              -0.000107941              -0.001319079               0.999999984              -0.000102001              -0.001327349               0.999999984              -0.000099402              -0.001342068               0.999999984              -0.000097369              -0.001361437               0.999999984              -0.000094237              -0.001383981               0.999999984              -0.000088984              -0.001408463               0.999999984              -0.000080813              -0.001433811               0.999999984              -0.000068946              -0.001459161               0.999999984              -0.000052409              -0.001483777               0.999999984              -0.000030327              -0.001506963               0.999999984              -0.000001799              -0.001528365               0.999999984               0.000034244              -0.001547798               0.999999984               0.000078839              -0.001565260               0.999999984               0.000132734              -0.001581137               0.999999984              -0.000154168              -0.001372020               0.999999984              -0.000102225              -0.001383399               0.999999984              -0.000078309              -0.001386416               0.999999984              -0.000067145              -0.001392734               0.999999984              -0.000061949              -0.001404704               0.999999984              -0.000059426              -0.001422182               0.999999984              -0.000057781              -0.001444122               0.999999984              -0.000055522              -0.001469349               0.999999984              -0.000051818              -0.001496942               0.999999984              -0.000046234              -0.001526214               0.999999984              -0.000038366              -0.001556523               0.999999984              -0.000027241              -0.001586979               0.999999984              -0.000011960              -0.001617018               0.999999984               0.000008465              -0.001646183               0.999999984               0.000035017              -0.001673851               0.999999984               0.000069297              -0.001699440               0.999999984               0.000113250              -0.001722859               0.999999984              -0.000077484              -0.001394109               0.999999984              -0.000050870              -0.001418413               0.999999984              -0.000038206              -0.001429059               0.999999984              -0.000032010              -0.001440050               0.999999984              -0.000028924              -0.001455164               0.999999984              -0.000027401              -0.001474938               0.999999984              -0.000026436              -0.001498952               0.999999984              -0.000025263              -0.001526449               0.999999984              -0.000023318              -0.001556640               0.999999984              -0.000020404              -0.001588938               0.999999984              -0.000016407              -0.001622709               0.999999984              -0.000010694              -0.001657377               0.999999984              -0.000002744              -0.001692382               0.999999984               0.000007946              -0.001727037               0.999999984               0.000022137              -0.001760687               0.999999984               0.000040848              -0.001792591               0.999999984               0.000065909              -0.001822094               0.999999984               0.000000000              -0.001401516               0.999999984               0.000000000              -0.001430267               0.999999984              -0.000000000              -0.001443671               0.999999984              -0.000000000              -0.001456438               0.999999984               0.000000000              -0.001472754               0.999999984              -0.000000000              -0.001493425               0.999999984               0.000000000              -0.001518221               0.999999984              -0.000000000              -0.001546673               0.999999984               0.000000000              -0.001577959               0.999999984               0.000000000              -0.001611392               0.999999984              -0.000000000              -0.001646530               0.999999984              -0.000000000              -0.001682693               0.999999984              -0.000000000              -0.001719359               0.999999984               0.000000000              -0.001755976               0.999999984              -0.000000000              -0.001791868               0.999999984               0.000000000              -0.001826184               0.999999984              -0.000000000              -0.001857989               0.999999984               0.000820266               0.000000000               0.999999984               0.000871662               0.000000000               0.999999984               0.000893735               0.000000000               0.999999984               0.000906043              -0.000000000               0.999999984               0.000915792               0.000000000               0.999999984               0.000925660               0.000000000               0.999999984               0.000936513               0.000000000               0.999999984               0.000948620               0.000000000               0.999999984               0.000961894               0.000000000               0.999999984               0.000976247               0.000000000               0.999999984               0.000991283              -0.000000000               0.999999984               0.001006575               0.000000000               0.999999984               0.001021758              -0.000000000               0.999999984               0.001036179               0.000000000               0.999999984               0.001049241              -0.000000000               0.999999984               0.001060138               0.000000000               0.999999984               0.001067981               0.000000000               0.999999984               0.000815711              -0.000133512               0.999999984               0.000863064              -0.000107458               0.999999984               0.000882618              -0.000095690               0.999999984               0.000893304              -0.000090975               0.999999984               0.000901831              -0.000089944               0.999999984               0.000910794              -0.000090562               0.999999984               0.000920933              -0.000092046               0.999999984               0.000932361              -0.000093722               0.999999984               0.000944955              -0.000095329               0.999999984               0.000958410              -0.000096360               0.999999984               0.000972324              -0.000096366               0.999999984               0.000986215              -0.000095057               0.999999984               0.000999580              -0.000091945               0.999999984               0.001011907              -0.000086533               0.999999984               0.001022588              -0.000078219               0.999999984               0.001031014              -0.000065876               0.999999984               0.001036543              -0.000048586               0.999999984               0.000802256              -0.000265835               0.999999984               0.000837776              -0.000214383               0.999999984               0.000850019              -0.000192135               0.999999984               0.000856228              -0.000183798               0.999999984               0.000861861              -0.000182392               0.999999984               0.000868651              -0.000184326               0.999999984               0.000876930              -0.000187718               0.999999984               0.000886549              -0.000191322               0.999999984               0.000896993              -0.000194602               0.999999984               0.000907747              -0.000196575               0.999999984               0.000918249              -0.000196449               0.999999984               0.000927921              -0.000193711               0.999999984               0.000936373              -0.000187555               0.999999984               0.000943049              -0.000177261               0.999999984               0.000947477              -0.000161783               0.999999984               0.000949414              -0.000139793               0.999999984               0.000948772              -0.000110057               0.999999984               0.000780155              -0.000395792               0.999999984               0.000796965              -0.000320453               0.999999984               0.000798547              -0.000289932               0.999999984               0.000798595              -0.000279904               0.999999984               0.000800488              -0.000279457               0.999999984               0.000804600              -0.000283508               0.999999984               0.000810471              -0.000289275               0.999999984               0.000817376              -0.000295120               0.999999984               0.000824520              -0.000300020               0.999999984               0.000831113              -0.000302698               0.999999984               0.000836546              -0.000302164               0.999999984               0.000840215              -0.000297817               0.999999984               0.000841586              -0.000288781               0.999999984               0.000840334              -0.000274342               0.999999984               0.000836354              -0.000253819               0.999999984               0.000829756              -0.000226150               0.999999984               0.000821019              -0.000190729               0.999999984               0.000749771              -0.000522145               0.999999984               0.000742569              -0.000425617               0.999999984               0.000732328              -0.000389575               0.999999984               0.000726357              -0.000379749               0.999999984               0.000724770              -0.000381663               0.999999984               0.000726492              -0.000388474               0.999999984               0.000729837              -0.000396980               0.999999984               0.000733617              -0.000405027               0.999999984               0.000736791              -0.000411217               0.999999984               0.000738285              -0.000414125               0.999999984               0.000737400              -0.000412774               0.999999984               0.000733637              -0.000406684               0.999999984               0.000726788              -0.000395125               0.999999984               0.000716813              -0.000377564               0.999999984               0.000703836              -0.000353840               0.999999984               0.000688346              -0.000323919               0.999999984               0.000671027              -0.000288094               0.999999984               0.000711683              -0.000643722               0.999999984               0.000677481              -0.000529839               0.999999984               0.000656258              -0.000491208               0.999999984               0.000645878              -0.000483184               0.999999984               0.000642227              -0.000488065               0.999999984               0.000642116              -0.000498019               0.999999984               0.000643154              -0.000509018               0.999999984               0.000643578              -0.000518821               0.999999984               0.000641947              -0.000525786               0.999999984               0.000637481              -0.000528341               0.999999984               0.000629561              -0.000525740               0.999999984               0.000617915              -0.000517677               0.999999984               0.000602477              -0.000503900               0.999999984               0.000583408              -0.000484189               0.999999984               0.000561223              -0.000458876               0.999999984               0.000536595              -0.000428828               0.999999984               0.000510281              -0.000394986               0.999999984               0.000666472              -0.000759473               0.999999984               0.000604963              -0.000633215               0.999999984               0.000575564              -0.000594305               0.999999984               0.000563155              -0.000588995               0.999999984               0.000558915              -0.000596948               0.999999984               0.000557747              -0.000609551               0.999999984               0.000556420              -0.000622494               0.999999984               0.000552918              -0.000633433               0.999999984               0.000546126              -0.000640484               0.999999984               0.000535112              -0.000642186               0.999999984               0.000519482              -0.000638091               0.999999984               0.000499062              -0.000628310               0.999999984               0.000474109              -0.000612804               0.999999984               0.000445190              -0.000592058               0.999999984               0.000413214              -0.000566698               0.999999984               0.000379042              -0.000537939               0.999999984               0.000343599              -0.000507291               0.999999984               0.000615293              -0.000868035               0.999999984               0.000528575              -0.000735485               0.999999984               0.000494662              -0.000698038               0.999999984               0.000482976              -0.000695225               0.999999984               0.000479339              -0.000705750               0.999999984               0.000477342              -0.000720513               0.999999984               0.000473512              -0.000734686               0.999999984               0.000465947              -0.000745793               0.999999984               0.000453348              -0.000752321               0.999999984               0.000434778              -0.000752854               0.999999984               0.000410168              -0.000747303               0.999999984               0.000379697              -0.000736221               0.999999984               0.000344211              -0.000719927               0.999999984               0.000304762              -0.000699212               0.999999984               0.000262610              -0.000675230               0.999999984               0.000218802              -0.000649254               0.999999984               0.000174295              -0.000622681               0.999999984               0.000559772              -0.000967513               0.999999984               0.000450921              -0.000836493               0.999999984               0.000417734              -0.000800770               0.999999984               0.000408514              -0.000799834               0.999999984               0.000406165              -0.000812280               0.999999984               0.000403431              -0.000828394               0.999999984               0.000396850              -0.000843055               0.999999984               0.000384373              -0.000853925               0.999999984               0.000364797              -0.000859460               0.999999984               0.000337464              -0.000858682               0.999999984               0.000302478              -0.000851970               0.999999984               0.000260800              -0.000840116               0.999999984               0.000213933              -0.000823887               0.999999984               0.000163464              -0.000804459               0.999999984               0.000110785              -0.000783258               0.999999984               0.000057190              -0.000761401               0.999999984               0.000003505              -0.000739505               0.999999984               0.000502325              -0.001061624               0.999999984               0.000386040              -0.000949329               0.999999984               0.000349985              -0.000909485               0.999999984               0.000339851              -0.000903002               0.999999984               0.000337598              -0.000911398               0.999999984               0.000335943              -0.000925621               0.999999984               0.000331302              -0.000940793               0.999999984               0.000321728              -0.000953996               0.999999984               0.000306286              -0.000963904               0.999999984               0.000283750              -0.000969549               0.999999984               0.000253642              -0.000970554               0.999999984               0.000216487              -0.000967201               0.999999984               0.000173144              -0.000960077               0.999999984               0.000124999              -0.000949834               0.999999984               0.000073482              -0.000937520               0.999999984               0.000019765              -0.000923962               0.999999984              -0.000034734              -0.000910185               0.999999984               0.000439570              -0.001147221               0.999999984               0.000324025              -0.001058503               0.999999984               0.000285299              -0.001021013               0.999999984               0.000273396              -0.001011481               0.999999984               0.000270411              -0.001016940               0.999999984               0.000269057              -0.001029755               0.999999984               0.000265891              -0.001045241               0.999999984               0.000258734              -0.001060618               0.999999984               0.000246592              -0.001074369               0.999999984               0.000228420              -0.001085429               0.999999984               0.000203425              -0.001093054               0.999999984               0.000171230              -0.001097163               0.999999984               0.000132186              -0.001098014               0.999999984               0.000087148              -0.001096121               0.999999984               0.000037398              -0.001092066               0.999999984              -0.000015937              -0.001086515               0.999999984              -0.000071235              -0.001080472               0.999999984               0.000372722              -0.001222236               0.999999984               0.000264876              -0.001160675               0.999999984               0.000225366              -0.001130197               0.999999984               0.000211509              -0.001121113               0.999999984               0.000207202              -0.001125441               0.999999984               0.000205633              -0.001137634               0.999999984               0.000203262              -0.001153717               0.999999984               0.000198037              -0.001171245               0.999999984               0.000188614              -0.001188610               0.999999984               0.000174184              -0.001204719               0.999999984               0.000153844              -0.001218612               0.999999984               0.000126864              -0.001229789               0.999999984               0.000092746              -0.001238112               0.999999984               0.000051931              -0.001243809               0.999999984               0.000004917              -0.001247234               0.999999984              -0.000047403              -0.001249135               0.999999984              -0.000103676              -0.001250382               0.999999984               0.000302432              -0.001285343               0.999999984               0.000208597              -0.001251474               0.999999984               0.000170937              -0.001231538               0.999999984               0.000155990              -0.001226016               0.999999984               0.000150502              -0.001231393               0.999999984               0.000148408              -0.001244059               0.999999984               0.000146323              -0.001261376               0.999999984               0.000142298              -0.001281385               0.999999984               0.000135188              -0.001302412               0.999999984               0.000124136              -0.001323256               0.999999984               0.000108141              -0.001343033               0.999999984               0.000086318              -0.001361051               0.999999984               0.000057955              -0.001376803               0.999999984               0.000022537              -0.001390147               0.999999984              -0.000020150              -0.001401260               0.999999984              -0.000070164              -0.001410767               0.999999984              -0.000126929              -0.001419192               0.999999984               0.000229360              -0.001335563               0.999999984               0.000154596              -0.001326881               0.999999984               0.000122107              -0.001318952               0.999999984               0.000107941              -0.001319079               0.999999984               0.000102001              -0.001327349               0.999999984               0.000099402              -0.001342068               0.999999984               0.000097369              -0.001361437               0.999999984               0.000094237              -0.001383981               0.999999984               0.000088984              -0.001408463               0.999999984               0.000080813              -0.001433811               0.999999984               0.000068946              -0.001459161               0.999999984               0.000052409              -0.001483777               0.999999984               0.000030327              -0.001506963               0.999999984               0.000001799              -0.001528365               0.999999984              -0.000034244              -0.001547798               0.999999984              -0.000078839              -0.001565260               0.999999984              -0.000132734              -0.001581137               0.999999984               0.000154168              -0.001372020               0.999999984               0.000102225              -0.001383399               0.999999984               0.000078309              -0.001386416               0.999999984               0.000067145              -0.001392734               0.999999984               0.000061949              -0.001404704               0.999999984               0.000059426              -0.001422182               0.999999984               0.000057781              -0.001444122               0.999999984               0.000055522              -0.001469349               0.999999984               0.000051818              -0.001496942               0.999999984               0.000046234              -0.001526214               0.999999984               0.000038366              -0.001556523               0.999999984               0.000027241              -0.001586979               0.999999984               0.000011960              -0.001617018               0.999999984              -0.000008465              -0.001646183               0.999999984              -0.000035017              -0.001673851               0.999999984              -0.000069297              -0.001699440               0.999999984              -0.000113250              -0.001722859               0.999999984               0.000077484              -0.001394109               0.999999984               0.000050870              -0.001418413               0.999999984               0.000038206              -0.001429059               0.999999984               0.000032010              -0.001440050               0.999999984               0.000028924              -0.001455164               0.999999984               0.000027401              -0.001474938               0.999999984               0.000026436              -0.001498952               0.999999984               0.000025263              -0.001526449               0.999999984               0.000023318              -0.001556640               0.999999984               0.000020404              -0.001588938               0.999999984               0.000016407              -0.001622709               0.999999984               0.000010694              -0.001657377               0.999999984               0.000002744              -0.001692382               0.999999984              -0.000007946              -0.001727037               0.999999984              -0.000022137              -0.001760687               0.999999984              -0.000040848              -0.001792591               0.999999984              -0.000065909              -0.001822094               0.999999984               0.000000000              -0.001401516               0.999999984               0.000000000              -0.001430267               0.999999984              -0.000000000              -0.001443671               0.999999984              -0.000000000              -0.001456438               0.999999984               0.000000000              -0.001472754               0.999999984              -0.000000000              -0.001493425               0.999999984               0.000000000              -0.001518221               0.999999984              -0.000000000              -0.001546673               0.999999984               0.000000000              -0.001577959               0.999999984               0.000000000              -0.001611392               0.999999984              -0.000000000              -0.001646530               0.999999984              -0.000000000              -0.001682693               0.999999984              -0.000000000              -0.001719359               0.999999984               0.000000000              -0.001755976               0.999999984              -0.000000000              -0.001791868               0.999999984               0.000000000              -0.001826184               0.999999984              -0.000000000              -0.001857989               0.999999984               0.000820266               0.000000000               0.999999984               0.000871662               0.000000000               0.999999984               0.000893735               0.000000000               0.999999984               0.000906043              -0.000000000               0.999999984               0.000915792               0.000000000               0.999999984               0.000925660               0.000000000               0.999999984               0.000936513               0.000000000               0.999999984               0.000948620               0.000000000               0.999999984               0.000961894               0.000000000               0.999999984               0.000976247               0.000000000               0.999999984               0.000991283              -0.000000000               0.999999984               0.001006575               0.000000000               0.999999984               0.001021758              -0.000000000               0.999999984               0.001036179               0.000000000               0.999999984               0.001049241              -0.000000000               0.999999984               0.001060138               0.000000000               0.999999984               0.001067981               0.000000000               0.999999984               0.000815711               0.000133512               0.999999984               0.000863064               0.000107458               0.999999984               0.000882618               0.000095690               0.999999984               0.000893304               0.000090975               0.999999984               0.000901831               0.000089944               0.999999984               0.000910794               0.000090562               0.999999984               0.000920933               0.000092046               0.999999984               0.000932361               0.000093722               0.999999984               0.000944955               0.000095329               0.999999984               0.000958410               0.000096360               0.999999984               0.000972324               0.000096366               0.999999984               0.000986215               0.000095057               0.999999984               0.000999580               0.000091945               0.999999984               0.001011907               0.000086533               0.999999984               0.001022588               0.000078219               0.999999984               0.001031014               0.000065876               0.999999984               0.001036543               0.000048586               0.999999984               0.000802256               0.000265835               0.999999984               0.000837776               0.000214383               0.999999984               0.000850019               0.000192135               0.999999984               0.000856228               0.000183798               0.999999984               0.000861861               0.000182392               0.999999984               0.000868651               0.000184326               0.999999984               0.000876930               0.000187718               0.999999984               0.000886549               0.000191322               0.999999984               0.000896993               0.000194602               0.999999984               0.000907747               0.000196575               0.999999984               0.000918249               0.000196449               0.999999984               0.000927921               0.000193711               0.999999984               0.000936373               0.000187555               0.999999984               0.000943049               0.000177261               0.999999984               0.000947477               0.000161783               0.999999984               0.000949414               0.000139793               0.999999984               0.000948772               0.000110057               0.999999984               0.000780155               0.000395792               0.999999984               0.000796965               0.000320453               0.999999984               0.000798547               0.000289932               0.999999984               0.000798595               0.000279904               0.999999984               0.000800488               0.000279457               0.999999984               0.000804600               0.000283508               0.999999984               0.000810471               0.000289275               0.999999984               0.000817376               0.000295120               0.999999984               0.000824520               0.000300020               0.999999984               0.000831113               0.000302698               0.999999984               0.000836546               0.000302164               0.999999984               0.000840215               0.000297817               0.999999984               0.000841586               0.000288781               0.999999984               0.000840334               0.000274342               0.999999984               0.000836354               0.000253819               0.999999984               0.000829756               0.000226150               0.999999984               0.000821019               0.000190729               0.999999984               0.000749771               0.000522145               0.999999984               0.000742569               0.000425617               0.999999984               0.000732328               0.000389575               0.999999984               0.000726357               0.000379749               0.999999984               0.000724770               0.000381663               0.999999984               0.000726492               0.000388474               0.999999984               0.000729837               0.000396980               0.999999984               0.000733617               0.000405027               0.999999984               0.000736791               0.000411217               0.999999984               0.000738285               0.000414125               0.999999984               0.000737400               0.000412774               0.999999984               0.000733637               0.000406684               0.999999984               0.000726788               0.000395125               0.999999984               0.000716813               0.000377564               0.999999984               0.000703836               0.000353840               0.999999984               0.000688346               0.000323919               0.999999984               0.000671027               0.000288094               0.999999984               0.000711683               0.000643722               0.999999984               0.000677481               0.000529839               0.999999984               0.000656258               0.000491208               0.999999984               0.000645878               0.000483184               0.999999984               0.000642227               0.000488065               0.999999984               0.000642116               0.000498019               0.999999984               0.000643154               0.000509018               0.999999984               0.000643578               0.000518821               0.999999984               0.000641947               0.000525786               0.999999984               0.000637481               0.000528341               0.999999984               0.000629561               0.000525740               0.999999984               0.000617915               0.000517677               0.999999984               0.000602477               0.000503900               0.999999984               0.000583408               0.000484189               0.999999984               0.000561223               0.000458876               0.999999984               0.000536595               0.000428828               0.999999984               0.000510281               0.000394986               0.999999984               0.000666472               0.000759473               0.999999984               0.000604963               0.000633215               0.999999984               0.000575564               0.000594305               0.999999984               0.000563155               0.000588995               0.999999984               0.000558915               0.000596948               0.999999984               0.000557747               0.000609551               0.999999984               0.000556420               0.000622494               0.999999984               0.000552918               0.000633433               0.999999984               0.000546126               0.000640484               0.999999984               0.000535112               0.000642186               0.999999984               0.000519482               0.000638091               0.999999984               0.000499062               0.000628310               0.999999984               0.000474109               0.000612804               0.999999984               0.000445190               0.000592058               0.999999984               0.000413214               0.000566698               0.999999984               0.000379042               0.000537939               0.999999984               0.000343599               0.000507291               0.999999984               0.000615293               0.000868035               0.999999984               0.000528575               0.000735485               0.999999984               0.000494662               0.000698038               0.999999984               0.000482976               0.000695225               0.999999984               0.000479339               0.000705750               0.999999984               0.000477342               0.000720513               0.999999984               0.000473512               0.000734686               0.999999984               0.000465947               0.000745793               0.999999984               0.000453348               0.000752321               0.999999984               0.000434778               0.000752854               0.999999984               0.000410168               0.000747303               0.999999984               0.000379697               0.000736221               0.999999984               0.000344211               0.000719927               0.999999984               0.000304762               0.000699212               0.999999984               0.000262610               0.000675230               0.999999984               0.000218802               0.000649254               0.999999984               0.000174295               0.000622681               0.999999984               0.000559772               0.000967513               0.999999984               0.000450921               0.000836493               0.999999984               0.000417734               0.000800770               0.999999984               0.000408514               0.000799834               0.999999984               0.000406165               0.000812280               0.999999984               0.000403431               0.000828394               0.999999984               0.000396850               0.000843055               0.999999984               0.000384373               0.000853925               0.999999984               0.000364797               0.000859460               0.999999984               0.000337464               0.000858682               0.999999984               0.000302478               0.000851970               0.999999984               0.000260800               0.000840116               0.999999984               0.000213933               0.000823887               0.999999984               0.000163464               0.000804459               0.999999984               0.000110785               0.000783258               0.999999984               0.000057190               0.000761401               0.999999984               0.000003505               0.000739505               0.999999984               0.000502325               0.001061624               0.999999984               0.000386040               0.000949329               0.999999984               0.000349985               0.000909485               0.999999984               0.000339851               0.000903002               0.999999984               0.000337598               0.000911398               0.999999984               0.000335943               0.000925621               0.999999984               0.000331302               0.000940793               0.999999984               0.000321728               0.000953996               0.999999984               0.000306286               0.000963904               0.999999984               0.000283750               0.000969549               0.999999984               0.000253642               0.000970554               0.999999984               0.000216487               0.000967201               0.999999984               0.000173144               0.000960077               0.999999984               0.000124999               0.000949834               0.999999984               0.000073482               0.000937520               0.999999984               0.000019765               0.000923962               0.999999984              -0.000034734               0.000910185               0.999999984               0.000439570               0.001147221               0.999999984               0.000324025               0.001058503               0.999999984               0.000285299               0.001021013               0.999999984               0.000273396               0.001011481               0.999999984               0.000270411               0.001016940               0.999999984               0.000269057               0.001029755               0.999999984               0.000265891               0.001045241               0.999999984               0.000258734               0.001060618               0.999999984               0.000246592               0.001074369               0.999999984               0.000228420               0.001085429               0.999999984               0.000203425               0.001093054               0.999999984               0.000171230               0.001097163               0.999999984               0.000132186               0.001098014               0.999999984               0.000087148               0.001096121               0.999999984               0.000037398               0.001092066               0.999999984              -0.000015937               0.001086515               0.999999984              -0.000071235               0.001080472               0.999999984               0.000372722               0.001222236               0.999999984               0.000264876               0.001160675               0.999999984               0.000225366               0.001130197               0.999999984               0.000211509               0.001121113               0.999999984               0.000207202               0.001125441               0.999999984               0.000205633               0.001137634               0.999999984               0.000203262               0.001153717               0.999999984               0.000198037               0.001171245               0.999999984               0.000188614               0.001188610               0.999999984               0.000174184               0.001204719               0.999999984               0.000153844               0.001218612               0.999999984               0.000126864               0.001229789               0.999999984               0.000092746               0.001238112               0.999999984               0.000051931               0.001243809               0.999999984               0.000004917               0.001247234               0.999999984              -0.000047403               0.001249135               0.999999984              -0.000103676               0.001250382               0.999999984               0.000302432               0.001285343               0.999999984               0.000208597               0.001251474               0.999999984               0.000170937               0.001231538               0.999999984               0.000155990               0.001226016               0.999999984               0.000150502               0.001231393               0.999999984               0.000148408               0.001244059               0.999999984               0.000146323               0.001261376               0.999999984               0.000142298               0.001281385               0.999999984               0.000135188               0.001302412               0.999999984               0.000124136               0.001323256               0.999999984               0.000108141               0.001343033               0.999999984               0.000086318               0.001361051               0.999999984               0.000057955               0.001376803               0.999999984               0.000022537               0.001390147               0.999999984              -0.000020150               0.001401260               0.999999984              -0.000070164               0.001410767               0.999999984              -0.000126929               0.001419192               0.999999984               0.000229360               0.001335563               0.999999984               0.000154596               0.001326881               0.999999984               0.000122107               0.001318952               0.999999984               0.000107941               0.001319079               0.999999984               0.000102001               0.001327349               0.999999984               0.000099402               0.001342068               0.999999984               0.000097369               0.001361437               0.999999984               0.000094237               0.001383981               0.999999984               0.000088984               0.001408463               0.999999984               0.000080813               0.001433811               0.999999984               0.000068946               0.001459161               0.999999984               0.000052409               0.001483777               0.999999984               0.000030327               0.001506963               0.999999984               0.000001799               0.001528365               0.999999984              -0.000034244               0.001547798               0.999999984              -0.000078839               0.001565260               0.999999984              -0.000132734               0.001581137               0.999999984               0.000154168               0.001372020               0.999999984               0.000102225               0.001383399               0.999999984               0.000078309               0.001386416               0.999999984               0.000067145               0.001392734               0.999999984               0.000061949               0.001404704               0.999999984               0.000059426               0.001422182               0.999999984               0.000057781               0.001444122               0.999999984               0.000055522               0.001469349               0.999999984               0.000051818               0.001496942               0.999999984               0.000046234               0.001526214               0.999999984               0.000038366               0.001556523               0.999999984               0.000027241               0.001586979               0.999999984               0.000011960               0.001617018               0.999999984              -0.000008465               0.001646183               0.999999984              -0.000035017               0.001673851               0.999999984              -0.000069297               0.001699440               0.999999984              -0.000113250               0.001722859               0.999999984               0.000077484               0.001394109               0.999999984               0.000050870               0.001418413               0.999999984               0.000038206               0.001429059               0.999999984               0.000032010               0.001440050               0.999999984               0.000028924               0.001455164               0.999999984               0.000027401               0.001474938               0.999999984               0.000026436               0.001498952               0.999999984               0.000025263               0.001526449               0.999999984               0.000023318               0.001556640               0.999999984               0.000020404               0.001588938               0.999999984               0.000016407               0.001622709               0.999999984               0.000010694               0.001657377               0.999999984               0.000002744               0.001692382               0.999999984              -0.000007946               0.001727037               0.999999984              -0.000022137               0.001760687               0.999999984              -0.000040848               0.001792591               0.999999984              -0.000065909               0.001822094               0.999999984               0.000000000               0.001401516               0.999999984              -0.000000000               0.001430267               0.999999984              -0.000000000               0.001443671               0.999999984              -0.000000000               0.001456438               0.999999984              -0.000000000               0.001472754               0.999999984              -0.000000000               0.001493425               0.999999984               0.000000000               0.001518221               0.999999984               0.000000000               0.001546673               0.999999984              -0.000000000               0.001577959               0.999999984              -0.000000000               0.001611392               0.999999984              -0.000000000               0.001646530               0.999999984              -0.000000000               0.001682693               0.999999984               0.000000000               0.001719359               0.999999984               0.000000000               0.001755976               0.999999984              -0.000000000               0.001791868               0.999999984               0.000000000               0.001826184               0.999999984               0.000000000               0.001857989               0.999999984 </DataArray>
<DataArray type="Float64"                                    Name="defo"                                                      NumberOfComponents=" 3" format="ascii">
             -0.000820266               0.000000000               0.999999984              -0.000871662              -0.000000000               0.999999984              -0.000893735               0.000000000               0.999999984              -0.000906043              -0.000000000               0.999999984              -0.000915792               0.000000000               0.999999984              -0.000925660               0.000000000               0.999999984              -0.000936513               0.000000000               0.999999984              -0.000948620               0.000000000               0.999999984              -0.000961894               0.000000000               0.999999984              -0.000976247               0.000000000               0.999999984              -0.000991283               0.000000000               0.999999984              -0.001006575               0.000000000               0.999999984              -0.001021758               0.000000000               0.999999984              -0.001036179               0.000000000               0.999999984              -0.001049241               0.000000000               0.999999984              -0.001060138               0.000000000               0.999999984              -0.001067981               0.000000000               0.999999984              -0.000815711               0.000133512               0.999999984              -0.000863064               0.000107458               0.999999984              -0.000882618               0.000095690               0.999999984              -0.000893304               0.000090975               0.999999984              -0.000901831               0.000089944               0.999999984              -0.000910794               0.000090562               0.999999984              -0.000920933               0.000092046               0.999999984              -0.000932361               0.000093722               0.999999984              -0.000944955               0.000095329               0.999999984              -0.000958410               0.000096360               0.999999984              -0.000972324               0.000096366               0.999999984              -0.000986215               0.000095057               0.999999984              -0.000999580               0.000091945               0.999999984              -0.001011907               0.000086533               0.999999984              -0.001022588               0.000078219               0.999999984              -0.001031014               0.000065876               0.999999984              -0.001036543               0.000048586               0.999999984              -0.000802256               0.000265835               0.999999984              -0.000837776               0.000214383               0.999999984              -0.000850019               0.000192135               0.999999984              -0.000856228               0.000183798               0.999999984              -0.000861861               0.000182392               0.999999984              -0.000868651               0.000184326               0.999999984              -0.000876930               0.000187718               0.999999984              -0.000886549               0.000191322               0.999999984              -0.000896993               0.000194602               0.999999984              -0.000907747               0.000196575               0.999999984              -0.000918249               0.000196449               0.999999984              -0.000927921               0.000193711               0.999999984              -0.000936373               0.000187555               0.999999984              -0.000943049               0.000177261               0.999999984              -0.000947477               0.000161783               0.999999984              -0.000949414               0.000139793               0.999999984              -0.000948772               0.000110057               0.999999984              -0.000780155               0.000395792               0.999999984              -0.000796965               0.000320453               0.999999984              -0.000798547               0.000289932               0.999999984              -0.000798595               0.000279904               0.999999984              -0.000800488               0.000279457               0.999999984              -0.000804600               0.000283508               0.999999984              -0.000810471               0.000289275               0.999999984              -0.000817376               0.000295120               0.999999984              -0.000824520               0.000300020               0.999999984              -0.000831113               0.000302698               0.999999984              -0.000836546               0.000302164               0.999999984              -0.000840215               0.000297817               0.999999984              -0.000841586               0.000288781               0.999999984              -0.000840334               0.000274342               0.999999984              -0.000836354               0.000253819               0.999999984              -0.000829756               0.000226150               0.999999984              -0.000821019               0.000190729               0.999999984              -0.000749771               0.000522145               0.999999984              -0.000742569               0.000425617               0.999999984              -0.000732328               0.000389575               0.999999984              -0.000726357               0.000379749               0.999999984              -0.000724770               0.000381663               0.999999984              -0.000726492               0.000388474               0.999999984              -0.000729837               0.000396980               0.999999984              -0.000733617               0.000405027               0.999999984              -0.000736791               0.000411217               0.999999984              -0.000738285               0.000414125               0.999999984              -0.000737400               0.000412774               0.999999984              -0.000733637               0.000406684               0.999999984              -0.000726788               0.000395125               0.999999984              -0.000716813               0.000377564               0.999999984              -0.000703836               0.000353840               0.999999984              -0.000688346               0.000323919               0.999999984              -0.000671027               0.000288094               0.999999984              -0.000711683               0.000643722               0.999999984              -0.000677481               0.000529839               0.999999984              -0.000656258               0.000491208               0.999999984              -0.000645878               0.000483184               0.999999984              -0.000642227               0.000488065               0.999999984              -0.000642116               0.000498019               0.999999984              -0.000643154               0.000509018               0.999999984              -0.000643578               0.000518821               0.999999984              -0.000641947               0.000525786               0.999999984              -0.000637481               0.000528341               0.999999984              -0.000629561               0.000525740               0.999999984              -0.000617915               0.000517677               0.999999984              -0.000602477               0.000503900               0.999999984              -0.000583408               0.000484189               0.999999984              -0.000561223               0.000458876               0.999999984              -0.000536595               0.000428828               0.999999984              -0.000510281               0.000394986               0.999999984              -0.000666472               0.000759473               0.999999984              -0.000604963               0.000633215               0.999999984              -0.000575564               0.000594305               0.999999984              -0.000563155               0.000588995               0.999999984              -0.000558915               0.000596948               0.999999984              -0.000557747               0.000609551               0.999999984              -0.000556420               0.000622494               0.999999984              -0.000552918               0.000633433               0.999999984              -0.000546126               0.000640484               0.999999984              -0.000535112               0.000642186               0.999999984              -0.000519482               0.000638091               0.999999984              -0.000499062               0.000628310               0.999999984              -0.000474109               0.000612804               0.999999984              -0.000445190               0.000592058               0.999999984              -0.000413214               0.000566698               0.999999984              -0.000379042               0.000537939               0.999999984              -0.000343599               0.000507291               0.999999984              -0.000615293               0.000868035               0.999999984              -0.000528575               0.000735485               0.999999984              -0.000494662               0.000698038               0.999999984              -0.000482976               0.000695225               0.999999984              -0.000479339               0.000705750               0.999999984              -0.000477342               0.000720513               0.999999984              -0.000473512               0.000734686               0.999999984              -0.000465947               0.000745793               0.999999984              -0.000453348               0.000752321               0.999999984              -0.000434778               0.000752854               0.999999984              -0.000410168               0.000747303               0.999999984              -0.000379697               0.000736221               0.999999984              -0.000344211               0.000719927               0.999999984              -0.000304762               0.000699212               0.999999984              -0.000262610               0.000675230               0.999999984              -0.000218802               0.000649254               0.999999984              -0.000174295               0.000622681               0.999999984              -0.000559772               0.000967513               0.999999984              -0.000450921               0.000836493               0.999999984              -0.000417734               0.000800770               0.999999984              -0.000408514               0.000799834               0.999999984              -0.000406165               0.000812280               0.999999984              -0.000403431               0.000828394               0.999999984              -0.000396850               0.000843055               0.999999984              -0.000384373               0.000853925               0.999999984              -0.000364797               0.000859460               0.999999984              -0.000337464               0.000858682               0.999999984              -0.000302478               0.000851970               0.999999984              -0.000260800               0.000840116               0.999999984              -0.000213933               0.000823887               0.999999984              -0.000163464               0.000804459               0.999999984              -0.000110785               0.000783258               0.999999984              -0.000057190               0.000761401               0.999999984              -0.000003505               0.000739505               0.999999984              -0.000502325               0.001061624               0.999999984              -0.000386040               0.000949329               0.999999984              -0.000349985               0.000909485               0.999999984              -0.000339851               0.000903002               0.999999984              -0.000337598               0.000911398               0.999999984              -0.000335943               0.000925621               0.999999984              -0.000331302               0.000940793               0.999999984              -0.000321728               0.000953996               0.999999984              -0.000306286               0.000963904               0.999999984              -0.000283750               0.000969549               0.999999984              -0.000253642               0.000970554               0.999999984              -0.000216487               0.000967201               0.999999984              -0.000173144               0.000960077               0.999999984              -0.000124999               0.000949834               0.999999984              -0.000073482               0.000937520               0.999999984              -0.000019765               0.000923962               0.999999984               0.000034734               0.000910185               0.999999984              -0.000439570               0.001147221               0.999999984              -0.000324025               0.001058503               0.999999984              -0.000285299               0.001021013               0.999999984              -0.000273396               0.001011481               0.999999984              -0.000270411               0.001016940               0.999999984              -0.000269057               0.001029755               0.999999984              -0.000265891               0.001045241               0.999999984              -0.000258734               0.001060618               0.999999984              -0.000246592               0.001074369               0.999999984              -0.000228420               0.001085429               0.999999984              -0.000203425               0.001093054               0.999999984              -0.000171230               0.001097163               0.999999984              -0.000132186               0.001098014               0.999999984              -0.000087148               0.001096121               0.999999984              -0.000037398               0.001092066               0.999999984               0.000015937               0.001086515               0.999999984               0.000071235               0.001080472               0.999999984              -0.000372722               0.001222236               0.999999984              -0.000264876               0.001160675               0.999999984              -0.000225366               0.001130197               0.999999984              -0.000211509               0.001121113               0.999999984              -0.000207202               0.001125441               0.999999984              -0.000205633               0.001137634               0.999999984              -0.000203262               0.001153717               0.999999984              -0.000198037               0.001171245               0.999999984              -0.000188614               0.001188610               0.999999984              -0.000174184               0.001204719               0.999999984              -0.000153844               0.001218612               0.999999984              -0.000126864               0.001229789               0.999999984              -0.000092746               0.001238112               0.999999984              -0.000051931               0.001243809               0.999999984              -0.000004917               0.001247234               0.999999984               0.000047403               0.001249135               0.999999984               0.000103676               0.001250382               0.999999984              -0.000302432               0.001285343               0.999999984              -0.000208597               0.001251474               0.999999984              -0.000170937               0.001231538               0.999999984              -0.000155990               0.001226016               0.999999984              -0.000150502               0.001231393               0.999999984              -0.000148408               0.001244059               0.999999984              -0.000146323               0.001261376               0.999999984              -0.000142298               0.001281385               0.999999984              -0.000135188               0.001302412               0.999999984              -0.000124136               0.001323256               0.999999984              -0.000108141               0.001343033               0.999999984              -0.000086318               0.001361051               0.999999984              -0.000057955               0.001376803               0.999999984              -0.000022537               0.001390147               0.999999984               0.000020150               0.001401260               0.999999984               0.000070164               0.001410767               0.999999984               0.000126929               0.001419192               0.999999984              -0.000229360               0.001335563               0.999999984              -0.000154596               0.001326881               0.999999984              -0.000122107               0.001318952               0.999999984              -0.000107941               0.001319079               0.999999984              -0.000102001               0.001327349               0.999999984              -0.000099402               0.001342068               0.999999984              -0.000097369               0.001361437               0.999999984              -0.000094237               0.001383981               0.999999984              -0.000088984               0.001408463               0.999999984              -0.000080813               0.001433811               0.999999984              -0.000068946               0.001459161               0.999999984              -0.000052409               0.001483777               0.999999984              -0.000030327               0.001506963               0.999999984              -0.000001799               0.001528365               0.999999984               0.000034244               0.001547798               0.999999984               0.000078839               0.001565260               0.999999984               0.000132734               0.001581137               0.999999984              -0.000154168               0.001372020               0.999999984              -0.000102225               0.001383399               0.999999984              -0.000078309               0.001386416               0.999999984              -0.000067145               0.001392734               0.999999984              -0.000061949               0.001404704               0.999999984              -0.000059426               0.001422182               0.999999984              -0.000057781               0.001444122               0.999999984              -0.000055522               0.001469349               0.999999984              -0.000051818               0.001496942               0.999999984              -0.000046234               0.001526214               0.999999984              -0.000038366               0.001556523               0.999999984              -0.000027241               0.001586979               0.999999984              -0.000011960               0.001617018               0.999999984               0.000008465               0.001646183               0.999999984               0.000035017               0.001673851               0.999999984               0.000069297               0.001699440               0.999999984               0.000113250               0.001722859               0.999999984              -0.000077484               0.001394109               0.999999984              -0.000050870               0.001418413               0.999999984              -0.000038206               0.001429059               0.999999984              -0.000032010               0.001440050               0.999999984              -0.000028924               0.001455164               0.999999984              -0.000027401               0.001474938               0.999999984              -0.000026436               0.001498952               0.999999984              -0.000025263               0.001526449               0.999999984              -0.000023318               0.001556640               0.999999984              -0.000020404               0.001588938               0.999999984              -0.000016407               0.001622709               0.999999984              -0.000010694               0.001657377               0.999999984              -0.000002744               0.001692382               0.999999984               0.000007946               0.001727037               0.999999984               0.000022137               0.001760687               0.999999984               0.000040848               0.001792591               0.999999984               0.000065909               0.001822094               0.999999984               0.000000000               0.001401516               0.999999984              -0.000000000               0.001430267               0.999999984              -0.000000000               0.001443671               0.999999984              -0.000000000               0.001456438               0.999999984              -0.000000000               0.001472754               0.999999984              -0.000000000               0.001493425               0.999999984               0.000000000               0.001518221               0.999999984               0.000000000               0.001546673               0.999999984              -0.000000000               0.001577959               0.999999984              -0.000000000               0.001611392               0.999999984              -0.000000000               0.001646530               0.999999984              -0.000000000               0.001682693               0.999999984               0.000000000               0.001719359               0.999999984               0.000000000               0.001755976               0.999999984              -0.000000000               0.001791868               0.999999984               0.000000000               0.001826184               0.999999984               0.000000000               0.001857989               0.999999984              -0.000820266               0.000000000               0.999999984              -0.000871662              -0.000000000               0.999999984              -0.000893735               0.000000000               0.999999984              -0.000906043              -0.000000000               0.999999984              -0.000915792               0.000000000               0.999999984              -0.000925660               0.000000000               0.999999984              -0.000936513               0.000000000               0.999999984              -0.000948620               0.000000000               0.999999984              -0.000961894               0.000000000               0.999999984              -0.000976247               0.000000000               0.999999984              -0.000991283               0.000000000               0.999999984              -0.001006575               0.000000000               0.999999984              -0.001021758               0.000000000               0.999999984              -0.001036179               0.000000000               0.999999984              -0.001049241               0.000000000               0.999999984              -0.001060138               0.000000000               0.999999984              -0.001067981               0.000000000               0.999999984              -0.000815711              -0.000133512               0.999999984              -0.000863064              -0.000107458               0.999999984              -0.000882618              -0.000095690               0.999999984              -0.000893304              -0.000090975               0.999999984              -0.000901831              -0.000089944               0.999999984              -0.000910794              -0.000090562               0.999999984              -0.000920933              -0.000092046               0.999999984              -0.000932361              -0.000093722               0.999999984              -0.000944955              -0.000095329               0.999999984              -0.000958410              -0.000096360               0.999999984              -0.000972324              -0.000096366               0.999999984              -0.000986215              -0.000095057               0.999999984              -0.000999580              -0.000091945               0.999999984              -0.001011907              -0.000086533               0.999999984              -0.001022588              -0.000078219               0.999999984              -0.001031014              -0.000065876               0.999999984              -0.001036543              -0.000048586               0.999999984              -0.000802256              -0.000265835               0.999999984              -0.000837776              -0.000214383               0.999999984              -0.000850019              -0.000192135               0.999999984              -0.000856228              -0.000183798               0.999999984              -0.000861861              -0.000182392               0.999999984              -0.000868651              -0.000184326               0.999999984              -0.000876930              -0.000187718               0.999999984              -0.000886549              -0.000191322               0.999999984              -0.000896993              -0.000194602               0.999999984              -0.000907747              -0.000196575               0.999999984              -0.000918249              -0.000196449               0.999999984              -0.000927921              -0.000193711               0.999999984              -0.000936373              -0.000187555               0.999999984              -0.000943049              -0.000177261               0.999999984              -0.000947477              -0.000161783               0.999999984              -0.000949414              -0.000139793               0.999999984              -0.000948772              -0.000110057               0.999999984              -0.000780155              -0.000395792               0.999999984              -0.000796965              -0.000320453               0.999999984              -0.000798547              -0.000289932               0.999999984              -0.000798595              -0.000279904               0.999999984              -0.000800488              -0.000279457               0.999999984              -0.000804600              -0.000283508               0.999999984              -0.000810471              -0.000289275               0.999999984              -0.000817376              -0.000295120               0.999999984              -0.000824520              -0.000300020               0.999999984              -0.000831113              -0.000302698               0.999999984              -0.000836546              -0.000302164               0.999999984              -0.000840215              -0.000297817               0.999999984              -0.000841586              -0.000288781               0.999999984              -0.000840334              -0.000274342               0.999999984              -0.000836354              -0.000253819               0.999999984              -0.000829756              -0.000226150               0.999999984              -0.000821019              -0.000190729               0.999999984              -0.000749771              -0.000522145               0.999999984              -0.000742569              -0.000425617               0.999999984              -0.000732328              -0.000389575               0.999999984              -0.000726357              -0.000379749               0.999999984              -0.000724770              -0.000381663               0.999999984              -0.000726492              -0.000388474               0.999999984              -0.000729837              -0.000396980               0.999999984              -0.000733617              -0.000405027               0.999999984              -0.000736791              -0.000411217               0.999999984              -0.000738285              -0.000414125               0.999999984              -0.000737400              -0.000412774               0.999999984              -0.000733637              -0.000406684               0.999999984              -0.000726788              -0.000395125               0.999999984              -0.000716813              -0.000377564               0.999999984              -0.000703836              -0.000353840               0.999999984              -0.000688346              -0.000323919               0.999999984              -0.000671027              -0.000288094               0.999999984              -0.000711683              -0.000643722               0.999999984              -0.000677481              -0.000529839               0.999999984              -0.000656258              -0.000491208               0.999999984              -0.000645878              -0.000483184               0.999999984              -0.000642227              -0.000488065               0.999999984              -0.000642116              -0.000498019               0.999999984              -0.000643154              -0.000509018               0.999999984              -0.000643578              -0.000518821               0.999999984              -0.000641947              -0.000525786               0.999999984              -0.000637481              -0.000528341               0.999999984              -0.000629561              -0.000525740               0.999999984              -0.000617915              -0.000517677               0.999999984              -0.000602477              -0.000503900               0.999999984              -0.000583408              -0.000484189               0.999999984              -0.000561223              -0.000458876               0.999999984              -0.000536595              -0.000428828               0.999999984              -0.000510281              -0.000394986               0.999999984              -0.000666472              -0.000759473               0.999999984              -0.000604963              -0.000633215               0.999999984              -0.000575564              -0.000594305               0.999999984              -0.000563155              -0.000588995               0.999999984              -0.000558915              -0.000596948               0.999999984              -0.000557747              -0.000609551               0.999999984              -0.000556420              -0.000622494               0.999999984              -0.000552918              -0.000633433               0.999999984              -0.000546126              -0.000640484               0.999999984              -0.000535112              -0.000642186               0.999999984              -0.000519482              -0.000638091               0.999999984              -0.000499062              -0.000628310               0.999999984              -0.000474109              -0.000612804               0.999999984              -0.000445190              -0.000592058               0.999999984              -0.000413214              -0.000566698               0.999999984              -0.000379042              -0.000537939               0.999999984              -0.000343599              -0.000507291               0.999999984              -0.000615293              -0.000868035               0.999999984              -0.000528575              -0.000735485               0.999999984              -0.000494662              -0.000698038               0.999999984              -0.000482976              -0.000695225               0.999999984              -0.000479339              -0.000705750               0.999999984              -0.000477342              -0.000720513               0.999999984              -0.000473512              -0.000734686               0.999999984              -0.000465947              -0.000745793               0.999999984              -0.000453348              -0.000752321               0.999999984              -0.000434778              -0.000752854               0.999999984              -0.000410168              -0.000747303               0.999999984              -0.000379697              -0.000736221               0.999999984              -0.000344211              -0.000719927               0.999999984              -0.000304762              -0.000699212               0.999999984              -0.000262610              -0.000675230               0.999999984              -0.000218802              -0.000649254               0.999999984              -0.000174295              -0.000622681               0.999999984              -0.000559772              -0.000967513               0.999999984              -0.000450921              -0.000836493               0.999999984              -0.000417734              -0.000800770               0.999999984              -0.000408514              -0.000799834               0.999999984              -0.000406165              -0.000812280               0.999999984              -0.000403431              -0.000828394               0.999999984              -0.000396850              -0.000843055               0.999999984              -0.000384373              -0.000853925               0.999999984              -0.000364797              -0.000859460               0.999999984              -0.000337464              -0.000858682               0.999999984              -0.000302478              -0.000851970               0.999999984              -0.000260800              -0.000840116               0.999999984              -0.000213933              -0.000823887               0.999999984              -0.000163464              -0.000804459               0.999999984              -0.000110785              -0.000783258               0.999999984              -0.000057190              -0.000761401               0.999999984              -0.000003505              -0.000739505               0.999999984              -0.000502325              -0.001061624               0.999999984              -0.000386040              -0.000949329               0.999999984              -0.000349985              -0.000909485               0.999999984              -0.000339851              -0.000903002               0.999999984              -0.000337598              -0.000911398               0.999999984              -0.000335943              -0.000925621               0.999999984              -0.000331302              -0.000940793               0.999999984              -0.000321728              -0.000953996               0.999999984              -0.000306286              -0.000963904               0.999999984              -0.000283750              -0.000969549               0.999999984              -0.000253642              -0.000970554               0.999999984              -0.000216487              -0.000967201               0.999999984              -0.000173144              -0.000960077               0.999999984              -0.000124999              -0.000949834               0.999999984              -0.000073482              -0.000937520               0.999999984              -0.000019765              -0.000923962               0.999999984               0.000034734              -0.000910185               0.999999984              -0.000439570              -0.001147221               0.999999984              -0.000324025              -0.001058503               0.999999984              -0.000285299              -0.001021013               0.999999984              -0.000273396              -0.001011481               0.999999984              -0.000270411              -0.001016940               0.999999984              -0.000269057              -0.001029755               0.999999984              -0.000265891              -0.001045241               0.999999984              -0.000258734              -0.001060618               0.999999984              -0.000246592              -0.001074369               0.999999984              -0.000228420              -0.001085429               0.999999984              -0.000203425              -0.001093054               0.999999984              -0.000171230              -0.001097163               0.999999984              -0.000132186              -0.001098014               0.999999984              -0.000087148              -0.001096121               0.999999984              -0.000037398              -0.001092066               0.999999984               0.000015937              -0.001086515               0.999999984               0.000071235              -0.001080472               0.999999984              -0.000372722              -0.001222236               0.999999984              -0.000264876              -0.001160675               0.999999984              -0.000225366              -0.001130197               0.999999984              -0.000211509              -0.001121113               0.999999984              -0.000207202              -0.001125441               0.999999984              -0.000205633              -0.001137634               0.999999984              -0.000203262              -0.001153717               0.999999984              -0.000198037              -0.001171245               0.999999984              -0.000188614              -0.001188610               0.999999984              -0.000174184              -0.001204719               0.999999984              -0.000153844              -0.001218612               0.999999984              -0.000126864              -0.001229789               0.999999984              -0.000092746              -0.001238112               0.999999984              -0.000051931              -0.001243809               0.999999984              -0.000004917              -0.001247234               0.999999984               0.000047403              -0.001249135               0.999999984               0.000103676              -0.001250382               0.999999984              -0.000302432              -0.001285343               0.999999984              -0.000208597              -0.001251474               0.999999984              -0.000170937              -0.001231538               0.999999984              -0.000155990              -0.001226016               0.999999984              -0.000150502              -0.001231393               0.999999984              -0.000148408              -0.001244059               0.999999984              -0.000146323              -0.001261376               0.999999984              -0.000142298              -0.001281385               0.999999984              -0.000135188              -0.001302412               0.999999984              -0.000124136              -0.001323256               0.999999984              -0.000108141              -0.001343033               0.999999984              -0.000086318              -0.001361051               0.999999984              -0.000057955              -0.001376803               0.999999984              -0.000022537              -0.001390147               0.999999984               0.000020150              -0.001401260               0.999999984               0.000070164              -0.001410767               0.999999984               0.000126929              -0.001419192               0.999999984              -0.000229360              -0.001335563               0.999999984              -0.000154596              -0.001326881               0.999999984              -0.000122107              -0.001318952               0.999999984              -0.000107941              -0.001319079               0.999999984              -0.000102001              -0.001327349               0.999999984              -0.000099402              -0.001342068               0.999999984              -0.000097369              -0.001361437               0.999999984              -0.000094237              -0.001383981               0.999999984              -0.000088984              -0.001408463               0.999999984              -0.000080813              -0.001433811               0.999999984              -0.000068946              -0.001459161               0.999999984              -0.000052409              -0.001483777               0.999999984              -0.000030327              -0.001506963               0.999999984              -0.000001799              -0.001528365               0.999999984               0.000034244              -0.001547798               0.999999984               0.000078839              -0.001565260               0.999999984               0.000132734              -0.001581137               0.999999984              -0.000154168              -0.001372020               0.999999984              -0.000102225              -0.001383399               0.999999984              -0.000078309              -0.001386416               0.999999984              -0.000067145              -0.001392734               0.999999984              -0.000061949              -0.001404704               0.999999984              -0.000059426              -0.001422182               0.999999984              -0.000057781              -0.001444122               0.999999984              -0.000055522              -0.001469349               0.999999984              -0.000051818              -0.001496942               0.999999984              -0.000046234              -0.001526214               0.999999984              -0.000038366              -0.001556523               0.999999984              -0.000027241              -0.001586979               0.999999984              -0.000011960              -0.001617018               0.999999984               0.000008465              -0.001646183               0.999999984               0.000035017              -0.001673851               0.999999984               0.000069297              -0.001699440               0.999999984               0.000113250              -0.001722859               0.999999984              -0.000077484              -0.001394109               0.999999984              -0.000050870              -0.001418413               0.999999984              -0.000038206              -0.001429059               0.999999984              -0.000032010              -0.001440050               0.999999984              -0.000028924              -0.001455164               0.999999984              -0.000027401              -0.001474938               0.999999984              -0.000026436              -0.001498952               0.999999984              -0.000025263              -0.001526449               0.999999984              -0.000023318              -0.001556640               0.999999984              -0.000020404              -0.001588938               0.999999984              -0.000016407              -0.001622709               0.999999984              -0.000010694              -0.001657377               0.999999984              -0.000002744              -0.001692382               0.999999984               0.000007946              -0.001727037               0.999999984               0.000022137              -0.001760687               0.999999984               0.000040848              -0.001792591               0.999999984               0.000065909              -0.001822094               0.999999984               0.000000000              -0.001401516               0.999999984               0.000000000              -0.001430267               0.999999984              -0.000000000              -0.001443671               0.999999984              -0.000000000              -0.001456438               0.999999984               0.000000000              -0.001472754               0.999999984              -0.000000000              -0.001493425               0.999999984               0.000000000              -0.001518221               0.999999984              -0.000000000              -0.001546673               0.999999984               0.000000000              -0.001577959               0.999999984               0.000000000              -0.001611392               0.999999984              -0.000000000              -0.001646530               0.999999984              -0.000000000              -0.001682693               0.999999984              -0.000000000              -0.001719359               0.999999984               0.000000000              -0.001755976               0.999999984              -0.000000000              -0.001791868               0.999999984               0.000000000              -0.001826184               0.999999984              -0.000000000              -0.001857989               0.999999984               0.000820266               0.000000000               0.999999984               0.000871662               0.000000000               0.999999984               0.000893735               0.000000000               0.999999984               0.000906043              -0.000000000               0.999999984               0.000915792               0.000000000               0.999999984               0.000925660               0.000000000               0.999999984               0.000936513               0.000000000               0.999999984               0.000948620               0.000000000               0.999999984               0.000961894               0.000000000               0.999999984               0.000976247               0.000000000               0.999999984               0.000991283              -0.000000000               0.999999984               0.001006575               0.000000000               0.999999984               0.001021758              -0.000000000               0.999999984               0.001036179               0.000000000               0.999999984               0.001049241              -0.000000000               0.999999984               0.001060138               0.000000000               0.999999984               0.001067981               0.000000000               0.999999984               0.000815711              -0.000133512               0.999999984               0.000863064              -0.000107458               0.999999984               0.000882618              -0.000095690               0.999999984               0.000893304              -0.000090975               0.999999984               0.000901831              -0.000089944               0.999999984               0.000910794              -0.000090562               0.999999984               0.000920933              -0.000092046               0.999999984               0.000932361              -0.000093722               0.999999984               0.000944955              -0.000095329               0.999999984               0.000958410              -0.000096360               0.999999984               0.000972324              -0.000096366               0.999999984               0.000986215              -0.000095057               0.999999984               0.000999580              -0.000091945               0.999999984               0.001011907              -0.000086533               0.999999984               0.001022588              -0.000078219               0.999999984               0.001031014              -0.000065876               0.999999984               0.001036543              -0.000048586               0.999999984               0.000802256              -0.000265835               0.999999984               0.000837776              -0.000214383               0.999999984               0.000850019              -0.000192135               0.999999984               0.000856228              -0.000183798               0.999999984               0.000861861              -0.000182392               0.999999984               0.000868651              -0.000184326               0.999999984               0.000876930              -0.000187718               0.999999984               0.000886549              -0.000191322               0.999999984               0.000896993              -0.000194602               0.999999984               0.000907747              -0.000196575               0.999999984               0.000918249              -0.000196449               0.999999984               0.000927921              -0.000193711               0.999999984               0.000936373              -0.000187555               0.999999984               0.000943049              -0.000177261               0.999999984               0.000947477              -0.000161783               0.999999984               0.000949414              -0.000139793               0.999999984               0.000948772              -0.000110057               0.999999984               0.000780155              -0.000395792               0.999999984               0.000796965              -0.000320453               0.999999984               0.000798547              -0.000289932               0.999999984               0.000798595              -0.000279904               0.999999984               0.000800488              -0.000279457               0.999999984               0.000804600              -0.000283508               0.999999984               0.000810471              -0.000289275               0.999999984               0.000817376              -0.000295120               0.999999984               0.000824520              -0.000300020               0.999999984               0.000831113              -0.000302698               0.999999984               0.000836546              -0.000302164               0.999999984               0.000840215              -0.000297817               0.999999984               0.000841586              -0.000288781               0.999999984               0.000840334              -0.000274342               0.999999984               0.000836354              -0.000253819               0.999999984               0.000829756              -0.000226150               0.999999984               0.000821019              -0.000190729               0.999999984               0.000749771              -0.000522145               0.999999984               0.000742569              -0.000425617               0.999999984               0.000732328              -0.000389575               0.999999984               0.000726357              -0.000379749               0.999999984               0.000724770              -0.000381663               0.999999984               0.000726492              -0.000388474               0.999999984               0.000729837              -0.000396980               0.999999984               0.000733617              -0.000405027               0.999999984               0.000736791              -0.000411217               0.999999984               0.000738285              -0.000414125               0.999999984               0.000737400              -0.000412774               0.999999984               0.000733637              -0.000406684               0.999999984               0.000726788              -0.000395125               0.999999984               0.000716813              -0.000377564               0.999999984               0.000703836              -0.000353840               0.999999984               0.000688346              -0.000323919               0.999999984               0.000671027              -0.000288094               0.999999984               0.000711683              -0.000643722               0.999999984               0.000677481              -0.000529839               0.999999984               0.000656258              -0.000491208               0.999999984               0.000645878              -0.000483184               0.999999984               0.000642227              -0.000488065               0.999999984               0.000642116              -0.000498019               0.999999984               0.000643154              -0.000509018               0.999999984               0.000643578              -0.000518821               0.999999984               0.000641947              -0.000525786               0.999999984               0.000637481              -0.000528341               0.999999984               0.000629561              -0.000525740               0.999999984               0.000617915              -0.000517677               0.999999984               0.000602477              -0.000503900               0.999999984               0.000583408              -0.000484189               0.999999984               0.000561223              -0.000458876               0.999999984               0.000536595              -0.000428828               0.999999984               0.000510281              -0.000394986               0.999999984               0.000666472              -0.000759473               0.999999984               0.000604963              -0.000633215               0.999999984               0.000575564              -0.000594305               0.999999984               0.000563155              -0.000588995               0.999999984               0.000558915              -0.000596948               0.999999984               0.000557747              -0.000609551               0.999999984               0.000556420              -0.000622494               0.999999984               0.000552918              -0.000633433               0.999999984               0.000546126              -0.000640484               0.999999984               0.000535112              -0.000642186               0.999999984               0.000519482              -0.000638091               0.999999984               0.000499062              -0.000628310               0.999999984               0.000474109              -0.000612804               0.999999984               0.000445190              -0.000592058               0.999999984               0.000413214              -0.000566698               0.999999984               0.000379042              -0.000537939               0.999999984               0.000343599              -0.000507291               0.999999984               0.000615293              -0.000868035               0.999999984               0.000528575              -0.000735485               0.999999984               0.000494662              -0.000698038               0.999999984               0.000482976              -0.000695225               0.999999984               0.000479339              -0.000705750               0.999999984               0.000477342              -0.000720513               0.999999984               0.000473512              -0.000734686               0.999999984               0.000465947              -0.000745793               0.999999984               0.000453348              -0.000752321               0.999999984               0.000434778              -0.000752854               0.999999984               0.000410168              -0.000747303               0.999999984               0.000379697              -0.000736221               0.999999984               0.000344211              -0.000719927               0.999999984               0.000304762              -0.000699212               0.999999984               0.000262610              -0.000675230               0.999999984               0.000218802              -0.000649254               0.999999984               0.000174295              -0.000622681               0.999999984               0.000559772              -0.000967513               0.999999984               0.000450921              -0.000836493               0.999999984               0.000417734              -0.000800770               0.999999984               0.000408514              -0.000799834               0.999999984               0.000406165              -0.000812280               0.999999984               0.000403431              -0.000828394               0.999999984               0.000396850              -0.000843055               0.999999984               0.000384373              -0.000853925               0.999999984               0.000364797              -0.000859460               0.999999984               0.000337464              -0.000858682               0.999999984               0.000302478              -0.000851970               0.999999984               0.000260800              -0.000840116               0.999999984               0.000213933              -0.000823887               0.999999984               0.000163464              -0.000804459               0.999999984               0.000110785              -0.000783258               0.999999984               0.000057190              -0.000761401               0.999999984               0.000003505              -0.000739505               0.999999984               0.000502325              -0.001061624               0.999999984               0.000386040              -0.000949329               0.999999984               0.000349985              -0.000909485               0.999999984               0.000339851              -0.000903002               0.999999984               0.000337598              -0.000911398               0.999999984               0.000335943              -0.000925621               0.999999984               0.000331302              -0.000940793               0.999999984               0.000321728              -0.000953996               0.999999984               0.000306286              -0.000963904               0.999999984               0.000283750              -0.000969549               0.999999984               0.000253642              -0.000970554               0.999999984               0.000216487              -0.000967201               0.999999984               0.000173144              -0.000960077               0.999999984               0.000124999              -0.000949834               0.999999984               0.000073482              -0.000937520               0.999999984               0.000019765              -0.000923962               0.999999984              -0.000034734              -0.000910185               0.999999984               0.000439570              -0.001147221               0.999999984               0.000324025              -0.001058503               0.999999984               0.000285299              -0.001021013               0.999999984               0.000273396              -0.001011481               0.999999984               0.000270411              -0.001016940               0.999999984               0.000269057              -0.001029755               0.999999984               0.000265891              -0.001045241               0.999999984               0.000258734              -0.001060618               0.999999984               0.000246592              -0.001074369               0.999999984               0.000228420              -0.001085429               0.999999984               0.000203425              -0.001093054               0.999999984               0.000171230              -0.001097163               0.999999984               0.000132186              -0.001098014               0.999999984               0.000087148              -0.001096121               0.999999984               0.000037398              -0.001092066               0.999999984              -0.000015937              -0.001086515               0.999999984              -0.000071235              -0.001080472               0.999999984               0.000372722              -0.001222236               0.999999984               0.000264876              -0.001160675               0.999999984               0.000225366              -0.001130197               0.999999984               0.000211509              -0.001121113               0.999999984               0.000207202              -0.001125441               0.999999984               0.000205633              -0.001137634               0.999999984               0.000203262              -0.001153717               0.999999984               0.000198037              -0.001171245               0.999999984               0.000188614              -0.001188610               0.999999984               0.000174184              -0.001204719               0.999999984               0.000153844              -0.001218612               0.999999984               0.000126864              -0.001229789               0.999999984               0.000092746              -0.001238112               0.999999984               0.000051931              -0.001243809               0.999999984               0.000004917              -0.001247234               0.999999984              -0.000047403              -0.001249135               0.999999984              -0.000103676              -0.001250382               0.999999984               0.000302432              -0.001285343               0.999999984               0.000208597              -0.001251474               0.999999984               0.000170937              -0.001231538               0.999999984               0.000155990              -0.001226016               0.999999984               0.000150502              -0.001231393               0.999999984               0.000148408              -0.001244059               0.999999984               0.000146323              -0.001261376               0.999999984               0.000142298              -0.001281385               0.999999984               0.000135188              -0.001302412               0.999999984               0.000124136              -0.001323256               0.999999984               0.000108141              -0.001343033               0.999999984               0.000086318              -0.001361051               0.999999984               0.000057955              -0.001376803               0.999999984               0.000022537              -0.001390147               0.999999984              -0.000020150              -0.001401260               0.999999984              -0.000070164              -0.001410767               0.999999984              -0.000126929              -0.001419192               0.999999984               0.000229360              -0.001335563               0.999999984               0.000154596              -0.001326881               0.999999984               0.000122107              -0.001318952               0.999999984               0.000107941              -0.001319079               0.999999984               0.000102001              -0.001327349               0.999999984               0.000099402              -0.001342068               0.999999984               0.000097369              -0.001361437               0.999999984               0.000094237              -0.001383981               0.999999984               0.000088984              -0.001408463               0.999999984               0.000080813              -0.001433811               0.999999984               0.000068946              -0.001459161               0.999999984               0.000052409              -0.001483777               0.999999984               0.000030327              -0.001506963               0.999999984               0.000001799              -0.001528365               0.999999984              -0.000034244              -0.001547798               0.999999984              -0.000078839              -0.001565260               0.999999984              -0.000132734              -0.001581137               0.999999984               0.000154168              -0.001372020               0.999999984               0.000102225              -0.001383399               0.999999984               0.000078309              -0.001386416               0.999999984               0.000067145              -0.001392734               0.999999984               0.000061949              -0.001404704               0.999999984               0.000059426              -0.001422182               0.999999984               0.000057781              -0.001444122               0.999999984               0.000055522              -0.001469349               0.999999984               0.000051818              -0.001496942               0.999999984               0.000046234              -0.001526214               0.999999984               0.000038366              -0.001556523               0.999999984               0.000027241              -0.001586979               0.999999984               0.000011960              -0.001617018               0.999999984              -0.000008465              -0.001646183               0.999999984              -0.000035017              -0.001673851               0.999999984              -0.000069297              -0.001699440               0.999999984              -0.000113250              -0.001722859               0.999999984               0.000077484              -0.001394109               0.999999984               0.000050870              -0.001418413               0.999999984               0.000038206              -0.001429059               0.999999984               0.000032010              -0.001440050               0.999999984               0.000028924              -0.001455164               0.999999984               0.000027401              -0.001474938               0.999999984               0.000026436              -0.001498952               0.999999984               0.000025263              -0.001526449               0.999999984               0.000023318              -0.001556640               0.999999984               0.000020404              -0.001588938               0.999999984               0.000016407              -0.001622709               0.999999984               0.000010694              -0.001657377               0.999999984               0.000002744              -0.001692382               0.999999984              -0.000007946              -0.001727037               0.999999984              -0.000022137              -0.001760687               0.999999984              -0.000040848              -0.001792591               0.999999984              -0.000065909              -0.001822094               0.999999984               0.000000000              -0.001401516               0.999999984               0.000000000              -0.001430267               0.999999984              -0.000000000              -0.001443671               0.999999984              -0.000000000              -0.001456438               0.999999984               0.000000000              -0.001472754               0.999999984              -0.000000000              -0.001493425               0.999999984               0.000000000              -0.001518221               0.999999984              -0.000000000              -0.001546673               0.999999984               0.000000000              -0.001577959               0.999999984               0.000000000              -0.001611392               0.999999984              -0.000000000              -0.001646530               0.999999984              -0.000000000              -0.001682693               0.999999984              -0.000000000              -0.001719359               0.999999984               0.000000000              -0.001755976               0.999999984              -0.000000000              -0.001791868               0.999999984               0.000000000              -0.001826184               0.999999984              -0.000000000              -0.001857989               0.999999984               0.000820266               0.000000000               0.999999984               0.000871662               0.000000000               0.999999984               0.000893735               0.000000000               0.999999984               0.000906043              -0.000000000               0.999999984               0.000915792               0.000000000               0.999999984               0.000925660               0.000000000               0.999999984               0.000936513               0.000000000               0.999999984               0.000948620               0.000000000               0.999999984               0.000961894               0.000000000               0.999999984               0.000976247               0.000000000               0.999999984               0.000991283              -0.000000000               0.999999984               0.001006575               0.000000000               0.999999984               0.001021758              -0.000000000               0.999999984               0.001036179               0.000000000               0.999999984               0.001049241              -0.000000000               0.999999984               0.001060138               0.000000000               0.999999984               0.001067981               0.000000000               0.999999984               0.000815711               0.000133512               0.999999984               0.000863064               0.000107458               0.999999984               0.000882618               0.000095690               0.999999984               0.000893304               0.000090975               0.999999984               0.000901831               0.000089944               0.999999984               0.000910794               0.000090562               0.999999984               0.000920933               0.000092046               0.999999984               0.000932361               0.000093722               0.999999984               0.000944955               0.000095329               0.999999984               0.000958410               0.000096360               0.999999984               0.000972324               0.000096366               0.999999984               0.000986215               0.000095057               0.999999984               0.000999580               0.000091945               0.999999984               0.001011907               0.000086533               0.999999984               0.001022588               0.000078219               0.999999984               0.001031014               0.000065876               0.999999984               0.001036543               0.000048586               0.999999984               0.000802256               0.000265835               0.999999984               0.000837776               0.000214383               0.999999984               0.000850019               0.000192135               0.999999984               0.000856228               0.000183798               0.999999984               0.000861861               0.000182392               0.999999984               0.000868651               0.000184326               0.999999984               0.000876930               0.000187718               0.999999984               0.000886549               0.000191322               0.999999984               0.000896993               0.000194602               0.999999984               0.000907747               0.000196575               0.999999984               0.000918249               0.000196449               0.999999984               0.000927921               0.000193711               0.999999984               0.000936373               0.000187555               0.999999984               0.000943049               0.000177261               0.999999984               0.000947477               0.000161783               0.999999984               0.000949414               0.000139793               0.999999984               0.000948772               0.000110057               0.999999984               0.000780155               0.000395792               0.999999984               0.000796965               0.000320453               0.999999984               0.000798547               0.000289932               0.999999984               0.000798595               0.000279904               0.999999984               0.000800488               0.000279457               0.999999984               0.000804600               0.000283508               0.999999984               0.000810471               0.000289275               0.999999984               0.000817376               0.000295120               0.999999984               0.000824520               0.000300020               0.999999984               0.000831113               0.000302698               0.999999984               0.000836546               0.000302164               0.999999984               0.000840215               0.000297817               0.999999984               0.000841586               0.000288781               0.999999984               0.000840334               0.000274342               0.999999984               0.000836354               0.000253819               0.999999984               0.000829756               0.000226150               0.999999984               0.000821019               0.000190729               0.999999984               0.000749771               0.000522145               0.999999984               0.000742569               0.000425617               0.999999984               0.000732328               0.000389575               0.999999984               0.000726357               0.000379749               0.999999984               0.000724770               0.000381663               0.999999984               0.000726492               0.000388474               0.999999984               0.000729837               0.000396980               0.999999984               0.000733617               0.000405027               0.999999984               0.000736791               0.000411217               0.999999984               0.000738285               0.000414125               0.999999984               0.000737400               0.000412774               0.999999984               0.000733637               0.000406684               0.999999984               0.000726788               0.000395125               0.999999984               0.000716813               0.000377564               0.999999984               0.000703836               0.000353840               0.999999984               0.000688346               0.000323919               0.999999984               0.000671027               0.000288094               0.999999984               0.000711683               0.000643722               0.999999984               0.000677481               0.000529839               0.999999984               0.000656258               0.000491208               0.999999984               0.000645878               0.000483184               0.999999984               0.000642227               0.000488065               0.999999984               0.000642116               0.000498019               0.999999984               0.000643154               0.000509018               0.999999984               0.000643578               0.000518821               0.999999984               0.000641947               0.000525786               0.999999984               0.000637481               0.000528341               0.999999984               0.000629561               0.000525740               0.999999984               0.000617915               0.000517677               0.999999984               0.000602477               0.000503900               0.999999984               0.000583408               0.000484189               0.999999984               0.000561223               0.000458876               0.999999984               0.000536595               0.000428828               0.999999984               0.000510281               0.000394986               0.999999984               0.000666472               0.000759473               0.999999984               0.000604963               0.000633215               0.999999984               0.000575564               0.000594305               0.999999984               0.000563155               0.000588995               0.999999984               0.000558915               0.000596948               0.999999984               0.000557747               0.000609551               0.999999984               0.000556420               0.000622494               0.999999984               0.000552918               0.000633433               0.999999984               0.000546126               0.000640484               0.999999984               0.000535112               0.000642186               0.999999984               0.000519482               0.000638091               0.999999984               0.000499062               0.000628310               0.999999984               0.000474109               0.000612804               0.999999984               0.000445190               0.000592058               0.999999984               0.000413214               0.000566698               0.999999984               0.000379042               0.000537939               0.999999984               0.000343599               0.000507291               0.999999984               0.000615293               0.000868035               0.999999984               0.000528575               0.000735485               0.999999984               0.000494662               0.000698038               0.999999984               0.000482976               0.000695225               0.999999984               0.000479339               0.000705750               0.999999984               0.000477342               0.000720513               0.999999984               0.000473512               0.000734686               0.999999984               0.000465947               0.000745793               0.999999984               0.000453348               0.000752321               0.999999984               0.000434778               0.000752854               0.999999984               0.000410168               0.000747303               0.999999984               0.000379697               0.000736221               0.999999984               0.000344211               0.000719927               0.999999984               0.000304762               0.000699212               0.999999984               0.000262610               0.000675230               0.999999984               0.000218802               0.000649254               0.999999984               0.000174295               0.000622681               0.999999984               0.000559772               0.000967513               0.999999984               0.000450921               0.000836493               0.999999984               0.000417734               0.000800770               0.999999984               0.000408514               0.000799834               0.999999984               0.000406165               0.000812280               0.999999984               0.000403431               0.000828394               0.999999984               0.000396850               0.000843055               0.999999984               0.000384373               0.000853925               0.999999984               0.000364797               0.000859460               0.999999984               0.000337464               0.000858682               0.999999984               0.000302478               0.000851970               0.999999984               0.000260800               0.000840116               0.999999984               0.000213933               0.000823887               0.999999984               0.000163464               0.000804459               0.999999984               0.000110785               0.000783258               0.999999984               0.000057190               0.000761401               0.999999984               0.000003505               0.000739505               0.999999984               0.000502325               0.001061624               0.999999984               0.000386040               0.000949329               0.999999984               0.000349985               0.000909485               0.999999984               0.000339851               0.000903002               0.999999984               0.000337598               0.000911398               0.999999984               0.000335943               0.000925621               0.999999984               0.000331302               0.000940793               0.999999984               0.000321728               0.000953996               0.999999984               0.000306286               0.000963904               0.999999984               0.000283750               0.000969549               0.999999984               0.000253642               0.000970554               0.999999984               0.000216487               0.000967201               0.999999984               0.000173144               0.000960077               0.999999984               0.000124999               0.000949834               0.999999984               0.000073482               0.000937520               0.999999984               0.000019765               0.000923962               0.999999984              -0.000034734               0.000910185               0.999999984               0.000439570               0.001147221               0.999999984               0.000324025               0.001058503               0.999999984               0.000285299               0.001021013               0.999999984               0.000273396               0.001011481               0.999999984               0.000270411               0.001016940               0.999999984               0.000269057               0.001029755               0.999999984               0.000265891               0.001045241               0.999999984               0.000258734               0.001060618               0.999999984               0.000246592               0.001074369               0.999999984               0.000228420               0.001085429               0.999999984               0.000203425               0.001093054               0.999999984               0.000171230               0.001097163               0.999999984               0.000132186               0.001098014               0.999999984               0.000087148               0.001096121               0.999999984               0.000037398               0.001092066               0.999999984              -0.000015937               0.001086515               0.999999984              -0.000071235               0.001080472               0.999999984               0.000372722               0.001222236               0.999999984               0.000264876               0.001160675               0.999999984               0.000225366               0.001130197               0.999999984               0.000211509               0.001121113               0.999999984               0.000207202               0.001125441               0.999999984               0.000205633               0.001137634               0.999999984               0.000203262               0.001153717               0.999999984               0.000198037               0.001171245               0.999999984               0.000188614               0.001188610               0.999999984               0.000174184               0.001204719               0.999999984               0.000153844               0.001218612               0.999999984               0.000126864               0.001229789               0.999999984               0.000092746               0.001238112               0.999999984               0.000051931               0.001243809               0.999999984               0.000004917               0.001247234               0.999999984              -0.000047403               0.001249135               0.999999984              -0.000103676               0.001250382               0.999999984               0.000302432               0.001285343               0.999999984               0.000208597               0.001251474               0.999999984               0.000170937               0.001231538               0.999999984               0.000155990               0.001226016               0.999999984               0.000150502               0.001231393               0.999999984               0.000148408               0.001244059               0.999999984               0.000146323               0.001261376               0.999999984               0.000142298               0.001281385               0.999999984               0.000135188               0.001302412               0.999999984               0.000124136               0.001323256               0.999999984               0.000108141               0.001343033               0.999999984               0.000086318               0.001361051               0.999999984               0.000057955               0.001376803               0.999999984               0.000022537               0.001390147               0.999999984              -0.000020150               0.001401260               0.999999984              -0.000070164               0.001410767               0.999999984              -0.000126929               0.001419192               0.999999984               0.000229360               0.001335563               0.999999984               0.000154596               0.001326881               0.999999984               0.000122107               0.001318952               0.999999984               0.000107941               0.001319079               0.999999984               0.000102001               0.001327349               0.999999984               0.000099402               0.001342068               0.999999984               0.000097369               0.001361437               0.999999984               0.000094237               0.001383981               0.999999984               0.000088984               0.001408463               0.999999984               0.000080813               0.001433811               0.999999984               0.000068946               0.001459161               0.999999984               0.000052409               0.001483777               0.999999984               0.000030327               0.001506963               0.999999984               0.000001799               0.001528365               0.999999984              -0.000034244               0.001547798               0.999999984              -0.000078839               0.001565260               0.999999984              -0.000132734               0.001581137               0.999999984               0.000154168               0.001372020               0.999999984               0.000102225               0.001383399               0.999999984               0.000078309               0.001386416               0.999999984               0.000067145               0.001392734               0.999999984               0.000061949               0.001404704               0.999999984               0.000059426               0.001422182               0.999999984               0.000057781               0.001444122               0.999999984               0.000055522               0.001469349               0.999999984               0.000051818               0.001496942               0.999999984               0.000046234               0.001526214               0.999999984               0.000038366               0.001556523               0.999999984               0.000027241               0.001586979               0.999999984               0.000011960               0.001617018               0.999999984              -0.000008465               0.001646183               0.999999984              -0.000035017               0.001673851               0.999999984              -0.000069297               0.001699440               0.999999984              -0.000113250               0.001722859               0.999999984               0.000077484               0.001394109               0.999999984               0.000050870               0.001418413               0.999999984               0.000038206               0.001429059               0.999999984               0.000032010               0.001440050               0.999999984               0.000028924               0.001455164               0.999999984               0.000027401               0.001474938               0.999999984               0.000026436               0.001498952               0.999999984               0.000025263               0.001526449               0.999999984               0.000023318               0.001556640               0.999999984               0.000020404               0.001588938               0.999999984               0.000016407               0.001622709               0.999999984               0.000010694               0.001657377               0.999999984               0.000002744               0.001692382               0.999999984              -0.000007946               0.001727037               0.999999984              -0.000022137               0.001760687               0.999999984              -0.000040848               0.001792591               0.999999984              -0.000065909               0.001822094               0.999999984               0.000000000               0.001401516               0.999999984              -0.000000000               0.001430267               0.999999984              -0.000000000               0.001443671               0.999999984              -0.000000000               0.001456438               0.999999984              -0.000000000               0.001472754               0.999999984              -0.000000000               0.001493425               0.999999984               0.000000000               0.001518221               0.999999984               0.000000000               0.001546673               0.999999984              -0.000000000               0.001577959               0.999999984              -0.000000000               0.001611392               0.999999984              -0.000000000               0.001646530               0.999999984              -0.000000000               0.001682693               0.999999984               0.000000000               0.001719359               0.999999984               0.000000000               0.001755976               0.999999984              -0.000000000               0.001791868               0.999999984               0.000000000               0.001826184               0.999999984               0.000000000               0.001857989               0.999999984 </DataArray>
<DataArray type="Float64"                                    Name="stress"                                                      NumberOfComponents="10" format="ascii">
              0.002254030               0.024323165              -0.000000000              -0.002195129               0.008839350               0.006644221               0.000000000               0.000000000               0.000000000               0.000000000               0.002188524               0.018833375               0.000000000              -0.001533471               0.006788886               0.005255415               0.000000000               0.000000000               0.000000000               0.000000000               0.002832333               0.014357365               0.000000000              -0.000732544               0.005029922               0.004297378               0.000000000               0.000000000               0.000000000               0.000000000               0.002652591               0.011817312               0.000000000              -0.000482441               0.004099878               0.003617437               0.000000000               0.000000000               0.000000000               0.000000000               0.002239569               0.010209373               0.000000000              -0.000436332               0.003548534               0.003112202               0.000000000               0.000000000               0.000000000               0.000000000               0.001790817               0.009080741               0.000000000              -0.000463535               0.003181395               0.002717860               0.000000000               0.000000000               0.000000000               0.000000000               0.001375378               0.008228802               0.000000000              -0.000512832               0.002913851               0.002401018               0.000000000               0.000000000               0.000000000               0.000000000               0.001007513               0.007539633               0.000000000              -0.000564635               0.002701398               0.002136762               0.000000000               0.000000000               0.000000000               0.000000000               0.000687851               0.006951280               0.000000000              -0.000610965               0.002520725               0.001909760               0.000000000               0.000000000               0.000000000               0.000000000               0.000417433               0.006415130               0.000000000              -0.000645352               0.002353473               0.001708120               0.000000000               0.000000000               0.000000000               0.000000000               0.000201821               0.005899317              -0.000000000              -0.000661730               0.002186996               0.001525266               0.000000000               0.000000000               0.000000000               0.000000000               0.000034353               0.005381490              -0.000000000              -0.000659802               0.002013746               0.001353944               0.000000000               0.000000000               0.000000000               0.000000000              -0.000082041               0.004841701              -0.000000000              -0.000635977               0.001825876               0.001189900               0.000000000               0.000000000               0.000000000               0.000000000              -0.000141908               0.004262887               0.000000000              -0.000586075               0.001616306               0.001030231               0.000000000               0.000000000               0.000000000               0.000000000              -0.000144519               0.003623014               0.000000000              -0.000507070               0.001376683               0.000869612               0.000000000               0.000000000               0.000000000               0.000000000              -0.000088256               0.002890110              -0.000000000              -0.000394359               0.001094814               0.000700454               0.000000000               0.000000000               0.000000000               0.000000000              -0.000107419               0.002321826              -0.000000000              -0.000330510               0.000884104               0.000553595               0.000000000               0.000000000               0.000000000               0.000000000               0.002326155               0.023814772              -0.001638151              -0.002104534               0.008639689               0.006535155               0.000000000               0.000000000               0.000000000               0.000000000               0.002130195               0.018504388              -0.000781391              -0.001514222               0.006672808               0.005158586               0.000000000               0.000000000               0.000000000               0.000000000               0.002636999               0.014222230               0.000064435              -0.000788902               0.005003663               0.004214761               0.000000000               0.000000000               0.000000000               0.000000000               0.002410199               0.011784539               0.000415639              -0.000569241               0.004117888               0.003548646               0.000000000               0.000000000               0.000000000               0.000000000               0.001988564               0.010226572               0.000553775              -0.000532609               0.003586359               0.003053751               0.000000000               0.000000000               0.000000000               0.000000000               0.001546936               0.009128846               0.000597416              -0.000561004               0.003229919               0.002668916               0.000000000               0.000000000               0.000000000               0.000000000               0.001146674               0.008292381               0.000599273              -0.000606544               0.002966280               0.002359737               0.000000000               0.000000000               0.000000000               0.000000000               0.000799251               0.007609302               0.000583501              -0.000651442               0.002753556               0.002102114               0.000000000               0.000000000               0.000000000               0.000000000               0.000506785               0.007022083               0.000559552              -0.000687715               0.002569909               0.001882194               0.000000000               0.000000000               0.000000000               0.000000000               0.000267356               0.006484092               0.000528105              -0.000710251               0.002398093               0.001687842               0.000000000               0.000000000               0.000000000               0.000000000               0.000081983               0.005966008               0.000494796              -0.000715006               0.002226985               0.001511979               0.000000000               0.000000000               0.000000000               0.000000000              -0.000053033               0.005449232               0.000458324              -0.000701040               0.002050073               0.001349033               0.000000000               0.000000000               0.000000000               0.000000000              -0.000139042               0.004916609               0.000413689              -0.000666715               0.001861092               0.001194376               0.000000000               0.000000000               0.000000000               0.000000000              -0.000172251               0.004355491               0.000356311              -0.000609029               0.001654826               0.001045796               0.000000000               0.000000000               0.000000000               0.000000000              -0.000155238               0.003748186               0.000272470              -0.000526736               0.001424961               0.000898225               0.000000000               0.000000000               0.000000000               0.000000000              -0.000091909               0.003075211               0.000152573              -0.000418866               0.001164682               0.000745816               0.000000000               0.000000000               0.000000000               0.000000000              -0.000104263               0.002566721               0.000094803              -0.000359938               0.000975544               0.000615607               0.000000000               0.000000000               0.000000000               0.000000000               0.002501556               0.022361865              -0.003042646              -0.001857146               0.008072929               0.006215782               0.000000000               0.000000000               0.000000000               0.000000000               0.001951383               0.017575583              -0.001445113              -0.001465176               0.006346861               0.004881685               0.000000000               0.000000000               0.000000000               0.000000000               0.002080304               0.013841324               0.000118347              -0.000950049               0.004930411               0.003980362               0.000000000               0.000000000               0.000000000               0.000000000               0.001718365               0.011685904               0.000740696              -0.000816349               0.004167379               0.003351030               0.000000000               0.000000000               0.000000000               0.000000000               0.001278969               0.010269952               0.000973328              -0.000804129               0.003691326               0.002887197               0.000000000               0.000000000               0.000000000               0.000000000               0.000873424               0.009248537               0.001039777              -0.000828532               0.003358992               0.002530460               0.000000000               0.000000000               0.000000000               0.000000000               0.000527870               0.008448182               0.001034619              -0.000858070               0.003102056               0.002243986               0.000000000               0.000000000               0.000000000               0.000000000               0.000250004               0.007782128               0.001003608              -0.000879013               0.002887021               0.002008008               0.000000000               0.000000000               0.000000000               0.000000000               0.000038229               0.007196819               0.000960228              -0.000885265               0.002694004               0.001808739               0.000000000               0.000000000               0.000000000               0.000000000              -0.000117506               0.006652777               0.000903609              -0.000875660               0.002509457               0.001633797               0.000000000               0.000000000               0.000000000               0.000000000              -0.000219081               0.006130075               0.000842680              -0.000848413               0.002326142               0.001477729               0.000000000               0.000000000               0.000000000               0.000000000              -0.000274690               0.005615872               0.000774657              -0.000804991               0.002140269               0.001335278               0.000000000               0.000000000               0.000000000               0.000000000              -0.000287559               0.005101698               0.000692553              -0.000745545               0.001949064               0.001203519               0.000000000               0.000000000               0.000000000               0.000000000              -0.000254494               0.004586250               0.000588289              -0.000668715               0.001751640               0.001082925               0.000000000               0.000000000               0.000000000               0.000000000              -0.000187028               0.004067182               0.000442907              -0.000578532               0.001548558               0.000970026               0.000000000               0.000000000               0.000000000               0.000000000              -0.000099787               0.003544783               0.000245207              -0.000480517               0.001341755               0.000861238               0.000000000               0.000000000               0.000000000               0.000000000              -0.000091732               0.003181191               0.000148149              -0.000432047               0.001204402               0.000772355               0.000000000               0.000000000               0.000000000               0.000000000               0.002663399               0.020153807              -0.004024890              -0.001520450               0.007224685               0.005704235               0.000000000               0.000000000               0.000000000               0.000000000               0.001620595               0.016192270              -0.001910445              -0.001416308               0.005869472               0.004453164               0.000000000               0.000000000               0.000000000               0.000000000               0.001228962               0.013276685               0.000128481              -0.001198722               0.004825092               0.003626370               0.000000000               0.000000000               0.000000000               0.000000000               0.000711679               0.011515382               0.000893151              -0.001172540               0.004229269               0.003056729               0.000000000               0.000000000               0.000000000               0.000000000               0.000274408               0.010297077               0.001159044              -0.001184229               0.003827068               0.002642839               0.000000000               0.000000000               0.000000000               0.000000000              -0.000057141               0.009368713               0.001224052              -0.001192514               0.003520378               0.002327863               0.000000000               0.000000000               0.000000000               0.000000000              -0.000297048               0.008613628               0.001209079              -0.001188094               0.003267212               0.002079118               0.000000000               0.000000000               0.000000000               0.000000000              -0.000460188               0.007964399               0.001166188              -0.001168118               0.003044146               0.001876028               0.000000000               0.000000000               0.000000000               0.000000000              -0.000554482               0.007375611               0.001107660              -0.001129879               0.002835139               0.001705259               0.000000000               0.000000000               0.000000000               0.000000000              -0.000595009               0.006821214               0.001034571              -0.001075778               0.002632308               0.001556530               0.000000000               0.000000000               0.000000000               0.000000000              -0.000589924               0.006292666               0.000956504              -0.001007803               0.002433468               0.001425666               0.000000000               0.000000000               0.000000000               0.000000000              -0.000541476               0.005788839               0.000868819              -0.000926656               0.002238479               0.001311823               0.000000000               0.000000000               0.000000000               0.000000000              -0.000457748               0.005308495               0.000762288              -0.000835216               0.002047886               0.001212670               0.000000000               0.000000000               0.000000000               0.000000000              -0.000348416               0.004854852               0.000632334              -0.000737511               0.001864105               0.001126594               0.000000000               0.000000000               0.000000000               0.000000000              -0.000226508               0.004441308               0.000463894              -0.000640103               0.001693789               0.001053686               0.000000000               0.000000000               0.000000000               0.000000000              -0.000110786               0.004085520               0.000249226              -0.000552234               0.001545904               0.000993671               0.000000000               0.000000000               0.000000000               0.000000000              -0.000078919               0.003874267               0.000142984              -0.000513877               0.001462702               0.000948825               0.000000000               0.000000000               0.000000000               0.000000000               0.002663729               0.017452344              -0.004496682              -0.001182645               0.006211604               0.005028959               0.000000000               0.000000000               0.000000000               0.000000000               0.001107547               0.014534247              -0.002161210              -0.001401448               0.005311850               0.003910401               0.000000000               0.000000000               0.000000000               0.000000000               0.000175594               0.012599313               0.000052702              -0.001509063               0.004702750               0.003193687               0.000000000               0.000000000               0.000000000               0.000000000              -0.000433110               0.011266602               0.000826071              -0.001570738               0.004279076               0.002708338               0.000000000               0.000000000               0.000000000               0.000000000              -0.000806438               0.010244358               0.001072742              -0.001582955               0.003942404               0.002359448               0.000000000               0.000000000               0.000000000               0.000000000              -0.001016840               0.009408297               0.001124516              -0.001557349               0.003655184               0.002097835               0.000000000               0.000000000               0.000000000               0.000000000              -0.001112934               0.008691149               0.001106141              -0.001503740               0.003398267               0.001894527               0.000000000               0.000000000               0.000000000               0.000000000              -0.001136616               0.008048572               0.001061607              -0.001432299               0.003160263               0.001727964               0.000000000               0.000000000               0.000000000               0.000000000              -0.001100091               0.007452706               0.001002042              -0.001344119               0.002932250               0.001588131               0.000000000               0.000000000               0.000000000               0.000000000              -0.001014263               0.006890691               0.000927834              -0.001241682               0.002710768               0.001469086               0.000000000               0.000000000               0.000000000               0.000000000              -0.000892606               0.006364520               0.000848223              -0.001130290               0.002498248               0.001367959               0.000000000               0.000000000               0.000000000               0.000000000              -0.000744916               0.005878176               0.000757647              -0.001014113               0.002297410               0.001283297               0.000000000               0.000000000               0.000000000               0.000000000              -0.000581166               0.005438383               0.000644944              -0.000897733               0.002112020               0.001214287               0.000000000               0.000000000               0.000000000               0.000000000              -0.000411717               0.005051420               0.000512135              -0.000785819               0.001945729               0.001159910               0.000000000               0.000000000               0.000000000               0.000000000              -0.000252691               0.004730232               0.000359203              -0.000686036               0.001805407               0.001119370               0.000000000               0.000000000               0.000000000               0.000000000              -0.000119637               0.004497798               0.000185565              -0.000607087               0.001701613               0.001094526               0.000000000               0.000000000               0.000000000               0.000000000              -0.000072704               0.004386493               0.000101802              -0.000575574               0.001654008               0.001078433               0.000000000               0.000000000               0.000000000               0.000000000               0.002362167               0.014542052              -0.004473286              -0.000931945               0.005157949               0.004226004               0.000000000               0.000000000               0.000000000               0.000000000               0.000413272               0.012781877              -0.002232112              -0.001442756               0.004741501               0.003298746               0.000000000               0.000000000               0.000000000               0.000000000              -0.000950410               0.011859352              -0.000136755              -0.001838818               0.004566017               0.002727199               0.000000000               0.000000000               0.000000000               0.000000000              -0.001548154               0.010926075               0.000545234              -0.001946312               0.004290759               0.002344447               0.000000000               0.000000000               0.000000000               0.000000000              -0.001778687               0.010070032               0.000754650              -0.001925757               0.003998563               0.002072806               0.000000000               0.000000000               0.000000000               0.000000000              -0.001824296               0.009303057               0.000802825              -0.001846989               0.003716651               0.001869662               0.000000000               0.000000000               0.000000000               0.000000000              -0.001764860               0.008607715               0.000797772              -0.001737783               0.003448471               0.001710688               0.000000000               0.000000000               0.000000000               0.000000000              -0.001639408               0.007971179               0.000772384              -0.001611171               0.003194090               0.001582919               0.000000000               0.000000000               0.000000000               0.000000000              -0.001471530               0.007374546               0.000726951              -0.001473639               0.002949370               0.001475732               0.000000000               0.000000000               0.000000000               0.000000000              -0.001276594               0.006814820               0.000665306              -0.001330572               0.002715108               0.001384536               0.000000000               0.000000000               0.000000000               0.000000000              -0.001060814               0.006304645               0.000598103              -0.001185883               0.002496822               0.001310939               0.000000000               0.000000000               0.000000000               0.000000000              -0.000836850               0.005851023               0.000522207              -0.001045194               0.002298719               0.001253525               0.000000000               0.000000000               0.000000000               0.000000000              -0.000615518               0.005460973               0.000429565              -0.000913438               0.002124785               0.001211347               0.000000000               0.000000000               0.000000000               0.000000000              -0.000411970               0.005143035               0.000322061              -0.000797366               0.001980117               0.001182751               0.000000000               0.000000000               0.000000000               0.000000000              -0.000240462               0.004902099               0.000210716              -0.000702934               0.001868328               0.001165394               0.000000000               0.000000000               0.000000000               0.000000000              -0.000107811               0.004748045               0.000103396              -0.000633933               0.001793977               0.001160044               0.000000000               0.000000000               0.000000000               0.000000000              -0.000058954               0.004686357               0.000055384              -0.000607901               0.001764737               0.001156836               0.000000000               0.000000000               0.000000000               0.000000000               0.001690874               0.011660183              -0.004045982              -0.000823447               0.004161170               0.003337723               0.000000000               0.000000000               0.000000000               0.000000000              -0.000430909               0.011071142              -0.002184448              -0.001545481               0.004205504               0.002660023               0.000000000               0.000000000               0.000000000               0.000000000              -0.002028034               0.011080171              -0.000445025              -0.002145529               0.004408530               0.002263001               0.000000000               0.000000000               0.000000000               0.000000000              -0.002490493               0.010470650               0.000104709              -0.002242761               0.004237769               0.001995008               0.000000000               0.000000000               0.000000000               0.000000000              -0.002525081               0.009745540               0.000290270              -0.002165093               0.003970178               0.001805086               0.000000000               0.000000000               0.000000000               0.000000000              -0.002385545               0.009034635               0.000357621              -0.002023904               0.003686149               0.001662246               0.000000000               0.000000000               0.000000000               0.000000000              -0.002165441               0.008361811               0.000386387              -0.001857262               0.003406330               0.001549068               0.000000000               0.000000000               0.000000000               0.000000000              -0.001908567               0.007729743               0.000394393              -0.001681926               0.003137197               0.001455271               0.000000000               0.000000000               0.000000000               0.000000000              -0.001628046               0.007142611               0.000376184              -0.001503340               0.002881960               0.001378620               0.000000000               0.000000000               0.000000000               0.000000000              -0.001339843               0.006606055               0.000343254              -0.001328195               0.002644728               0.001316533               0.000000000               0.000000000               0.000000000               0.000000000              -0.001052853               0.006134333               0.000309281              -0.001161609               0.002431960               0.001270351               0.000000000               0.000000000               0.000000000               0.000000000              -0.000778952               0.005734973               0.000268289              -0.001008976               0.002247964               0.001238988               0.000000000               0.000000000               0.000000000               0.000000000              -0.000534166               0.005408094               0.000214289              -0.000876322               0.002094787               0.001218465               0.000000000               0.000000000               0.000000000               0.000000000              -0.000332590               0.005158613               0.000150146              -0.000769546               0.001976036               0.001206490               0.000000000               0.000000000               0.000000000               0.000000000              -0.000178932               0.004988585               0.000085522              -0.000690671               0.001893069               0.001202398               0.000000000               0.000000000               0.000000000               0.000000000              -0.000072726               0.004893170               0.000035807              -0.000638917               0.001844013               0.001205096               0.000000000               0.000000000               0.000000000               0.000000000              -0.000035985               0.004860963               0.000017833              -0.000621113               0.001827343               0.001206229               0.000000000               0.000000000               0.000000000               0.000000000               0.000694688               0.008990377              -0.003324584              -0.000863290               0.003284525               0.002421235               0.000000000               0.000000000               0.000000000               0.000000000              -0.001366573               0.009498200              -0.002067476              -0.001699737               0.003732614               0.002032877               0.000000000               0.000000000               0.000000000               0.000000000              -0.002952882               0.010263001              -0.000854348              -0.002390200               0.004217700               0.001827499               0.000000000               0.000000000               0.000000000               0.000000000              -0.003178333               0.009897838              -0.000423120              -0.002429099               0.004108946               0.001679847               0.000000000               0.000000000               0.000000000               0.000000000              -0.002986469               0.009286138              -0.000225967              -0.002280688               0.003855578               0.001574890               0.000000000               0.000000000               0.000000000               0.000000000              -0.002669774               0.008630181              -0.000117549              -0.002079933               0.003570009               0.001490076               0.000000000               0.000000000               0.000000000               0.000000000              -0.002313834               0.007982984              -0.000046453              -0.001865556               0.003282820               0.001417264               0.000000000               0.000000000               0.000000000               0.000000000              -0.001946557               0.007371853               0.000005562              -0.001651437               0.003007738               0.001356302               0.000000000               0.000000000               0.000000000               0.000000000              -0.001571252               0.006813567               0.000034201              -0.001440912               0.002751470               0.001310559               0.000000000               0.000000000               0.000000000               0.000000000              -0.001206275               0.006320630               0.000047245              -0.001242429               0.002520998               0.001278570               0.000000000               0.000000000               0.000000000               0.000000000              -0.000872513               0.005904675               0.000060637              -0.001065274               0.002323297               0.001258022               0.000000000               0.000000000               0.000000000               0.000000000              -0.000584726               0.005565998               0.000065203              -0.000915020               0.002160321               0.001245301               0.000000000               0.000000000               0.000000000               0.000000000              -0.000356560               0.005303836               0.000053255              -0.000796688               0.002033490               0.001236803               0.000000000               0.000000000               0.000000000               0.000000000              -0.000190797               0.005119615               0.000032667              -0.000711499               0.001943688               0.001232189               0.000000000               0.000000000               0.000000000               0.000000000              -0.000083834               0.005012284               0.000011340              -0.000657972               0.001890068               0.001232097               0.000000000               0.000000000               0.000000000               0.000000000              -0.000026487               0.004966214              -0.000000357              -0.000630708               0.001865624               0.001234916               0.000000000               0.000000000               0.000000000               0.000000000              -0.000012284               0.004954462              -0.000001456              -0.000623913               0.001859442               0.001235529               0.000000000               0.000000000               0.000000000               0.000000000              -0.000501864               0.006730873              -0.002432504              -0.001029557               0.002586787               0.001557229               0.000000000               0.000000000               0.000000000               0.000000000              -0.002284126               0.008085311              -0.001928919              -0.001867207               0.003317479               0.001450271               0.000000000               0.000000000               0.000000000               0.000000000              -0.003670863               0.009439841              -0.001337066              -0.002556548               0.003998765               0.001442217               0.000000000               0.000000000               0.000000000               0.000000000              -0.003641064               0.009336525              -0.000981246              -0.002532458               0.003956296               0.001423838               0.000000000               0.000000000               0.000000000               0.000000000              -0.003263837               0.008863328              -0.000749359              -0.002331849               0.003731696               0.001399847               0.000000000               0.000000000               0.000000000               0.000000000              -0.002808008               0.008282875              -0.000588768              -0.002088357               0.003457050               0.001368692               0.000000000               0.000000000               0.000000000               0.000000000              -0.002343786               0.007692923              -0.000467603              -0.001840531               0.003177792               0.001337262               0.000000000               0.000000000               0.000000000               0.000000000              -0.001888407               0.007130590              -0.000366635              -0.001599473               0.002909997               0.001310525               0.000000000               0.000000000               0.000000000               0.000000000              -0.001441836               0.006612028              -0.000285899              -0.001367189               0.002659717               0.001292528               0.000000000               0.000000000               0.000000000               0.000000000              -0.001021158               0.006162309              -0.000216859              -0.001153220               0.002438489               0.001285269               0.000000000               0.000000000               0.000000000               0.000000000              -0.000657873               0.005791202              -0.000151181              -0.000970600               0.002253915               0.001283315               0.000000000               0.000000000               0.000000000               0.000000000              -0.000373607               0.005488413              -0.000097368              -0.000826152               0.002104837               0.001278685               0.000000000               0.000000000               0.000000000               0.000000000              -0.000175935               0.005254939              -0.000060575              -0.000722841               0.001992576               0.001269735               0.000000000               0.000000000               0.000000000               0.000000000              -0.000050959               0.005101862              -0.000035675              -0.000656841               0.001919551               0.001262710               0.000000000               0.000000000               0.000000000               0.000000000               0.000013008               0.005023301              -0.000018080              -0.000623033               0.001882094               0.001259062               0.000000000               0.000000000               0.000000000               0.000000000               0.000027506               0.004995493              -0.000006236              -0.000614120               0.001869855               0.001255734               0.000000000               0.000000000               0.000000000               0.000000000               0.000022677               0.004991697              -0.000001206              -0.000615457               0.001869035               0.001253578               0.000000000               0.000000000               0.000000000               0.000000000              -0.001903246               0.004626565              -0.001487326              -0.001292035               0.001972851               0.000680816               0.000000000               0.000000000               0.000000000               0.000000000              -0.003053040               0.006450863              -0.001771458              -0.001951243               0.002800680               0.000849437               0.000000000               0.000000000               0.000000000               0.000000000              -0.004092520               0.008230944              -0.001841809              -0.002563557               0.003598139               0.001034582               0.000000000               0.000000000               0.000000000               0.000000000              -0.003922548               0.008516685              -0.001574152              -0.002535535               0.003684045               0.001148510               0.000000000               0.000000000               0.000000000               0.000000000              -0.003471164               0.008307863              -0.001309723              -0.002340164               0.003549314               0.001209151               0.000000000               0.000000000               0.000000000               0.000000000              -0.002964896               0.007923862              -0.001094643              -0.002102314               0.003342032               0.001239718               0.000000000               0.000000000               0.000000000               0.000000000              -0.002463013               0.007480698              -0.000921514              -0.001858713               0.003113112               0.001254399               0.000000000               0.000000000               0.000000000               0.000000000              -0.001981525               0.007034891              -0.000777833              -0.001622429               0.002885750               0.001263321               0.000000000               0.000000000               0.000000000               0.000000000              -0.001515869               0.006616839              -0.000651115              -0.001395553               0.002670775               0.001275223               0.000000000               0.000000000               0.000000000               0.000000000              -0.001076588               0.006234592              -0.000528579              -0.001183042               0.002472524               0.001289482               0.000000000               0.000000000               0.000000000               0.000000000              -0.000687686               0.005897963              -0.000410775              -0.000995125               0.002297676               0.001302551               0.000000000               0.000000000               0.000000000               0.000000000              -0.000374096               0.005611032              -0.000300986              -0.000841663               0.002150879               0.001309217               0.000000000               0.000000000               0.000000000               0.000000000              -0.000149514               0.005373144              -0.000204928              -0.000727709               0.002033600               0.001305891               0.000000000               0.000000000               0.000000000               0.000000000              -0.000008057               0.005196425              -0.000127234              -0.000652573               0.001949649               0.001297076               0.000000000               0.000000000               0.000000000               0.000000000               0.000064073               0.005079399              -0.000064293              -0.000610896               0.001896748               0.001285852               0.000000000               0.000000000               0.000000000               0.000000000               0.000082881               0.005020868              -0.000019746              -0.000596527               0.001872448               0.001275921               0.000000000               0.000000000               0.000000000               0.000000000               0.000078167               0.005007533              -0.000002706              -0.000596627               0.001868037               0.001271409               0.000000000               0.000000000               0.000000000               0.000000000              -0.003691280               0.002724577              -0.000557123              -0.001724799               0.001483115              -0.000241684               0.000000000               0.000000000               0.000000000               0.000000000              -0.003917675               0.004807760              -0.001541465              -0.002070094               0.002292601               0.000222507               0.000000000               0.000000000               0.000000000               0.000000000              -0.004418430               0.006811414              -0.002242150              -0.002508332               0.003106559               0.000598227               0.000000000               0.000000000               0.000000000               0.000000000              -0.004122958               0.007465538              -0.002136221              -0.002479296               0.003314919               0.000835624               0.000000000               0.000000000               0.000000000               0.000000000              -0.003628160               0.007570930              -0.001879760              -0.002306921               0.003292591               0.000985670               0.000000000               0.000000000               0.000000000               0.000000000              -0.003099232               0.007430654              -0.001632819              -0.002091039               0.003173872               0.001082833               0.000000000               0.000000000               0.000000000               0.000000000              -0.002580450               0.007175118              -0.001418284              -0.001864554               0.003013200               0.001148646               0.000000000               0.000000000               0.000000000               0.000000000              -0.002082394               0.006886075              -0.001235100              -0.001641653               0.002842553               0.001200900               0.000000000               0.000000000               0.000000000               0.000000000              -0.001612771               0.006591068              -0.001070556              -0.001428669               0.002673224               0.001244554               0.000000000               0.000000000               0.000000000               0.000000000              -0.001165326               0.006293940              -0.000912400              -0.001223737               0.002505871               0.001282134               0.000000000               0.000000000               0.000000000               0.000000000              -0.000749432               0.006008022              -0.000754310              -0.001032037               0.002346666               0.001314629               0.000000000               0.000000000               0.000000000               0.000000000              -0.000390002               0.005747015              -0.000594478              -0.000864626               0.002203861               0.001339235               0.000000000               0.000000000               0.000000000               0.000000000              -0.000110352               0.005514357              -0.000439778              -0.000730675               0.002081659               0.001350984               0.000000000               0.000000000               0.000000000               0.000000000               0.000081168               0.005315913              -0.000299510              -0.000634050               0.001983303               0.001349253               0.000000000               0.000000000               0.000000000               0.000000000               0.000183480               0.005153626              -0.000173219              -0.000575397               0.001909657               0.001334260               0.000000000               0.000000000               0.000000000               0.000000000               0.000214414               0.005052108              -0.000070946              -0.000551107               0.001867722               0.001316615               0.000000000               0.000000000               0.000000000               0.000000000               0.000205085               0.005014996              -0.000025224              -0.000549966               0.001854971               0.001305004               0.000000000               0.000000000               0.000000000               0.000000000              -0.005746887               0.001177913               0.000270347              -0.002302319               0.001160069              -0.001142249               0.000000000               0.000000000               0.000000000               0.000000000              -0.004930254               0.003256076              -0.001221386              -0.002255851               0.001837296              -0.000418555               0.000000000               0.000000000               0.000000000               0.000000000              -0.004688888               0.005199581              -0.002418461              -0.002408275               0.002535934               0.000127658               0.000000000               0.000000000               0.000000000               0.000000000              -0.004184943               0.006109417              -0.002516568              -0.002333026               0.002814126               0.000481101               0.000000000               0.000000000               0.000000000               0.000000000              -0.003626401               0.006501587              -0.002328002              -0.002172594               0.002891371               0.000718777               0.000000000               0.000000000               0.000000000               0.000000000              -0.003077132               0.006613291              -0.002087022              -0.001980582               0.002864602               0.000884020               0.000000000               0.000000000               0.000000000               0.000000000              -0.002554432               0.006578521              -0.001856040              -0.001780223               0.002786226               0.001006002               0.000000000               0.000000000               0.000000000               0.000000000              -0.002054137               0.006476940              -0.001649634              -0.001579916               0.002685597               0.001105681               0.000000000               0.000000000               0.000000000               0.000000000              -0.001579281               0.006335071              -0.001463851              -0.001384111               0.002573039               0.001188928               0.000000000               0.000000000               0.000000000               0.000000000              -0.001127625               0.006159463              -0.001287510              -0.001192790               0.002450730               0.001257940               0.000000000               0.000000000               0.000000000               0.000000000              -0.000701882               0.005960953              -0.001108678              -0.001008323               0.002323072               0.001314749               0.000000000               0.000000000               0.000000000               0.000000000              -0.000312130               0.005755137              -0.000920433              -0.000836439               0.002197173               0.001360733               0.000000000               0.000000000               0.000000000               0.000000000               0.000020984               0.005552537              -0.000727258              -0.000686197               0.002079559               0.001393363               0.000000000               0.000000000               0.000000000               0.000000000               0.000274679               0.005359628              -0.000534042              -0.000566948               0.001975507               0.001408560               0.000000000               0.000000000               0.000000000               0.000000000               0.000434707               0.005193391              -0.000341214              -0.000486158               0.001893166               0.001407008               0.000000000               0.000000000               0.000000000               0.000000000               0.000498174               0.005077443              -0.000161371              -0.000447864               0.001841752               0.001393888               0.000000000               0.000000000               0.000000000               0.000000000               0.000490288               0.005024261              -0.000072637              -0.000444173               0.001822795               0.001378621               0.000000000               0.000000000               0.000000000               0.000000000              -0.007923067               0.000063480               0.000870168              -0.002979083               0.001014180              -0.001964902               0.000000000               0.000000000               0.000000000               0.000000000              -0.006036149               0.001885836              -0.000859334              -0.002499282               0.001461696              -0.001037586               0.000000000               0.000000000               0.000000000               0.000000000              -0.004932340               0.003542322              -0.002339116              -0.002292414               0.001944898              -0.000347516               0.000000000               0.000000000               0.000000000               0.000000000              -0.004130732               0.004569480              -0.002624242              -0.002120205               0.002229878               0.000109673               0.000000000               0.000000000               0.000000000               0.000000000              -0.003473230               0.005180885              -0.002538634              -0.001950068               0.002376966               0.000426898               0.000000000               0.000000000               0.000000000               0.000000000              -0.002899480               0.005529708              -0.002343532              -0.001778515               0.002436055               0.000657540               0.000000000               0.000000000               0.000000000               0.000000000              -0.002375032               0.005725540              -0.002127024              -0.001606326               0.002443936               0.000837609               0.000000000               0.000000000               0.000000000               0.000000000              -0.001884445               0.005819257              -0.001921906              -0.001434071               0.002417756               0.000983685               0.000000000               0.000000000               0.000000000               0.000000000              -0.001417747               0.005836683              -0.001735674              -0.001261238               0.002365954               0.001104716               0.000000000               0.000000000               0.000000000               0.000000000              -0.000969050               0.005798350              -0.001558198              -0.001088185               0.002295492               0.001207307               0.000000000               0.000000000               0.000000000               0.000000000              -0.000534389               0.005718584              -0.001378143              -0.000915217               0.002211248               0.001296031               0.000000000               0.000000000               0.000000000               0.000000000              -0.000119670               0.005604264              -0.001188800              -0.000745408               0.002116538               0.001371131               0.000000000               0.000000000               0.000000000               0.000000000               0.000265109               0.005468631              -0.000986601              -0.000584162               0.002017579               0.001433417               0.000000000               0.000000000               0.000000000               0.000000000               0.000596980               0.005327160              -0.000767316              -0.000442027               0.001923045               0.001481018               0.000000000               0.000000000               0.000000000               0.000000000               0.000852594               0.005200468              -0.000526144              -0.000330335               0.001843584               0.001513249               0.000000000               0.000000000               0.000000000               0.000000000               0.001003205               0.005094405              -0.000266963              -0.000260598               0.001784984               0.001524386               0.000000000               0.000000000               0.000000000               0.000000000               0.001042251               0.005040559              -0.000133699              -0.000239225               0.001759911               0.001520686               0.000000000               0.000000000               0.000000000               0.000000000              -0.010007885              -0.000638577               0.001139978              -0.003673132               0.001011511              -0.002661621               0.000000000               0.000000000               0.000000000               0.000000000              -0.007137275               0.000778611              -0.000521542              -0.002773802               0.001184129              -0.001589672               0.000000000               0.000000000               0.000000000               0.000000000              -0.005155015               0.002006291              -0.002007513              -0.002183914               0.001396725              -0.000787189               0.000000000               0.000000000               0.000000000               0.000000000              -0.004001775               0.003027521              -0.002399489              -0.001879103               0.001635529              -0.000243574               0.000000000               0.000000000               0.000000000               0.000000000              -0.003212489               0.003783248              -0.002407254              -0.001677586               0.001820264               0.000142678               0.000000000               0.000000000               0.000000000               0.000000000              -0.002598860               0.004322705              -0.002281936              -0.001514908               0.001945855               0.000430948               0.000000000               0.000000000               0.000000000               0.000000000              -0.002068916               0.004705443              -0.002113397              -0.001364021               0.002023138               0.000659117               0.000000000               0.000000000               0.000000000               0.000000000              -0.001589243               0.004970338              -0.001937354              -0.001217256               0.002062514               0.000845258               0.000000000               0.000000000               0.000000000               0.000000000              -0.001140922               0.005145677              -0.001770425              -0.001071054               0.002072226               0.001001172               0.000000000               0.000000000               0.000000000               0.000000000              -0.000703825               0.005256134              -0.001614240              -0.000920950               0.002059010               0.001138060               0.000000000               0.000000000               0.000000000               0.000000000              -0.000263325               0.005314300              -0.001458706              -0.000763033               0.002025760               0.001262726               0.000000000               0.000000000               0.000000000               0.000000000               0.000175579               0.005320368              -0.001292746              -0.000599203               0.001973173               0.001373969               0.000000000               0.000000000               0.000000000               0.000000000               0.000607722               0.005289469              -0.001110520              -0.000433287               0.001907568               0.001474280               0.000000000               0.000000000               0.000000000               0.000000000               0.001023828               0.005236066              -0.000901419              -0.000270573               0.001835529               0.001564956               0.000000000               0.000000000               0.000000000               0.000000000               0.001405139               0.005163701              -0.000650500              -0.000118536               0.001760728               0.001642193               0.000000000               0.000000000               0.000000000               0.000000000               0.001722958               0.005083174              -0.000347606               0.000010712               0.001690804               0.001701515               0.000000000               0.000000000               0.000000000               0.000000000               0.001895245               0.005055397              -0.000189998               0.000078791               0.001658852               0.001737643               0.000000000               0.000000000               0.000000000               0.000000000              -0.011753981              -0.001012385               0.001041626              -0.004281192               0.001089595              -0.003191597               0.000000000               0.000000000               0.000000000               0.000000000              -0.008088140              -0.000020875              -0.000262924              -0.003030441               0.001003182              -0.002027259               0.000000000               0.000000000               0.000000000               0.000000000              -0.005348033               0.000762909              -0.001462515              -0.002100874               0.000954587              -0.001146287               0.000000000               0.000000000               0.000000000               0.000000000              -0.003860479               0.001702111              -0.001833068              -0.001660441               0.001120842              -0.000539599               0.000000000               0.000000000               0.000000000               0.000000000              -0.002926916               0.002524035              -0.001890648              -0.001413096               0.001312367              -0.000100729               0.000000000               0.000000000               0.000000000               0.000000000              -0.002256263               0.003188021              -0.001830390              -0.001244599               0.001477529               0.000232930               0.000000000               0.000000000               0.000000000               0.000000000              -0.001716156               0.003703682              -0.001723626              -0.001106517               0.001603387               0.000496870               0.000000000               0.000000000               0.000000000               0.000000000              -0.001243559               0.004100436              -0.001599555              -0.000978887               0.001693094               0.000714206               0.000000000               0.000000000               0.000000000               0.000000000              -0.000804473               0.004412086              -0.001478228              -0.000853187               0.001755076               0.000901889               0.000000000               0.000000000               0.000000000               0.000000000              -0.000372605               0.004661481              -0.001367857              -0.000722411               0.001794615               0.001072204               0.000000000               0.000000000               0.000000000               0.000000000               0.000066508               0.004846274              -0.001256469              -0.000580843               0.001809023               0.001228180               0.000000000               0.000000000               0.000000000               0.000000000               0.000519758               0.004971530              -0.001132334              -0.000426532               0.001799337               0.001372806               0.000000000               0.000000000               0.000000000               0.000000000               0.000995838               0.005056394              -0.000992209              -0.000258610               0.001771651               0.001513041               0.000000000               0.000000000               0.000000000               0.000000000               0.001496289               0.005098699              -0.000827467              -0.000076229               0.001724959               0.001648730               0.000000000               0.000000000               0.000000000               0.000000000               0.002017891               0.005090490              -0.000620114               0.000120396               0.001656681               0.001777077               0.000000000               0.000000000               0.000000000               0.000000000               0.002557679               0.005051506              -0.000345076               0.000327688               0.001574589               0.001902277               0.000000000               0.000000000               0.000000000               0.000000000               0.002932639               0.005066125              -0.000201406               0.000466469               0.001533202               0.001999671               0.000000000               0.000000000               0.000000000               0.000000000              -0.012924369              -0.001168819               0.000617457              -0.004700533               0.001177230              -0.003523303               0.000000000               0.000000000               0.000000000               0.000000000              -0.008738454              -0.000496664              -0.000099940              -0.003214835               0.000906051              -0.002308784               0.000000000               0.000000000               0.000000000               0.000000000              -0.005489230              -0.000047492              -0.000769275              -0.002052523               0.000668339              -0.001384184               0.000000000               0.000000000               0.000000000               0.000000000              -0.003755854               0.000805138              -0.000992315              -0.001509086               0.000771402              -0.000737683               0.000000000               0.000000000               0.000000000               0.000000000              -0.002703132               0.001643614              -0.001042626              -0.001219124               0.000954239              -0.000264885               0.000000000               0.000000000               0.000000000               0.000000000              -0.001984802               0.002367056              -0.001022933              -0.001040181               0.001135737               0.000095557               0.000000000               0.000000000               0.000000000               0.000000000              -0.001436495               0.002965463              -0.000972677              -0.000909367               0.001291600               0.000382233               0.000000000               0.000000000               0.000000000               0.000000000              -0.000965701               0.003453385              -0.000911458              -0.000793810               0.001415720               0.000621910               0.000000000               0.000000000               0.000000000               0.000000000              -0.000524663               0.003855357              -0.000850745              -0.000678667               0.001511328               0.000832661               0.000000000               0.000000000               0.000000000               0.000000000              -0.000091556               0.004189435              -0.000795984              -0.000558012               0.001582468               0.001024456               0.000000000               0.000000000               0.000000000               0.000000000               0.000346669               0.004457807              -0.000738426              -0.000427224               0.001628329               0.001201105               0.000000000               0.000000000               0.000000000               0.000000000               0.000812691               0.004671034              -0.000670938              -0.000279120               0.001650036               0.001370916               0.000000000               0.000000000               0.000000000               0.000000000               0.001324191               0.004835032              -0.000594327              -0.000107808               0.001647597               0.001539789               0.000000000               0.000000000               0.000000000               0.000000000               0.001893586               0.004947002              -0.000503002               0.000091718               0.001618411               0.001710130               0.000000000               0.000000000               0.000000000               0.000000000               0.002532953               0.005003864              -0.000385572               0.000324371               0.001559814               0.001884185               0.000000000               0.000000000               0.000000000               0.000000000               0.003266196               0.005015009              -0.000220122               0.000597942               0.001472339               0.002070281               0.000000000               0.000000000               0.000000000               0.000000000               0.003830300               0.005072062              -0.000133030               0.000802347               0.001423221               0.002225568               0.000000000               0.000000000               0.000000000               0.000000000              -0.013338038              -0.001208451              -0.000000000              -0.004850705               0.001214076              -0.003636628               0.000000000               0.000000000               0.000000000               0.000000000              -0.008970292              -0.000653490              -0.000000000              -0.003282171               0.000876221              -0.002405950               0.000000000               0.000000000               0.000000000               0.000000000              -0.005542005              -0.000327649               0.000000000              -0.002037294               0.000569878              -0.001467417               0.000000000               0.000000000               0.000000000               0.000000000              -0.003716739               0.000488687               0.000000000              -0.001454861               0.000647845              -0.000807016               0.000000000               0.000000000               0.000000000               0.000000000              -0.002617077               0.001327077              -0.000000000              -0.001147287               0.000824782              -0.000322504               0.000000000               0.000000000               0.000000000               0.000000000              -0.001881915               0.002066075              -0.000000000              -0.000963975               0.001010010               0.000046034               0.000000000               0.000000000               0.000000000               0.000000000              -0.001328853               0.002695069               0.000000000              -0.000835202               0.001176748               0.000341546               0.000000000               0.000000000               0.000000000               0.000000000              -0.000858743               0.003217702              -0.000000000              -0.000724240               0.001313970               0.000589730               0.000000000               0.000000000               0.000000000               0.000000000              -0.000417934               0.003646942              -0.000000000              -0.000612592               0.001419832               0.000807241               0.000000000               0.000000000               0.000000000               0.000000000               0.000017498               0.004008107               0.000000000              -0.000494451               0.001500839               0.001006388               0.000000000               0.000000000               0.000000000               0.000000000               0.000458080               0.004304848               0.000000000              -0.000366325               0.001557043               0.001190718               0.000000000               0.000000000               0.000000000               0.000000000               0.000930995               0.004544554               0.000000000              -0.000218946               0.001587818               0.001368872               0.000000000               0.000000000               0.000000000               0.000000000               0.001458565               0.004737206              -0.000000000              -0.000045189               0.001594116               0.001548927               0.000000000               0.000000000               0.000000000               0.000000000               0.002055007               0.004879894              -0.000000000               0.000160639               0.001573069               0.001733708               0.000000000               0.000000000               0.000000000               0.000000000               0.002740168               0.004966396              -0.000000000               0.000406759               0.001519862               0.001926622               0.000000000               0.000000000               0.000000000               0.000000000               0.003547428               0.004997613               0.000000000               0.000705577               0.001430662               0.002136239               0.000000000               0.000000000               0.000000000               0.000000000               0.004187255               0.005070504               0.000000000               0.000936398               0.001378018               0.002314417               0.000000000               0.000000000               0.000000000               0.000000000               0.000000000               0.000000000               0.000000000               0.000000000               0.000000000               0.000000000               0.000000000               0.000000000               0.000000000               0.000000000               0.000000000               0.000000000               0.000000000               0.000000000               0.000000000               0.000000000               0.000000000               0.000000000               0.000000000               0.000000000               0.000000000               0.000000000               0.000000000               0.000000000               0.000000000               0.000000000               0.000000000               0.000000000               0.000000000               0.000000000               0.000000000               0.000000000               0.000000000               0.000000000               0.000000000               0.000000000               0.000000000               0.000000000               0.000000000               0.000000000               0.000000000               0.000000000               0.000000000               0.000000000               0.000000000               0.000000000               0.000000000               0.000000000               0.000000000               0.000000000               0.000000000               0.000000000               0.000000000               0.000000000               0.000000000               0.000000000               0.000000000               0.000000000               0.000000000               0.000000000               0.000000000               0.000000000               0.000000000               0.000000000               0.000000000               0.000000000               0.000000000               0.000000000               0.000000000               0.000000000               0.000000000               0.000000000               0.000000000               0.000000000               0.000000000               0.000000000               0.000000000               0.000000000               0.000000000               0.000000000               0.000000000               0.000000000               0.000000000               0.000000000               0.000000000               0.000000000               0.000000000               0.000000000               0.000000000               0.000000000               0.000000000               0.000000000               0.000000000               0.000000000               0.000000000               0.000000000               0.000000000               0.000000000               0.000000000               0.000000000               0.000000000               0.000000000               0.000000000               0.000000000               0.000000000               0.000000000               0.000000000               0.000000000               0.000000000               0.000000000               0.000000000               0.000000000               0.000000000               0.000000000               0.000000000               0.000000000               0.000000000               0.000000000               0.000000000               0.000000000               0.000000000               0.000000000               0.000000000               0.000000000               0.000000000               0.000000000               0.000000000               0.000000000               0.000000000               0.000000000               0.000000000               0.000000000               0.000000000               0.000000000               0.000000000               0.000000000               0.000000000               0.000000000               0.000000000               0.000000000               0.000000000               0.000000000               0.000000000               0.000000000               0.000000000               0.000000000               0.000000000               0.000000000               0.000000000               0.000000000               0.000000000               0.000000000               0.000000000               0.000000000               0.000000000               0.000000000               0.000000000               0.000000000               0.000000000               0.000000000               0.000000000               0.000000000               0.000000000               0.000000000               0.000000000               0.000000000               0.000000000               0.000000000               0.000000000               0.000000000               0.002326155               0.023814772               0.001638151              -0.002104534               0.008639689               0.006535155               0.000000000               0.000000000               0.000000000               0.000000000               0.002130195               0.018504388               0.000781391              -0.001514222               0.006672808               0.005158586               0.000000000               0.000000000               0.000000000               0.000000000               0.002636999               0.014222230              -0.000064435              -0.000788902               0.005003663               0.004214761               0.000000000               0.000000000               0.000000000               0.000000000               0.002410199               0.011784539              -0.000415639              -0.000569241               0.004117888               0.003548646               0.000000000               0.000000000               0.000000000               0.000000000               0.001988564               0.010226572              -0.000553775              -0.000532609               0.003586359               0.003053751               0.000000000               0.000000000               0.000000000               0.000000000               0.001546936               0.009128846              -0.000597416              -0.000561004               0.003229919               0.002668916               0.000000000               0.000000000               0.000000000               0.000000000               0.001146674               0.008292381              -0.000599273              -0.000606544               0.002966280               0.002359737               0.000000000               0.000000000               0.000000000               0.000000000               0.000799251               0.007609302              -0.000583501              -0.000651442               0.002753556               0.002102114               0.000000000               0.000000000               0.000000000               0.000000000               0.000506785               0.007022083              -0.000559552              -0.000687715               0.002569909               0.001882194               0.000000000               0.000000000               0.000000000               0.000000000               0.000267356               0.006484092              -0.000528105              -0.000710251               0.002398093               0.001687842               0.000000000               0.000000000               0.000000000               0.000000000               0.000081983               0.005966008              -0.000494796              -0.000715006               0.002226985               0.001511979               0.000000000               0.000000000               0.000000000               0.000000000              -0.000053033               0.005449232              -0.000458324              -0.000701040               0.002050073               0.001349033               0.000000000               0.000000000               0.000000000               0.000000000              -0.000139042               0.004916609              -0.000413689              -0.000666715               0.001861092               0.001194376               0.000000000               0.000000000               0.000000000               0.000000000              -0.000172251               0.004355491              -0.000356311              -0.000609029               0.001654826               0.001045796               0.000000000               0.000000000               0.000000000               0.000000000              -0.000155238               0.003748186              -0.000272470              -0.000526736               0.001424961               0.000898225               0.000000000               0.000000000               0.000000000               0.000000000              -0.000091909               0.003075211              -0.000152573              -0.000418866               0.001164682               0.000745816               0.000000000               0.000000000               0.000000000               0.000000000              -0.000104263               0.002566721              -0.000094803              -0.000359938               0.000975544               0.000615607               0.000000000               0.000000000               0.000000000               0.000000000               0.002501556               0.022361865               0.003042646              -0.001857146               0.008072929               0.006215782               0.000000000               0.000000000               0.000000000               0.000000000               0.001951383               0.017575583               0.001445113              -0.001465176               0.006346861               0.004881685               0.000000000               0.000000000               0.000000000               0.000000000               0.002080304               0.013841324              -0.000118347              -0.000950049               0.004930411               0.003980362               0.000000000               0.000000000               0.000000000               0.000000000               0.001718365               0.011685904              -0.000740696              -0.000816349               0.004167379               0.003351030               0.000000000               0.000000000               0.000000000               0.000000000               0.001278969               0.010269952              -0.000973328              -0.000804129               0.003691326               0.002887197               0.000000000               0.000000000               0.000000000               0.000000000               0.000873424               0.009248537              -0.001039777              -0.000828532               0.003358992               0.002530460               0.000000000               0.000000000               0.000000000               0.000000000               0.000527870               0.008448182              -0.001034619              -0.000858070               0.003102056               0.002243986               0.000000000               0.000000000               0.000000000               0.000000000               0.000250004               0.007782128              -0.001003608              -0.000879013               0.002887021               0.002008008               0.000000000               0.000000000               0.000000000               0.000000000               0.000038229               0.007196819              -0.000960228              -0.000885265               0.002694004               0.001808739               0.000000000               0.000000000               0.000000000               0.000000000              -0.000117506               0.006652777              -0.000903609              -0.000875660               0.002509457               0.001633797               0.000000000               0.000000000               0.000000000               0.000000000              -0.000219081               0.006130075              -0.000842680              -0.000848413               0.002326142               0.001477729               0.000000000               0.000000000               0.000000000               0.000000000              -0.000274690               0.005615872              -0.000774657              -0.000804991               0.002140269               0.001335278               0.000000000               0.000000000               0.000000000               0.000000000              -0.000287559               0.005101698              -0.000692553              -0.000745545               0.001949064               0.001203519               0.000000000               0.000000000               0.000000000               0.000000000              -0.000254494               0.004586250              -0.000588289              -0.000668715               0.001751640               0.001082925               0.000000000               0.000000000               0.000000000               0.000000000              -0.000187028               0.004067182              -0.000442907              -0.000578532               0.001548558               0.000970026               0.000000000               0.000000000               0.000000000               0.000000000              -0.000099787               0.003544783              -0.000245207              -0.000480517               0.001341755               0.000861238               0.000000000               0.000000000               0.000000000               0.000000000              -0.000091732               0.003181191              -0.000148149              -0.000432047               0.001204402               0.000772355               0.000000000               0.000000000               0.000000000               0.000000000               0.002663399               0.020153807               0.004024890              -0.001520450               0.007224685               0.005704235               0.000000000               0.000000000               0.000000000               0.000000000               0.001620595               0.016192270               0.001910445              -0.001416308               0.005869472               0.004453164               0.000000000               0.000000000               0.000000000               0.000000000               0.001228962               0.013276685              -0.000128481              -0.001198722               0.004825092               0.003626370               0.000000000               0.000000000               0.000000000               0.000000000               0.000711679               0.011515382              -0.000893151              -0.001172540               0.004229269               0.003056729               0.000000000               0.000000000               0.000000000               0.000000000               0.000274408               0.010297077              -0.001159044              -0.001184229               0.003827068               0.002642839               0.000000000               0.000000000               0.000000000               0.000000000              -0.000057141               0.009368713              -0.001224052              -0.001192514               0.003520378               0.002327863               0.000000000               0.000000000               0.000000000               0.000000000              -0.000297048               0.008613628              -0.001209079              -0.001188094               0.003267212               0.002079118               0.000000000               0.000000000               0.000000000               0.000000000              -0.000460188               0.007964399              -0.001166188              -0.001168118               0.003044146               0.001876028               0.000000000               0.000000000               0.000000000               0.000000000              -0.000554482               0.007375611              -0.001107660              -0.001129879               0.002835139               0.001705259               0.000000000               0.000000000               0.000000000               0.000000000              -0.000595009               0.006821214              -0.001034571              -0.001075778               0.002632308               0.001556530               0.000000000               0.000000000               0.000000000               0.000000000              -0.000589924               0.006292666              -0.000956504              -0.001007803               0.002433468               0.001425666               0.000000000               0.000000000               0.000000000               0.000000000              -0.000541476               0.005788839              -0.000868819              -0.000926656               0.002238479               0.001311823               0.000000000               0.000000000               0.000000000               0.000000000              -0.000457748               0.005308495              -0.000762288              -0.000835216               0.002047886               0.001212670               0.000000000               0.000000000               0.000000000               0.000000000              -0.000348416               0.004854852              -0.000632334              -0.000737511               0.001864105               0.001126594               0.000000000               0.000000000               0.000000000               0.000000000              -0.000226508               0.004441308              -0.000463894              -0.000640103               0.001693789               0.001053686               0.000000000               0.000000000               0.000000000               0.000000000              -0.000110786               0.004085520              -0.000249226              -0.000552234               0.001545904               0.000993671               0.000000000               0.000000000               0.000000000               0.000000000              -0.000078919               0.003874267              -0.000142984              -0.000513877               0.001462702               0.000948825               0.000000000               0.000000000               0.000000000               0.000000000               0.002663729               0.017452344               0.004496682              -0.001182645               0.006211604               0.005028959               0.000000000               0.000000000               0.000000000               0.000000000               0.001107547               0.014534247               0.002161210              -0.001401448               0.005311850               0.003910401               0.000000000               0.000000000               0.000000000               0.000000000               0.000175594               0.012599313              -0.000052702              -0.001509063               0.004702750               0.003193687               0.000000000               0.000000000               0.000000000               0.000000000              -0.000433110               0.011266602              -0.000826071              -0.001570738               0.004279076               0.002708338               0.000000000               0.000000000               0.000000000               0.000000000              -0.000806438               0.010244358              -0.001072742              -0.001582955               0.003942404               0.002359448               0.000000000               0.000000000               0.000000000               0.000000000              -0.001016840               0.009408297              -0.001124516              -0.001557349               0.003655184               0.002097835               0.000000000               0.000000000               0.000000000               0.000000000              -0.001112934               0.008691149              -0.001106141              -0.001503740               0.003398267               0.001894527               0.000000000               0.000000000               0.000000000               0.000000000              -0.001136616               0.008048572              -0.001061607              -0.001432299               0.003160263               0.001727964               0.000000000               0.000000000               0.000000000               0.000000000              -0.001100091               0.007452706              -0.001002042              -0.001344119               0.002932250               0.001588131               0.000000000               0.000000000               0.000000000               0.000000000              -0.001014263               0.006890691              -0.000927834              -0.001241682               0.002710768               0.001469086               0.000000000               0.000000000               0.000000000               0.000000000              -0.000892606               0.006364520              -0.000848223              -0.001130290               0.002498248               0.001367959               0.000000000               0.000000000               0.000000000               0.000000000              -0.000744916               0.005878176              -0.000757647              -0.001014113               0.002297410               0.001283297               0.000000000               0.000000000               0.000000000               0.000000000              -0.000581166               0.005438383              -0.000644944              -0.000897733               0.002112020               0.001214287               0.000000000               0.000000000               0.000000000               0.000000000              -0.000411717               0.005051420              -0.000512135              -0.000785819               0.001945729               0.001159910               0.000000000               0.000000000               0.000000000               0.000000000              -0.000252691               0.004730232              -0.000359203              -0.000686036               0.001805407               0.001119370               0.000000000               0.000000000               0.000000000               0.000000000              -0.000119637               0.004497798              -0.000185565              -0.000607087               0.001701613               0.001094526               0.000000000               0.000000000               0.000000000               0.000000000              -0.000072704               0.004386493              -0.000101802              -0.000575574               0.001654008               0.001078433               0.000000000               0.000000000               0.000000000               0.000000000               0.002362167               0.014542052               0.004473286              -0.000931945               0.005157949               0.004226004               0.000000000               0.000000000               0.000000000               0.000000000               0.000413272               0.012781877               0.002232112              -0.001442756               0.004741501               0.003298746               0.000000000               0.000000000               0.000000000               0.000000000              -0.000950410               0.011859352               0.000136755              -0.001838818               0.004566017               0.002727199               0.000000000               0.000000000               0.000000000               0.000000000              -0.001548154               0.010926075              -0.000545234              -0.001946312               0.004290759               0.002344447               0.000000000               0.000000000               0.000000000               0.000000000              -0.001778687               0.010070032              -0.000754650              -0.001925757               0.003998563               0.002072806               0.000000000               0.000000000               0.000000000               0.000000000              -0.001824296               0.009303057              -0.000802825              -0.001846989               0.003716651               0.001869662               0.000000000               0.000000000               0.000000000               0.000000000              -0.001764860               0.008607715              -0.000797772              -0.001737783               0.003448471               0.001710688               0.000000000               0.000000000               0.000000000               0.000000000              -0.001639408               0.007971179              -0.000772384              -0.001611171               0.003194090               0.001582919               0.000000000               0.000000000               0.000000000               0.000000000              -0.001471530               0.007374546              -0.000726951              -0.001473639               0.002949370               0.001475732               0.000000000               0.000000000               0.000000000               0.000000000              -0.001276594               0.006814820              -0.000665306              -0.001330572               0.002715108               0.001384536               0.000000000               0.000000000               0.000000000               0.000000000              -0.001060814               0.006304645              -0.000598103              -0.001185883               0.002496822               0.001310939               0.000000000               0.000000000               0.000000000               0.000000000              -0.000836850               0.005851023              -0.000522207              -0.001045194               0.002298719               0.001253525               0.000000000               0.000000000               0.000000000               0.000000000              -0.000615518               0.005460973              -0.000429565              -0.000913438               0.002124785               0.001211347               0.000000000               0.000000000               0.000000000               0.000000000              -0.000411970               0.005143035              -0.000322061              -0.000797366               0.001980117               0.001182751               0.000000000               0.000000000               0.000000000               0.000000000              -0.000240462               0.004902099              -0.000210716              -0.000702934               0.001868328               0.001165394               0.000000000               0.000000000               0.000000000               0.000000000              -0.000107811               0.004748045              -0.000103396              -0.000633933               0.001793977               0.001160044               0.000000000               0.000000000               0.000000000               0.000000000              -0.000058954               0.004686357              -0.000055384              -0.000607901               0.001764737               0.001156836               0.000000000               0.000000000               0.000000000               0.000000000               0.001690874               0.011660183               0.004045982              -0.000823447               0.004161170               0.003337723               0.000000000               0.000000000               0.000000000               0.000000000              -0.000430909               0.011071142               0.002184448              -0.001545481               0.004205504               0.002660023               0.000000000               0.000000000               0.000000000               0.000000000              -0.002028034               0.011080171               0.000445025              -0.002145529               0.004408530               0.002263001               0.000000000               0.000000000               0.000000000               0.000000000              -0.002490493               0.010470650              -0.000104709              -0.002242761               0.004237769               0.001995008               0.000000000               0.000000000               0.000000000               0.000000000              -0.002525081               0.009745540              -0.000290270              -0.002165093               0.003970178               0.001805086               0.000000000               0.000000000               0.000000000               0.000000000              -0.002385545               0.009034635              -0.000357621              -0.002023904               0.003686149               0.001662246               0.000000000               0.000000000               0.000000000               0.000000000              -0.002165441               0.008361811              -0.000386387              -0.001857262               0.003406330               0.001549068               0.000000000               0.000000000               0.000000000               0.000000000              -0.001908567               0.007729743              -0.000394393              -0.001681926               0.003137197               0.001455271               0.000000000               0.000000000               0.000000000               0.000000000              -0.001628046               0.007142611              -0.000376184              -0.001503340               0.002881960               0.001378620               0.000000000               0.000000000               0.000000000               0.000000000              -0.001339843               0.006606055              -0.000343254              -0.001328195               0.002644728               0.001316533               0.000000000               0.000000000               0.000000000               0.000000000              -0.001052853               0.006134333              -0.000309281              -0.001161609               0.002431960               0.001270351               0.000000000               0.000000000               0.000000000               0.000000000              -0.000778952               0.005734973              -0.000268289              -0.001008976               0.002247964               0.001238988               0.000000000               0.000000000               0.000000000               0.000000000              -0.000534166               0.005408094              -0.000214289              -0.000876322               0.002094787               0.001218465               0.000000000               0.000000000               0.000000000               0.000000000              -0.000332590               0.005158613              -0.000150146              -0.000769546               0.001976036               0.001206490               0.000000000               0.000000000               0.000000000               0.000000000              -0.000178932               0.004988585              -0.000085522              -0.000690671               0.001893069               0.001202398               0.000000000               0.000000000               0.000000000               0.000000000              -0.000072726               0.004893170              -0.000035807              -0.000638917               0.001844013               0.001205096               0.000000000               0.000000000               0.000000000               0.000000000              -0.000035985               0.004860963              -0.000017833              -0.000621113               0.001827343               0.001206229               0.000000000               0.000000000               0.000000000               0.000000000               0.000694688               0.008990377               0.003324584              -0.000863290               0.003284525               0.002421235               0.000000000               0.000000000               0.000000000               0.000000000              -0.001366573               0.009498200               0.002067476              -0.001699737               0.003732614               0.002032877               0.000000000               0.000000000               0.000000000               0.000000000              -0.002952882               0.010263001               0.000854348              -0.002390200               0.004217700               0.001827499               0.000000000               0.000000000               0.000000000               0.000000000              -0.003178333               0.009897838               0.000423120              -0.002429099               0.004108946               0.001679847               0.000000000               0.000000000               0.000000000               0.000000000              -0.002986469               0.009286138               0.000225967              -0.002280688               0.003855578               0.001574890               0.000000000               0.000000000               0.000000000               0.000000000              -0.002669774               0.008630181               0.000117549              -0.002079933               0.003570009               0.001490076               0.000000000               0.000000000               0.000000000               0.000000000              -0.002313834               0.007982984               0.000046453              -0.001865556               0.003282820               0.001417264               0.000000000               0.000000000               0.000000000               0.000000000              -0.001946557               0.007371853              -0.000005562              -0.001651437               0.003007738               0.001356302               0.000000000               0.000000000               0.000000000               0.000000000              -0.001571252               0.006813567              -0.000034201              -0.001440912               0.002751470               0.001310559               0.000000000               0.000000000               0.000000000               0.000000000              -0.001206275               0.006320630              -0.000047245              -0.001242429               0.002520998               0.001278570               0.000000000               0.000000000               0.000000000               0.000000000              -0.000872513               0.005904675              -0.000060637              -0.001065274               0.002323297               0.001258022               0.000000000               0.000000000               0.000000000               0.000000000              -0.000584726               0.005565998              -0.000065203              -0.000915020               0.002160321               0.001245301               0.000000000               0.000000000               0.000000000               0.000000000              -0.000356560               0.005303836              -0.000053255              -0.000796688               0.002033490               0.001236803               0.000000000               0.000000000               0.000000000               0.000000000              -0.000190797               0.005119615              -0.000032667              -0.000711499               0.001943688               0.001232189               0.000000000               0.000000000               0.000000000               0.000000000              -0.000083834               0.005012284              -0.000011340              -0.000657972               0.001890068               0.001232097               0.000000000               0.000000000               0.000000000               0.000000000              -0.000026487               0.004966214               0.000000357              -0.000630708               0.001865624               0.001234916               0.000000000               0.000000000               0.000000000               0.000000000              -0.000012284               0.004954462               0.000001456              -0.000623913               0.001859442               0.001235529               0.000000000               0.000000000               0.000000000               0.000000000              -0.000501864               0.006730873               0.002432504              -0.001029557               0.002586787               0.001557229               0.000000000               0.000000000               0.000000000               0.000000000              -0.002284126               0.008085311               0.001928919              -0.001867207               0.003317479               0.001450271               0.000000000               0.000000000               0.000000000               0.000000000              -0.003670863               0.009439841               0.001337066              -0.002556548               0.003998765               0.001442217               0.000000000               0.000000000               0.000000000               0.000000000              -0.003641064               0.009336525               0.000981246              -0.002532458               0.003956296               0.001423838               0.000000000               0.000000000               0.000000000               0.000000000              -0.003263837               0.008863328               0.000749359              -0.002331849               0.003731696               0.001399847               0.000000000               0.000000000               0.000000000               0.000000000              -0.002808008               0.008282875               0.000588768              -0.002088357               0.003457050               0.001368692               0.000000000               0.000000000               0.000000000               0.000000000              -0.002343786               0.007692923               0.000467603              -0.001840531               0.003177792               0.001337262               0.000000000               0.000000000               0.000000000               0.000000000              -0.001888407               0.007130590               0.000366635              -0.001599473               0.002909997               0.001310525               0.000000000               0.000000000               0.000000000               0.000000000              -0.001441836               0.006612028               0.000285899              -0.001367189               0.002659717               0.001292528               0.000000000               0.000000000               0.000000000               0.000000000              -0.001021158               0.006162309               0.000216859              -0.001153220               0.002438489               0.001285269               0.000000000               0.000000000               0.000000000               0.000000000              -0.000657873               0.005791202               0.000151181              -0.000970600               0.002253915               0.001283315               0.000000000               0.000000000               0.000000000               0.000000000              -0.000373607               0.005488413               0.000097368              -0.000826152               0.002104837               0.001278685               0.000000000               0.000000000               0.000000000               0.000000000              -0.000175935               0.005254939               0.000060575              -0.000722841               0.001992576               0.001269735               0.000000000               0.000000000               0.000000000               0.000000000              -0.000050959               0.005101862               0.000035675              -0.000656841               0.001919551               0.001262710               0.000000000               0.000000000               0.000000000               0.000000000               0.000013008               0.005023301               0.000018080              -0.000623033               0.001882094               0.001259062               0.000000000               0.000000000               0.000000000               0.000000000               0.000027506               0.004995493               0.000006236              -0.000614120               0.001869855               0.001255734               0.000000000               0.000000000               0.000000000               0.000000000               0.000022677               0.004991697               0.000001206              -0.000615457               0.001869035               0.001253578               0.000000000               0.000000000               0.000000000               0.000000000              -0.001903246               0.004626565               0.001487326              -0.001292035               0.001972851               0.000680816               0.000000000               0.000000000               0.000000000               0.000000000              -0.003053040               0.006450863               0.001771458              -0.001951243               0.002800680               0.000849437               0.000000000               0.000000000               0.000000000               0.000000000              -0.004092520               0.008230944               0.001841809              -0.002563557               0.003598139               0.001034582               0.000000000               0.000000000               0.000000000               0.000000000              -0.003922548               0.008516685               0.001574152              -0.002535535               0.003684045               0.001148510               0.000000000               0.000000000               0.000000000               0.000000000              -0.003471164               0.008307863               0.001309723              -0.002340164               0.003549314               0.001209151               0.000000000               0.000000000               0.000000000               0.000000000              -0.002964896               0.007923862               0.001094643              -0.002102314               0.003342032               0.001239718               0.000000000               0.000000000               0.000000000               0.000000000              -0.002463013               0.007480698               0.000921514              -0.001858713               0.003113112               0.001254399               0.000000000               0.000000000               0.000000000               0.000000000              -0.001981525               0.007034891               0.000777833              -0.001622429               0.002885750               0.001263321               0.000000000               0.000000000               0.000000000               0.000000000              -0.001515869               0.006616839               0.000651115              -0.001395553               0.002670775               0.001275223               0.000000000               0.000000000               0.000000000               0.000000000              -0.001076588               0.006234592               0.000528579              -0.001183042               0.002472524               0.001289482               0.000000000               0.000000000               0.000000000               0.000000000              -0.000687686               0.005897963               0.000410775              -0.000995125               0.002297676               0.001302551               0.000000000               0.000000000               0.000000000               0.000000000              -0.000374096               0.005611032               0.000300986              -0.000841663               0.002150879               0.001309217               0.000000000               0.000000000               0.000000000               0.000000000              -0.000149514               0.005373144               0.000204928              -0.000727709               0.002033600               0.001305891               0.000000000               0.000000000               0.000000000               0.000000000              -0.000008057               0.005196425               0.000127234              -0.000652573               0.001949649               0.001297076               0.000000000               0.000000000               0.000000000               0.000000000               0.000064073               0.005079399               0.000064293              -0.000610896               0.001896748               0.001285852               0.000000000               0.000000000               0.000000000               0.000000000               0.000082881               0.005020868               0.000019746              -0.000596527               0.001872448               0.001275921               0.000000000               0.000000000               0.000000000               0.000000000               0.000078167               0.005007533               0.000002706              -0.000596627               0.001868037               0.001271409               0.000000000               0.000000000               0.000000000               0.000000000              -0.003691280               0.002724577               0.000557123              -0.001724799               0.001483115              -0.000241684               0.000000000               0.000000000               0.000000000               0.000000000              -0.003917675               0.004807760               0.001541465              -0.002070094               0.002292601               0.000222507               0.000000000               0.000000000               0.000000000               0.000000000              -0.004418430               0.006811414               0.002242150              -0.002508332               0.003106559               0.000598227               0.000000000               0.000000000               0.000000000               0.000000000              -0.004122958               0.007465538               0.002136221              -0.002479296               0.003314919               0.000835624               0.000000000               0.000000000               0.000000000               0.000000000              -0.003628160               0.007570930               0.001879760              -0.002306921               0.003292591               0.000985670               0.000000000               0.000000000               0.000000000               0.000000000              -0.003099232               0.007430654               0.001632819              -0.002091039               0.003173872               0.001082833               0.000000000               0.000000000               0.000000000               0.000000000              -0.002580450               0.007175118               0.001418284              -0.001864554               0.003013200               0.001148646               0.000000000               0.000000000               0.000000000               0.000000000              -0.002082394               0.006886075               0.001235100              -0.001641653               0.002842553               0.001200900               0.000000000               0.000000000               0.000000000               0.000000000              -0.001612771               0.006591068               0.001070556              -0.001428669               0.002673224               0.001244554               0.000000000               0.000000000               0.000000000               0.000000000              -0.001165326               0.006293940               0.000912400              -0.001223737               0.002505871               0.001282134               0.000000000               0.000000000               0.000000000               0.000000000              -0.000749432               0.006008022               0.000754310              -0.001032037               0.002346666               0.001314629               0.000000000               0.000000000               0.000000000               0.000000000              -0.000390002               0.005747015               0.000594478              -0.000864626               0.002203861               0.001339235               0.000000000               0.000000000               0.000000000               0.000000000              -0.000110352               0.005514357               0.000439778              -0.000730675               0.002081659               0.001350984               0.000000000               0.000000000               0.000000000               0.000000000               0.000081168               0.005315913               0.000299510              -0.000634050               0.001983303               0.001349253               0.000000000               0.000000000               0.000000000               0.000000000               0.000183480               0.005153626               0.000173219              -0.000575397               0.001909657               0.001334260               0.000000000               0.000000000               0.000000000               0.000000000               0.000214414               0.005052108               0.000070946              -0.000551107               0.001867722               0.001316615               0.000000000               0.000000000               0.000000000               0.000000000               0.000205085               0.005014996               0.000025224              -0.000549966               0.001854971               0.001305004               0.000000000               0.000000000               0.000000000               0.000000000              -0.005746887               0.001177913              -0.000270347              -0.002302319               0.001160069              -0.001142249               0.000000000               0.000000000               0.000000000               0.000000000              -0.004930254               0.003256076               0.001221386              -0.002255851               0.001837296              -0.000418555               0.000000000               0.000000000               0.000000000               0.000000000              -0.004688888               0.005199581               0.002418461              -0.002408275               0.002535934               0.000127658               0.000000000               0.000000000               0.000000000               0.000000000              -0.004184943               0.006109417               0.002516568              -0.002333026               0.002814126               0.000481101               0.000000000               0.000000000               0.000000000               0.000000000              -0.003626401               0.006501587               0.002328002              -0.002172594               0.002891371               0.000718777               0.000000000               0.000000000               0.000000000               0.000000000              -0.003077132               0.006613291               0.002087022              -0.001980582               0.002864602               0.000884020               0.000000000               0.000000000               0.000000000               0.000000000              -0.002554432               0.006578521               0.001856040              -0.001780223               0.002786226               0.001006002               0.000000000               0.000000000               0.000000000               0.000000000              -0.002054137               0.006476940               0.001649634              -0.001579916               0.002685597               0.001105681               0.000000000               0.000000000               0.000000000               0.000000000              -0.001579281               0.006335071               0.001463851              -0.001384111               0.002573039               0.001188928               0.000000000               0.000000000               0.000000000               0.000000000              -0.001127625               0.006159463               0.001287510              -0.001192790               0.002450730               0.001257940               0.000000000               0.000000000               0.000000000               0.000000000              -0.000701882               0.005960953               0.001108678              -0.001008323               0.002323072               0.001314749               0.000000000               0.000000000               0.000000000               0.000000000              -0.000312130               0.005755137               0.000920433              -0.000836439               0.002197173               0.001360733               0.000000000               0.000000000               0.000000000               0.000000000               0.000020984               0.005552537               0.000727258              -0.000686197               0.002079559               0.001393363               0.000000000               0.000000000               0.000000000               0.000000000               0.000274679               0.005359628               0.000534042              -0.000566948               0.001975507               0.001408560               0.000000000               0.000000000               0.000000000               0.000000000               0.000434707               0.005193391               0.000341214              -0.000486158               0.001893166               0.001407008               0.000000000               0.000000000               0.000000000               0.000000000               0.000498174               0.005077443               0.000161371              -0.000447864               0.001841752               0.001393888               0.000000000               0.000000000               0.000000000               0.000000000               0.000490288               0.005024261               0.000072637              -0.000444173               0.001822795               0.001378621               0.000000000               0.000000000               0.000000000               0.000000000              -0.007923067               0.000063480              -0.000870168              -0.002979083               0.001014180              -0.001964902               0.000000000               0.000000000               0.000000000               0.000000000              -0.006036149               0.001885836               0.000859334              -0.002499282               0.001461696              -0.001037586               0.000000000               0.000000000               0.000000000               0.000000000              -0.004932340               0.003542322               0.002339116              -0.002292414               0.001944898              -0.000347516               0.000000000               0.000000000               0.000000000               0.000000000              -0.004130732               0.004569480               0.002624242              -0.002120205               0.002229878               0.000109673               0.000000000               0.000000000               0.000000000               0.000000000              -0.003473230               0.005180885               0.002538634              -0.001950068               0.002376966               0.000426898               0.000000000               0.000000000               0.000000000               0.000000000              -0.002899480               0.005529708               0.002343532              -0.001778515               0.002436055               0.000657540               0.000000000               0.000000000               0.000000000               0.000000000              -0.002375032               0.005725540               0.002127024              -0.001606326               0.002443936               0.000837609               0.000000000               0.000000000               0.000000000               0.000000000              -0.001884445               0.005819257               0.001921906              -0.001434071               0.002417756               0.000983685               0.000000000               0.000000000               0.000000000               0.000000000              -0.001417747               0.005836683               0.001735674              -0.001261238               0.002365954               0.001104716               0.000000000               0.000000000               0.000000000               0.000000000              -0.000969050               0.005798350               0.001558198              -0.001088185               0.002295492               0.001207307               0.000000000               0.000000000               0.000000000               0.000000000              -0.000534389               0.005718584               0.001378143              -0.000915217               0.002211248               0.001296031               0.000000000               0.000000000               0.000000000               0.000000000              -0.000119670               0.005604264               0.001188800              -0.000745408               0.002116538               0.001371131               0.000000000               0.000000000               0.000000000               0.000000000               0.000265109               0.005468631               0.000986601              -0.000584162               0.002017579               0.001433417               0.000000000               0.000000000               0.000000000               0.000000000               0.000596980               0.005327160               0.000767316              -0.000442027               0.001923045               0.001481018               0.000000000               0.000000000               0.000000000               0.000000000               0.000852594               0.005200468               0.000526144              -0.000330335               0.001843584               0.001513249               0.000000000               0.000000000               0.000000000               0.000000000               0.001003205               0.005094405               0.000266963              -0.000260598               0.001784984               0.001524386               0.000000000               0.000000000               0.000000000               0.000000000               0.001042251               0.005040559               0.000133699              -0.000239225               0.001759911               0.001520686               0.000000000               0.000000000               0.000000000               0.000000000              -0.010007885              -0.000638577              -0.001139978              -0.003673132               0.001011511              -0.002661621               0.000000000               0.000000000               0.000000000               0.000000000              -0.007137275               0.000778611               0.000521542              -0.002773802               0.001184129              -0.001589672               0.000000000               0.000000000               0.000000000               0.000000000              -0.005155015               0.002006291               0.002007513              -0.002183914               0.001396725              -0.000787189               0.000000000               0.000000000               0.000000000               0.000000000              -0.004001775               0.003027521               0.002399489              -0.001879103               0.001635529              -0.000243574               0.000000000               0.000000000               0.000000000               0.000000000              -0.003212489               0.003783248               0.002407254              -0.001677586               0.001820264               0.000142678               0.000000000               0.000000000               0.000000000               0.000000000              -0.002598860               0.004322705               0.002281936              -0.001514908               0.001945855               0.000430948               0.000000000               0.000000000               0.000000000               0.000000000              -0.002068916               0.004705443               0.002113397              -0.001364021               0.002023138               0.000659117               0.000000000               0.000000000               0.000000000               0.000000000              -0.001589243               0.004970338               0.001937354              -0.001217256               0.002062514               0.000845258               0.000000000               0.000000000               0.000000000               0.000000000              -0.001140922               0.005145677               0.001770425              -0.001071054               0.002072226               0.001001172               0.000000000               0.000000000               0.000000000               0.000000000              -0.000703825               0.005256134               0.001614240              -0.000920950               0.002059010               0.001138060               0.000000000               0.000000000               0.000000000               0.000000000              -0.000263325               0.005314300               0.001458706              -0.000763033               0.002025760               0.001262726               0.000000000               0.000000000               0.000000000               0.000000000               0.000175579               0.005320368               0.001292746              -0.000599203               0.001973173               0.001373969               0.000000000               0.000000000               0.000000000               0.000000000               0.000607722               0.005289469               0.001110520              -0.000433287               0.001907568               0.001474280               0.000000000               0.000000000               0.000000000               0.000000000               0.001023828               0.005236066               0.000901419              -0.000270573               0.001835529               0.001564956               0.000000000               0.000000000               0.000000000               0.000000000               0.001405139               0.005163701               0.000650500              -0.000118536               0.001760728               0.001642193               0.000000000               0.000000000               0.000000000               0.000000000               0.001722958               0.005083174               0.000347606               0.000010712               0.001690804               0.001701515               0.000000000               0.000000000               0.000000000               0.000000000               0.001895245               0.005055397               0.000189998               0.000078791               0.001658852               0.001737643               0.000000000               0.000000000               0.000000000               0.000000000              -0.011753981              -0.001012385              -0.001041626              -0.004281192               0.001089595              -0.003191597               0.000000000               0.000000000               0.000000000               0.000000000              -0.008088140              -0.000020875               0.000262924              -0.003030441               0.001003182              -0.002027259               0.000000000               0.000000000               0.000000000               0.000000000              -0.005348033               0.000762909               0.001462515              -0.002100874               0.000954587              -0.001146287               0.000000000               0.000000000               0.000000000               0.000000000              -0.003860479               0.001702111               0.001833068              -0.001660441               0.001120842              -0.000539599               0.000000000               0.000000000               0.000000000               0.000000000              -0.002926916               0.002524035               0.001890648              -0.001413096               0.001312367              -0.000100729               0.000000000               0.000000000               0.000000000               0.000000000              -0.002256263               0.003188021               0.001830390              -0.001244599               0.001477529               0.000232930               0.000000000               0.000000000               0.000000000               0.000000000              -0.001716156               0.003703682               0.001723626              -0.001106517               0.001603387               0.000496870               0.000000000               0.000000000               0.000000000               0.000000000              -0.001243559               0.004100436               0.001599555              -0.000978887               0.001693094               0.000714206               0.000000000               0.000000000               0.000000000               0.000000000              -0.000804473               0.004412086               0.001478228              -0.000853187               0.001755076               0.000901889               0.000000000               0.000000000               0.000000000               0.000000000              -0.000372605               0.004661481               0.001367857              -0.000722411               0.001794615               0.001072204               0.000000000               0.000000000               0.000000000               0.000000000               0.000066508               0.004846274               0.001256469              -0.000580843               0.001809023               0.001228180               0.000000000               0.000000000               0.000000000               0.000000000               0.000519758               0.004971530               0.001132334              -0.000426532               0.001799337               0.001372806               0.000000000               0.000000000               0.000000000               0.000000000               0.000995838               0.005056394               0.000992209              -0.000258610               0.001771651               0.001513041               0.000000000               0.000000000               0.000000000               0.000000000               0.001496289               0.005098699               0.000827467              -0.000076229               0.001724959               0.001648730               0.000000000               0.000000000               0.000000000               0.000000000               0.002017891               0.005090490               0.000620114               0.000120396               0.001656681               0.001777077               0.000000000               0.000000000               0.000000000               0.000000000               0.002557679               0.005051506               0.000345076               0.000327688               0.001574589               0.001902277               0.000000000               0.000000000               0.000000000               0.000000000               0.002932639               0.005066125               0.000201406               0.000466469               0.001533202               0.001999671               0.000000000               0.000000000               0.000000000               0.000000000              -0.012924369              -0.001168819              -0.000617457              -0.004700533               0.001177230              -0.003523303               0.000000000               0.000000000               0.000000000               0.000000000              -0.008738454              -0.000496664               0.000099940              -0.003214835               0.000906051              -0.002308784               0.000000000               0.000000000               0.000000000               0.000000000              -0.005489230              -0.000047492               0.000769275              -0.002052523               0.000668339              -0.001384184               0.000000000               0.000000000               0.000000000               0.000000000              -0.003755854               0.000805138               0.000992315              -0.001509086               0.000771402              -0.000737683               0.000000000               0.000000000               0.000000000               0.000000000              -0.002703132               0.001643614               0.001042626              -0.001219124               0.000954239              -0.000264885               0.000000000               0.000000000               0.000000000               0.000000000              -0.001984802               0.002367056               0.001022933              -0.001040181               0.001135737               0.000095557               0.000000000               0.000000000               0.000000000               0.000000000              -0.001436495               0.002965463               0.000972677              -0.000909367               0.001291600               0.000382233               0.000000000               0.000000000               0.000000000               0.000000000              -0.000965701               0.003453385               0.000911458              -0.000793810               0.001415720               0.000621910               0.000000000               0.000000000               0.000000000               0.000000000              -0.000524663               0.003855357               0.000850745              -0.000678667               0.001511328               0.000832661               0.000000000               0.000000000               0.000000000               0.000000000              -0.000091556               0.004189435               0.000795984              -0.000558012               0.001582468               0.001024456               0.000000000               0.000000000               0.000000000               0.000000000               0.000346669               0.004457807               0.000738426              -0.000427224               0.001628329               0.001201105               0.000000000               0.000000000               0.000000000               0.000000000               0.000812691               0.004671034               0.000670938              -0.000279120               0.001650036               0.001370916               0.000000000               0.000000000               0.000000000               0.000000000               0.001324191               0.004835032               0.000594327              -0.000107808               0.001647597               0.001539789               0.000000000               0.000000000               0.000000000               0.000000000               0.001893586               0.004947002               0.000503002               0.000091718               0.001618411               0.001710130               0.000000000               0.000000000               0.000000000               0.000000000               0.002532953               0.005003864               0.000385572               0.000324371               0.001559814               0.001884185               0.000000000               0.000000000               0.000000000               0.000000000               0.003266196               0.005015009               0.000220122               0.000597942               0.001472339               0.002070281               0.000000000               0.000000000               0.000000000               0.000000000               0.003830300               0.005072062               0.000133030               0.000802347               0.001423221               0.002225568               0.000000000               0.000000000               0.000000000               0.000000000              -0.013338038              -0.001208451              -0.000000000              -0.004850705               0.001214076              -0.003636628               0.000000000               0.000000000               0.000000000               0.000000000              -0.008970292              -0.000653490              -0.000000000              -0.003282171               0.000876221              -0.002405950               0.000000000               0.000000000               0.000000000               0.000000000              -0.005542005              -0.000327649               0.000000000              -0.002037294               0.000569878              -0.001467417               0.000000000               0.000000000               0.000000000               0.000000000              -0.003716739               0.000488687              -0.000000000              -0.001454861               0.000647845              -0.000807016               0.000000000               0.000000000               0.000000000               0.000000000              -0.002617077               0.001327077              -0.000000000              -0.001147287               0.000824782              -0.000322504               0.000000000               0.000000000               0.000000000               0.000000000              -0.001881915               0.002066075               0.000000000              -0.000963975               0.001010010               0.000046034               0.000000000               0.000000000               0.000000000               0.000000000              -0.001328853               0.002695069              -0.000000000              -0.000835202               0.001176748               0.000341546               0.000000000               0.000000000               0.000000000               0.000000000              -0.000858743               0.003217702              -0.000000000              -0.000724240               0.001313970               0.000589730               0.000000000               0.000000000               0.000000000               0.000000000              -0.000417934               0.003646942              -0.000000000              -0.000612592               0.001419832               0.000807241               0.000000000               0.000000000               0.000000000               0.000000000               0.000017498               0.004008107               0.000000000              -0.000494451               0.001500839               0.001006388               0.000000000               0.000000000               0.000000000               0.000000000               0.000458080               0.004304848               0.000000000              -0.000366325               0.001557043               0.001190718               0.000000000               0.000000000               0.000000000               0.000000000               0.000930995               0.004544554               0.000000000              -0.000218946               0.001587818               0.001368872               0.000000000               0.000000000               0.000000000               0.000000000               0.001458565               0.004737206              -0.000000000              -0.000045189               0.001594116               0.001548927               0.000000000               0.000000000               0.000000000               0.000000000               0.002055007               0.004879894               0.000000000               0.000160639               0.001573069               0.001733708               0.000000000               0.000000000               0.000000000               0.000000000               0.002740168               0.004966396               0.000000000               0.000406759               0.001519862               0.001926622               0.000000000               0.000000000               0.000000000               0.000000000               0.003547428               0.004997613               0.000000000               0.000705577               0.001430662               0.002136239               0.000000000               0.000000000               0.000000000               0.000000000               0.004187255               0.005070504               0.000000000               0.000936398               0.001378018               0.002314417               0.000000000               0.000000000               0.000000000               0.000000000               0.002254030               0.024323165              -0.000000000              -0.002195129               0.008839350               0.006644221               0.000000000               0.000000000               0.000000000               0.000000000               0.002188524               0.018833375              -0.000000000              -0.001533471               0.006788886               0.005255415               0.000000000               0.000000000               0.000000000               0.000000000               0.002832333               0.014357365               0.000000000              -0.000732544               0.005029922               0.004297378               0.000000000               0.000000000               0.000000000               0.000000000               0.002652591               0.011817312               0.000000000              -0.000482441               0.004099878               0.003617437               0.000000000               0.000000000               0.000000000               0.000000000               0.002239569               0.010209373               0.000000000              -0.000436332               0.003548534               0.003112202               0.000000000               0.000000000               0.000000000               0.000000000               0.001790817               0.009080741               0.000000000              -0.000463535               0.003181395               0.002717860               0.000000000               0.000000000               0.000000000               0.000000000               0.001375378               0.008228802              -0.000000000              -0.000512832               0.002913851               0.002401018               0.000000000               0.000000000               0.000000000               0.000000000               0.001007513               0.007539633              -0.000000000              -0.000564635               0.002701398               0.002136762               0.000000000               0.000000000               0.000000000               0.000000000               0.000687851               0.006951280              -0.000000000              -0.000610965               0.002520725               0.001909760               0.000000000               0.000000000               0.000000000               0.000000000               0.000417433               0.006415130               0.000000000              -0.000645352               0.002353473               0.001708120               0.000000000               0.000000000               0.000000000               0.000000000               0.000201821               0.005899317               0.000000000              -0.000661730               0.002186996               0.001525266               0.000000000               0.000000000               0.000000000               0.000000000               0.000034353               0.005381490               0.000000000              -0.000659802               0.002013746               0.001353944               0.000000000               0.000000000               0.000000000               0.000000000              -0.000082041               0.004841701              -0.000000000              -0.000635977               0.001825876               0.001189900               0.000000000               0.000000000               0.000000000               0.000000000              -0.000141908               0.004262887              -0.000000000              -0.000586075               0.001616306               0.001030231               0.000000000               0.000000000               0.000000000               0.000000000              -0.000144519               0.003623014               0.000000000              -0.000507070               0.001376683               0.000869612               0.000000000               0.000000000               0.000000000               0.000000000              -0.000088256               0.002890110              -0.000000000              -0.000394359               0.001094814               0.000700454               0.000000000               0.000000000               0.000000000               0.000000000              -0.000107419               0.002321826               0.000000000              -0.000330510               0.000884104               0.000553595               0.000000000               0.000000000               0.000000000               0.000000000               0.002326155               0.023814772              -0.001638151              -0.002104534               0.008639689               0.006535155               0.000000000               0.000000000               0.000000000               0.000000000               0.002130195               0.018504388              -0.000781391              -0.001514222               0.006672808               0.005158586               0.000000000               0.000000000               0.000000000               0.000000000               0.002636999               0.014222230               0.000064435              -0.000788902               0.005003663               0.004214761               0.000000000               0.000000000               0.000000000               0.000000000               0.002410199               0.011784539               0.000415639              -0.000569241               0.004117888               0.003548646               0.000000000               0.000000000               0.000000000               0.000000000               0.001988564               0.010226572               0.000553775              -0.000532609               0.003586359               0.003053751               0.000000000               0.000000000               0.000000000               0.000000000               0.001546936               0.009128846               0.000597416              -0.000561004               0.003229919               0.002668916               0.000000000               0.000000000               0.000000000               0.000000000               0.001146674               0.008292381               0.000599273              -0.000606544               0.002966280               0.002359737               0.000000000               0.000000000               0.000000000               0.000000000               0.000799251               0.007609302               0.000583501              -0.000651442               0.002753556               0.002102114               0.000000000               0.000000000               0.000000000               0.000000000               0.000506785               0.007022083               0.000559552              -0.000687715               0.002569909               0.001882194               0.000000000               0.000000000               0.000000000               0.000000000               0.000267356               0.006484092               0.000528105              -0.000710251               0.002398093               0.001687842               0.000000000               0.000000000               0.000000000               0.000000000               0.000081983               0.005966008               0.000494796              -0.000715006               0.002226985               0.001511979               0.000000000               0.000000000               0.000000000               0.000000000              -0.000053033               0.005449232               0.000458324              -0.000701040               0.002050073               0.001349033               0.000000000               0.000000000               0.000000000               0.000000000              -0.000139042               0.004916609               0.000413689              -0.000666715               0.001861092               0.001194376               0.000000000               0.000000000               0.000000000               0.000000000              -0.000172251               0.004355491               0.000356311              -0.000609029               0.001654826               0.001045796               0.000000000               0.000000000               0.000000000               0.000000000              -0.000155238               0.003748186               0.000272470              -0.000526736               0.001424961               0.000898225               0.000000000               0.000000000               0.000000000               0.000000000              -0.000091909               0.003075211               0.000152573              -0.000418866               0.001164682               0.000745816               0.000000000               0.000000000               0.000000000               0.000000000              -0.000104263               0.002566721               0.000094803              -0.000359938               0.000975544               0.000615607               0.000000000               0.000000000               0.000000000               0.000000000               0.002501556               0.022361865              -0.003042646              -0.001857146               0.008072929               0.006215782               0.000000000               0.000000000               0.000000000               0.000000000               0.001951383               0.017575583              -0.001445113              -0.001465176               0.006346861               0.004881685               0.000000000               0.000000000               0.000000000               0.000000000               0.002080304               0.013841324               0.000118347              -0.000950049               0.004930411               0.003980362               0.000000000               0.000000000               0.000000000               0.000000000               0.001718365               0.011685904               0.000740696              -0.000816349               0.004167379               0.003351030               0.000000000               0.000000000               0.000000000               0.000000000               0.001278969               0.010269952               0.000973328              -0.000804129               0.003691326               0.002887197               0.000000000               0.000000000               0.000000000               0.000000000               0.000873424               0.009248537               0.001039777              -0.000828532               0.003358992               0.002530460               0.000000000               0.000000000               0.000000000               0.000000000               0.000527870               0.008448182               0.001034619              -0.000858070               0.003102056               0.002243986               0.000000000               0.000000000               0.000000000               0.000000000               0.000250004               0.007782128               0.001003608              -0.000879013               0.002887021               0.002008008               0.000000000               0.000000000               0.000000000               0.000000000               0.000038229               0.007196819               0.000960228              -0.000885265               0.002694004               0.001808739               0.000000000               0.000000000               0.000000000               0.000000000              -0.000117506               0.006652777               0.000903609              -0.000875660               0.002509457               0.001633797               0.000000000               0.000000000               0.000000000               0.000000000              -0.000219081               0.006130075               0.000842680              -0.000848413               0.002326142               0.001477729               0.000000000               0.000000000               0.000000000               0.000000000              -0.000274690               0.005615872               0.000774657              -0.000804991               0.002140269               0.001335278               0.000000000               0.000000000               0.000000000               0.000000000              -0.000287559               0.005101698               0.000692553              -0.000745545               0.001949064               0.001203519               0.000000000               0.000000000               0.000000000               0.000000000              -0.000254494               0.004586250               0.000588289              -0.000668715               0.001751640               0.001082925               0.000000000               0.000000000               0.000000000               0.000000000              -0.000187028               0.004067182               0.000442907              -0.000578532               0.001548558               0.000970026               0.000000000               0.000000000               0.000000000               0.000000000              -0.000099787               0.003544783               0.000245207              -0.000480517               0.001341755               0.000861238               0.000000000               0.000000000               0.000000000               0.000000000              -0.000091732               0.003181191               0.000148149              -0.000432047               0.001204402               0.000772355               0.000000000               0.000000000               0.000000000               0.000000000               0.002663399               0.020153807              -0.004024890              -0.001520450               0.007224685               0.005704235               0.000000000               0.000000000               0.000000000               0.000000000               0.001620595               0.016192270              -0.001910445              -0.001416308               0.005869472               0.004453164               0.000000000               0.000000000               0.000000000               0.000000000               0.001228962               0.013276685               0.000128481              -0.001198722               0.004825092               0.003626370               0.000000000               0.000000000               0.000000000               0.000000000               0.000711679               0.011515382               0.000893151              -0.001172540               0.004229269               0.003056729               0.000000000               0.000000000               0.000000000               0.000000000               0.000274408               0.010297077               0.001159044              -0.001184229               0.003827068               0.002642839               0.000000000               0.000000000               0.000000000               0.000000000              -0.000057141               0.009368713               0.001224052              -0.001192514               0.003520378               0.002327863               0.000000000               0.000000000               0.000000000               0.000000000              -0.000297048               0.008613628               0.001209079              -0.001188094               0.003267212               0.002079118               0.000000000               0.000000000               0.000000000               0.000000000              -0.000460188               0.007964399               0.001166188              -0.001168118               0.003044146               0.001876028               0.000000000               0.000000000               0.000000000               0.000000000              -0.000554482               0.007375611               0.001107660              -0.001129879               0.002835139               0.001705259               0.000000000               0.000000000               0.000000000               0.000000000              -0.000595009               0.006821214               0.001034571              -0.001075778               0.002632308               0.001556530               0.000000000               0.000000000               0.000000000               0.000000000              -0.000589924               0.006292666               0.000956504              -0.001007803               0.002433468               0.001425666               0.000000000               0.000000000               0.000000000               0.000000000              -0.000541476               0.005788839               0.000868819              -0.000926656               0.002238479               0.001311823               0.000000000               0.000000000               0.000000000               0.000000000              -0.000457748               0.005308495               0.000762288              -0.000835216               0.002047886               0.001212670               0.000000000               0.000000000               0.000000000               0.000000000              -0.000348416               0.004854852               0.000632334              -0.000737511               0.001864105               0.001126594               0.000000000               0.000000000               0.000000000               0.000000000              -0.000226508               0.004441308               0.000463894              -0.000640103               0.001693789               0.001053686               0.000000000               0.000000000               0.000000000               0.000000000              -0.000110786               0.004085520               0.000249226              -0.000552234               0.001545904               0.000993671               0.000000000               0.000000000               0.000000000               0.000000000              -0.000078919               0.003874267               0.000142984              -0.000513877               0.001462702               0.000948825               0.000000000               0.000000000               0.000000000               0.000000000               0.002663729               0.017452344              -0.004496682              -0.001182645               0.006211604               0.005028959               0.000000000               0.000000000               0.000000000               0.000000000               0.001107547               0.014534247              -0.002161210              -0.001401448               0.005311850               0.003910401               0.000000000               0.000000000               0.000000000               0.000000000               0.000175594               0.012599313               0.000052702              -0.001509063               0.004702750               0.003193687               0.000000000               0.000000000               0.000000000               0.000000000              -0.000433110               0.011266602               0.000826071              -0.001570738               0.004279076               0.002708338               0.000000000               0.000000000               0.000000000               0.000000000              -0.000806438               0.010244358               0.001072742              -0.001582955               0.003942404               0.002359448               0.000000000               0.000000000               0.000000000               0.000000000              -0.001016840               0.009408297               0.001124516              -0.001557349               0.003655184               0.002097835               0.000000000               0.000000000               0.000000000               0.000000000              -0.001112934               0.008691149               0.001106141              -0.001503740               0.003398267               0.001894527               0.000000000               0.000000000               0.000000000               0.000000000              -0.001136616               0.008048572               0.001061607              -0.001432299               0.003160263               0.001727964               0.000000000               0.000000000               0.000000000               0.000000000              -0.001100091               0.007452706               0.001002042              -0.001344119               0.002932250               0.001588131               0.000000000               0.000000000               0.000000000               0.000000000              -0.001014263               0.006890691               0.000927834              -0.001241682               0.002710768               0.001469086               0.000000000               0.000000000               0.000000000               0.000000000              -0.000892606               0.006364520               0.000848223              -0.001130290               0.002498248               0.001367959               0.000000000               0.000000000               0.000000000               0.000000000              -0.000744916               0.005878176               0.000757647              -0.001014113               0.002297410               0.001283297               0.000000000               0.000000000               0.000000000               0.000000000              -0.000581166               0.005438383               0.000644944              -0.000897733               0.002112020               0.001214287               0.000000000               0.000000000               0.000000000               0.000000000              -0.000411717               0.005051420               0.000512135              -0.000785819               0.001945729               0.001159910               0.000000000               0.000000000               0.000000000               0.000000000              -0.000252691               0.004730232               0.000359203              -0.000686036               0.001805407               0.001119370               0.000000000               0.000000000               0.000000000               0.000000000              -0.000119637               0.004497798               0.000185565              -0.000607087               0.001701613               0.001094526               0.000000000               0.000000000               0.000000000               0.000000000              -0.000072704               0.004386493               0.000101802              -0.000575574               0.001654008               0.001078433               0.000000000               0.000000000               0.000000000               0.000000000               0.002362167               0.014542052              -0.004473286              -0.000931945               0.005157949               0.004226004               0.000000000               0.000000000               0.000000000               0.000000000               0.000413272               0.012781877              -0.002232112              -0.001442756               0.004741501               0.003298746               0.000000000               0.000000000               0.000000000               0.000000000              -0.000950410               0.011859352              -0.000136755              -0.001838818               0.004566017               0.002727199               0.000000000               0.000000000               0.000000000               0.000000000              -0.001548154               0.010926075               0.000545234              -0.001946312               0.004290759               0.002344447               0.000000000               0.000000000               0.000000000               0.000000000              -0.001778687               0.010070032               0.000754650              -0.001925757               0.003998563               0.002072806               0.000000000               0.000000000               0.000000000               0.000000000              -0.001824296               0.009303057               0.000802825              -0.001846989               0.003716651               0.001869662               0.000000000               0.000000000               0.000000000               0.000000000              -0.001764860               0.008607715               0.000797772              -0.001737783               0.003448471               0.001710688               0.000000000               0.000000000               0.000000000               0.000000000              -0.001639408               0.007971179               0.000772384              -0.001611171               0.003194090               0.001582919               0.000000000               0.000000000               0.000000000               0.000000000              -0.001471530               0.007374546               0.000726951              -0.001473639               0.002949370               0.001475732               0.000000000               0.000000000               0.000000000               0.000000000              -0.001276594               0.006814820               0.000665306              -0.001330572               0.002715108               0.001384536               0.000000000               0.000000000               0.000000000               0.000000000              -0.001060814               0.006304645               0.000598103              -0.001185883               0.002496822               0.001310939               0.000000000               0.000000000               0.000000000               0.000000000              -0.000836850               0.005851023               0.000522207              -0.001045194               0.002298719               0.001253525               0.000000000               0.000000000               0.000000000               0.000000000              -0.000615518               0.005460973               0.000429565              -0.000913438               0.002124785               0.001211347               0.000000000               0.000000000               0.000000000               0.000000000              -0.000411970               0.005143035               0.000322061              -0.000797366               0.001980117               0.001182751               0.000000000               0.000000000               0.000000000               0.000000000              -0.000240462               0.004902099               0.000210716              -0.000702934               0.001868328               0.001165394               0.000000000               0.000000000               0.000000000               0.000000000              -0.000107811               0.004748045               0.000103396              -0.000633933               0.001793977               0.001160044               0.000000000               0.000000000               0.000000000               0.000000000              -0.000058954               0.004686357               0.000055384              -0.000607901               0.001764737               0.001156836               0.000000000               0.000000000               0.000000000               0.000000000               0.001690874               0.011660183              -0.004045982              -0.000823447               0.004161170               0.003337723               0.000000000               0.000000000               0.000000000               0.000000000              -0.000430909               0.011071142              -0.002184448              -0.001545481               0.004205504               0.002660023               0.000000000               0.000000000               0.000000000               0.000000000              -0.002028034               0.011080171              -0.000445025              -0.002145529               0.004408530               0.002263001               0.000000000               0.000000000               0.000000000               0.000000000              -0.002490493               0.010470650               0.000104709              -0.002242761               0.004237769               0.001995008               0.000000000               0.000000000               0.000000000               0.000000000              -0.002525081               0.009745540               0.000290270              -0.002165093               0.003970178               0.001805086               0.000000000               0.000000000               0.000000000               0.000000000              -0.002385545               0.009034635               0.000357621              -0.002023904               0.003686149               0.001662246               0.000000000               0.000000000               0.000000000               0.000000000              -0.002165441               0.008361811               0.000386387              -0.001857262               0.003406330               0.001549068               0.000000000               0.000000000               0.000000000               0.000000000              -0.001908567               0.007729743               0.000394393              -0.001681926               0.003137197               0.001455271               0.000000000               0.000000000               0.000000000               0.000000000              -0.001628046               0.007142611               0.000376184              -0.001503340               0.002881960               0.001378620               0.000000000               0.000000000               0.000000000               0.000000000              -0.001339843               0.006606055               0.000343254              -0.001328195               0.002644728               0.001316533               0.000000000               0.000000000               0.000000000               0.000000000              -0.001052853               0.006134333               0.000309281              -0.001161609               0.002431960               0.001270351               0.000000000               0.000000000               0.000000000               0.000000000              -0.000778952               0.005734973               0.000268289              -0.001008976               0.002247964               0.001238988               0.000000000               0.000000000               0.000000000               0.000000000              -0.000534166               0.005408094               0.000214289              -0.000876322               0.002094787               0.001218465               0.000000000               0.000000000               0.000000000               0.000000000              -0.000332590               0.005158613               0.000150146              -0.000769546               0.001976036               0.001206490               0.000000000               0.000000000               0.000000000               0.000000000              -0.000178932               0.004988585               0.000085522              -0.000690671               0.001893069               0.001202398               0.000000000               0.000000000               0.000000000               0.000000000              -0.000072726               0.004893170               0.000035807              -0.000638917               0.001844013               0.001205096               0.000000000               0.000000000               0.000000000               0.000000000              -0.000035985               0.004860963               0.000017833              -0.000621113               0.001827343               0.001206229               0.000000000               0.000000000               0.000000000               0.000000000               0.000694688               0.008990377              -0.003324584              -0.000863290               0.003284525               0.002421235               0.000000000               0.000000000               0.000000000               0.000000000              -0.001366573               0.009498200              -0.002067476              -0.001699737               0.003732614               0.002032877               0.000000000               0.000000000               0.000000000               0.000000000              -0.002952882               0.010263001              -0.000854348              -0.002390200               0.004217700               0.001827499               0.000000000               0.000000000               0.000000000               0.000000000              -0.003178333               0.009897838              -0.000423120              -0.002429099               0.004108946               0.001679847               0.000000000               0.000000000               0.000000000               0.000000000              -0.002986469               0.009286138              -0.000225967              -0.002280688               0.003855578               0.001574890               0.000000000               0.000000000               0.000000000               0.000000000              -0.002669774               0.008630181              -0.000117549              -0.002079933               0.003570009               0.001490076               0.000000000               0.000000000               0.000000000               0.000000000              -0.002313834               0.007982984              -0.000046453              -0.001865556               0.003282820               0.001417264               0.000000000               0.000000000               0.000000000               0.000000000              -0.001946557               0.007371853               0.000005562              -0.001651437               0.003007738               0.001356302               0.000000000               0.000000000               0.000000000               0.000000000              -0.001571252               0.006813567               0.000034201              -0.001440912               0.002751470               0.001310559               0.000000000               0.000000000               0.000000000               0.000000000              -0.001206275               0.006320630               0.000047245              -0.001242429               0.002520998               0.001278570               0.000000000               0.000000000               0.000000000               0.000000000              -0.000872513               0.005904675               0.000060637              -0.001065274               0.002323297               0.001258022               0.000000000               0.000000000               0.000000000               0.000000000              -0.000584726               0.005565998               0.000065203              -0.000915020               0.002160321               0.001245301               0.000000000               0.000000000               0.000000000               0.000000000              -0.000356560               0.005303836               0.000053255              -0.000796688               0.002033490               0.001236803               0.000000000               0.000000000               0.000000000               0.000000000              -0.000190797               0.005119615               0.000032667              -0.000711499               0.001943688               0.001232189               0.000000000               0.000000000               0.000000000               0.000000000              -0.000083834               0.005012284               0.000011340              -0.000657972               0.001890068               0.001232097               0.000000000               0.000000000               0.000000000               0.000000000              -0.000026487               0.004966214              -0.000000357              -0.000630708               0.001865624               0.001234916               0.000000000               0.000000000               0.000000000               0.000000000              -0.000012284               0.004954462              -0.000001456              -0.000623913               0.001859442               0.001235529               0.000000000               0.000000000               0.000000000               0.000000000              -0.000501864               0.006730873              -0.002432504              -0.001029557               0.002586787               0.001557229               0.000000000               0.000000000               0.000000000               0.000000000              -0.002284126               0.008085311              -0.001928919              -0.001867207               0.003317479               0.001450271               0.000000000               0.000000000               0.000000000               0.000000000              -0.003670863               0.009439841              -0.001337066              -0.002556548               0.003998765               0.001442217               0.000000000               0.000000000               0.000000000               0.000000000              -0.003641064               0.009336525              -0.000981246              -0.002532458               0.003956296               0.001423838               0.000000000               0.000000000               0.000000000               0.000000000              -0.003263837               0.008863328              -0.000749359              -0.002331849               0.003731696               0.001399847               0.000000000               0.000000000               0.000000000               0.000000000              -0.002808008               0.008282875              -0.000588768              -0.002088357               0.003457050               0.001368692               0.000000000               0.000000000               0.000000000               0.000000000              -0.002343786               0.007692923              -0.000467603              -0.001840531               0.003177792               0.001337262               0.000000000               0.000000000               0.000000000               0.000000000              -0.001888407               0.007130590              -0.000366635              -0.001599473               0.002909997               0.001310525               0.000000000               0.000000000               0.000000000               0.000000000              -0.001441836               0.006612028              -0.000285899              -0.001367189               0.002659717               0.001292528               0.000000000               0.000000000               0.000000000               0.000000000              -0.001021158               0.006162309              -0.000216859              -0.001153220               0.002438489               0.001285269               0.000000000               0.000000000               0.000000000               0.000000000              -0.000657873               0.005791202              -0.000151181              -0.000970600               0.002253915               0.001283315               0.000000000               0.000000000               0.000000000               0.000000000              -0.000373607               0.005488413              -0.000097368              -0.000826152               0.002104837               0.001278685               0.000000000               0.000000000               0.000000000               0.000000000              -0.000175935               0.005254939              -0.000060575              -0.000722841               0.001992576               0.001269735               0.000000000               0.000000000               0.000000000               0.000000000              -0.000050959               0.005101862              -0.000035675              -0.000656841               0.001919551               0.001262710               0.000000000               0.000000000               0.000000000               0.000000000               0.000013008               0.005023301              -0.000018080              -0.000623033               0.001882094               0.001259062               0.000000000               0.000000000               0.000000000               0.000000000               0.000027506               0.004995493              -0.000006236              -0.000614120               0.001869855               0.001255734               0.000000000               0.000000000               0.000000000               0.000000000               0.000022677               0.004991697              -0.000001206              -0.000615457               0.001869035               0.001253578               0.000000000               0.000000000               0.000000000               0.000000000              -0.001903246               0.004626565              -0.001487326              -0.001292035               0.001972851               0.000680816               0.000000000               0.000000000               0.000000000               0.000000000              -0.003053040               0.006450863              -0.001771458              -0.001951243               0.002800680               0.000849437               0.000000000               0.000000000               0.000000000               0.000000000              -0.004092520               0.008230944              -0.001841809              -0.002563557               0.003598139               0.001034582               0.000000000               0.000000000               0.000000000               0.000000000              -0.003922548               0.008516685              -0.001574152              -0.002535535               0.003684045               0.001148510               0.000000000               0.000000000               0.000000000               0.000000000              -0.003471164               0.008307863              -0.001309723              -0.002340164               0.003549314               0.001209151               0.000000000               0.000000000               0.000000000               0.000000000              -0.002964896               0.007923862              -0.001094643              -0.002102314               0.003342032               0.001239718               0.000000000               0.000000000               0.000000000               0.000000000              -0.002463013               0.007480698              -0.000921514              -0.001858713               0.003113112               0.001254399               0.000000000               0.000000000               0.000000000               0.000000000              -0.001981525               0.007034891              -0.000777833              -0.001622429               0.002885750               0.001263321               0.000000000               0.000000000               0.000000000               0.000000000              -0.001515869               0.006616839              -0.000651115              -0.001395553               0.002670775               0.001275223               0.000000000               0.000000000               0.000000000               0.000000000              -0.001076588               0.006234592              -0.000528579              -0.001183042               0.002472524               0.001289482               0.000000000               0.000000000               0.000000000               0.000000000              -0.000687686               0.005897963              -0.000410775              -0.000995125               0.002297676               0.001302551               0.000000000               0.000000000               0.000000000               0.000000000              -0.000374096               0.005611032              -0.000300986              -0.000841663               0.002150879               0.001309217               0.000000000               0.000000000               0.000000000               0.000000000              -0.000149514               0.005373144              -0.000204928              -0.000727709               0.002033600               0.001305891               0.000000000               0.000000000               0.000000000               0.000000000              -0.000008057               0.005196425              -0.000127234              -0.000652573               0.001949649               0.001297076               0.000000000               0.000000000               0.000000000               0.000000000               0.000064073               0.005079399              -0.000064293              -0.000610896               0.001896748               0.001285852               0.000000000               0.000000000               0.000000000               0.000000000               0.000082881               0.005020868              -0.000019746              -0.000596527               0.001872448               0.001275921               0.000000000               0.000000000               0.000000000               0.000000000               0.000078167               0.005007533              -0.000002706              -0.000596627               0.001868037               0.001271409               0.000000000               0.000000000               0.000000000               0.000000000              -0.003691280               0.002724577              -0.000557123              -0.001724799               0.001483115              -0.000241684               0.000000000               0.000000000               0.000000000               0.000000000              -0.003917675               0.004807760              -0.001541465              -0.002070094               0.002292601               0.000222507               0.000000000               0.000000000               0.000000000               0.000000000              -0.004418430               0.006811414              -0.002242150              -0.002508332               0.003106559               0.000598227               0.000000000               0.000000000               0.000000000               0.000000000              -0.004122958               0.007465538              -0.002136221              -0.002479296               0.003314919               0.000835624               0.000000000               0.000000000               0.000000000               0.000000000              -0.003628160               0.007570930              -0.001879760              -0.002306921               0.003292591               0.000985670               0.000000000               0.000000000               0.000000000               0.000000000              -0.003099232               0.007430654              -0.001632819              -0.002091039               0.003173872               0.001082833               0.000000000               0.000000000               0.000000000               0.000000000              -0.002580450               0.007175118              -0.001418284              -0.001864554               0.003013200               0.001148646               0.000000000               0.000000000               0.000000000               0.000000000              -0.002082394               0.006886075              -0.001235100              -0.001641653               0.002842553               0.001200900               0.000000000               0.000000000               0.000000000               0.000000000              -0.001612771               0.006591068              -0.001070556              -0.001428669               0.002673224               0.001244554               0.000000000               0.000000000               0.000000000               0.000000000              -0.001165326               0.006293940              -0.000912400              -0.001223737               0.002505871               0.001282134               0.000000000               0.000000000               0.000000000               0.000000000              -0.000749432               0.006008022              -0.000754310              -0.001032037               0.002346666               0.001314629               0.000000000               0.000000000               0.000000000               0.000000000              -0.000390002               0.005747015              -0.000594478              -0.000864626               0.002203861               0.001339235               0.000000000               0.000000000               0.000000000               0.000000000              -0.000110352               0.005514357              -0.000439778              -0.000730675               0.002081659               0.001350984               0.000000000               0.000000000               0.000000000               0.000000000               0.000081168               0.005315913              -0.000299510              -0.000634050               0.001983303               0.001349253               0.000000000               0.000000000               0.000000000               0.000000000               0.000183480               0.005153626              -0.000173219              -0.000575397               0.001909657               0.001334260               0.000000000               0.000000000               0.000000000               0.000000000               0.000214414               0.005052108              -0.000070946              -0.000551107               0.001867722               0.001316615               0.000000000               0.000000000               0.000000000               0.000000000               0.000205085               0.005014996              -0.000025224              -0.000549966               0.001854971               0.001305004               0.000000000               0.000000000               0.000000000               0.000000000              -0.005746887               0.001177913               0.000270347              -0.002302319               0.001160069              -0.001142249               0.000000000               0.000000000               0.000000000               0.000000000              -0.004930254               0.003256076              -0.001221386              -0.002255851               0.001837296              -0.000418555               0.000000000               0.000000000               0.000000000               0.000000000              -0.004688888               0.005199581              -0.002418461              -0.002408275               0.002535934               0.000127658               0.000000000               0.000000000               0.000000000               0.000000000              -0.004184943               0.006109417              -0.002516568              -0.002333026               0.002814126               0.000481101               0.000000000               0.000000000               0.000000000               0.000000000              -0.003626401               0.006501587              -0.002328002              -0.002172594               0.002891371               0.000718777               0.000000000               0.000000000               0.000000000               0.000000000              -0.003077132               0.006613291              -0.002087022              -0.001980582               0.002864602               0.000884020               0.000000000               0.000000000               0.000000000               0.000000000              -0.002554432               0.006578521              -0.001856040              -0.001780223               0.002786226               0.001006002               0.000000000               0.000000000               0.000000000               0.000000000              -0.002054137               0.006476940              -0.001649634              -0.001579916               0.002685597               0.001105681               0.000000000               0.000000000               0.000000000               0.000000000              -0.001579281               0.006335071              -0.001463851              -0.001384111               0.002573039               0.001188928               0.000000000               0.000000000               0.000000000               0.000000000              -0.001127625               0.006159463              -0.001287510              -0.001192790               0.002450730               0.001257940               0.000000000               0.000000000               0.000000000               0.000000000              -0.000701882               0.005960953              -0.001108678              -0.001008323               0.002323072               0.001314749               0.000000000               0.000000000               0.000000000               0.000000000              -0.000312130               0.005755137              -0.000920433              -0.000836439               0.002197173               0.001360733               0.000000000               0.000000000               0.000000000               0.000000000               0.000020984               0.005552537              -0.000727258              -0.000686197               0.002079559               0.001393363               0.000000000               0.000000000               0.000000000               0.000000000               0.000274679               0.005359628              -0.000534042              -0.000566948               0.001975507               0.001408560               0.000000000               0.000000000               0.000000000               0.000000000               0.000434707               0.005193391              -0.000341214              -0.000486158               0.001893166               0.001407008               0.000000000               0.000000000               0.000000000               0.000000000               0.000498174               0.005077443              -0.000161371              -0.000447864               0.001841752               0.001393888               0.000000000               0.000000000               0.000000000               0.000000000               0.000490288               0.005024261              -0.000072637              -0.000444173               0.001822795               0.001378621               0.000000000               0.000000000               0.000000000               0.000000000              -0.007923067               0.000063480               0.000870168              -0.002979083               0.001014180              -0.001964902               0.000000000               0.000000000               0.000000000               0.000000000              -0.006036149               0.001885836              -0.000859334              -0.002499282               0.001461696              -0.001037586               0.000000000               0.000000000               0.000000000               0.000000000              -0.004932340               0.003542322              -0.002339116              -0.002292414               0.001944898              -0.000347516               0.000000000               0.000000000               0.000000000               0.000000000              -0.004130732               0.004569480              -0.002624242              -0.002120205               0.002229878               0.000109673               0.000000000               0.000000000               0.000000000               0.000000000              -0.003473230               0.005180885              -0.002538634              -0.001950068               0.002376966               0.000426898               0.000000000               0.000000000               0.000000000               0.000000000              -0.002899480               0.005529708              -0.002343532              -0.001778515               0.002436055               0.000657540               0.000000000               0.000000000               0.000000000               0.000000000              -0.002375032               0.005725540              -0.002127024              -0.001606326               0.002443936               0.000837609               0.000000000               0.000000000               0.000000000               0.000000000              -0.001884445               0.005819257              -0.001921906              -0.001434071               0.002417756               0.000983685               0.000000000               0.000000000               0.000000000               0.000000000              -0.001417747               0.005836683              -0.001735674              -0.001261238               0.002365954               0.001104716               0.000000000               0.000000000               0.000000000               0.000000000              -0.000969050               0.005798350              -0.001558198              -0.001088185               0.002295492               0.001207307               0.000000000               0.000000000               0.000000000               0.000000000              -0.000534389               0.005718584              -0.001378143              -0.000915217               0.002211248               0.001296031               0.000000000               0.000000000               0.000000000               0.000000000              -0.000119670               0.005604264              -0.001188800              -0.000745408               0.002116538               0.001371131               0.000000000               0.000000000               0.000000000               0.000000000               0.000265109               0.005468631              -0.000986601              -0.000584162               0.002017579               0.001433417               0.000000000               0.000000000               0.000000000               0.000000000               0.000596980               0.005327160              -0.000767316              -0.000442027               0.001923045               0.001481018               0.000000000               0.000000000               0.000000000               0.000000000               0.000852594               0.005200468              -0.000526144              -0.000330335               0.001843584               0.001513249               0.000000000               0.000000000               0.000000000               0.000000000               0.001003205               0.005094405              -0.000266963              -0.000260598               0.001784984               0.001524386               0.000000000               0.000000000               0.000000000               0.000000000               0.001042251               0.005040559              -0.000133699              -0.000239225               0.001759911               0.001520686               0.000000000               0.000000000               0.000000000               0.000000000              -0.010007885              -0.000638577               0.001139978              -0.003673132               0.001011511              -0.002661621               0.000000000               0.000000000               0.000000000               0.000000000              -0.007137275               0.000778611              -0.000521542              -0.002773802               0.001184129              -0.001589672               0.000000000               0.000000000               0.000000000               0.000000000              -0.005155015               0.002006291              -0.002007513              -0.002183914               0.001396725              -0.000787189               0.000000000               0.000000000               0.000000000               0.000000000              -0.004001775               0.003027521              -0.002399489              -0.001879103               0.001635529              -0.000243574               0.000000000               0.000000000               0.000000000               0.000000000              -0.003212489               0.003783248              -0.002407254              -0.001677586               0.001820264               0.000142678               0.000000000               0.000000000               0.000000000               0.000000000              -0.002598860               0.004322705              -0.002281936              -0.001514908               0.001945855               0.000430948               0.000000000               0.000000000               0.000000000               0.000000000              -0.002068916               0.004705443              -0.002113397              -0.001364021               0.002023138               0.000659117               0.000000000               0.000000000               0.000000000               0.000000000              -0.001589243               0.004970338              -0.001937354              -0.001217256               0.002062514               0.000845258               0.000000000               0.000000000               0.000000000               0.000000000              -0.001140922               0.005145677              -0.001770425              -0.001071054               0.002072226               0.001001172               0.000000000               0.000000000               0.000000000               0.000000000              -0.000703825               0.005256134              -0.001614240              -0.000920950               0.002059010               0.001138060               0.000000000               0.000000000               0.000000000               0.000000000              -0.000263325               0.005314300              -0.001458706              -0.000763033               0.002025760               0.001262726               0.000000000               0.000000000               0.000000000               0.000000000               0.000175579               0.005320368              -0.001292746              -0.000599203               0.001973173               0.001373969               0.000000000               0.000000000               0.000000000               0.000000000               0.000607722               0.005289469              -0.001110520              -0.000433287               0.001907568               0.001474280               0.000000000               0.000000000               0.000000000               0.000000000               0.001023828               0.005236066              -0.000901419              -0.000270573               0.001835529               0.001564956               0.000000000               0.000000000               0.000000000               0.000000000               0.001405139               0.005163701              -0.000650500              -0.000118536               0.001760728               0.001642193               0.000000000               0.000000000               0.000000000               0.000000000               0.001722958               0.005083174              -0.000347606               0.000010712               0.001690804               0.001701515               0.000000000               0.000000000               0.000000000               0.000000000               0.001895245               0.005055397              -0.000189998               0.000078791               0.001658852               0.001737643               0.000000000               0.000000000               0.000000000               0.000000000              -0.011753981              -0.001012385               0.001041626              -0.004281192               0.001089595              -0.003191597               0.000000000               0.000000000               0.000000000               0.000000000              -0.008088140              -0.000020875              -0.000262924              -0.003030441               0.001003182              -0.002027259               0.000000000               0.000000000               0.000000000               0.000000000              -0.005348033               0.000762909              -0.001462515              -0.002100874               0.000954587              -0.001146287               0.000000000               0.000000000               0.000000000               0.000000000              -0.003860479               0.001702111              -0.001833068              -0.001660441               0.001120842              -0.000539599               0.000000000               0.000000000               0.000000000               0.000000000              -0.002926916               0.002524035              -0.001890648              -0.001413096               0.001312367              -0.000100729               0.000000000               0.000000000               0.000000000               0.000000000              -0.002256263               0.003188021              -0.001830390              -0.001244599               0.001477529               0.000232930               0.000000000               0.000000000               0.000000000               0.000000000              -0.001716156               0.003703682              -0.001723626              -0.001106517               0.001603387               0.000496870               0.000000000               0.000000000               0.000000000               0.000000000              -0.001243559               0.004100436              -0.001599555              -0.000978887               0.001693094               0.000714206               0.000000000               0.000000000               0.000000000               0.000000000              -0.000804473               0.004412086              -0.001478228              -0.000853187               0.001755076               0.000901889               0.000000000               0.000000000               0.000000000               0.000000000              -0.000372605               0.004661481              -0.001367857              -0.000722411               0.001794615               0.001072204               0.000000000               0.000000000               0.000000000               0.000000000               0.000066508               0.004846274              -0.001256469              -0.000580843               0.001809023               0.001228180               0.000000000               0.000000000               0.000000000               0.000000000               0.000519758               0.004971530              -0.001132334              -0.000426532               0.001799337               0.001372806               0.000000000               0.000000000               0.000000000               0.000000000               0.000995838               0.005056394              -0.000992209              -0.000258610               0.001771651               0.001513041               0.000000000               0.000000000               0.000000000               0.000000000               0.001496289               0.005098699              -0.000827467              -0.000076229               0.001724959               0.001648730               0.000000000               0.000000000               0.000000000               0.000000000               0.002017891               0.005090490              -0.000620114               0.000120396               0.001656681               0.001777077               0.000000000               0.000000000               0.000000000               0.000000000               0.002557679               0.005051506              -0.000345076               0.000327688               0.001574589               0.001902277               0.000000000               0.000000000               0.000000000               0.000000000               0.002932639               0.005066125              -0.000201406               0.000466469               0.001533202               0.001999671               0.000000000               0.000000000               0.000000000               0.000000000              -0.012924369              -0.001168819               0.000617457              -0.004700533               0.001177230              -0.003523303               0.000000000               0.000000000               0.000000000               0.000000000              -0.008738454              -0.000496664              -0.000099940              -0.003214835               0.000906051              -0.002308784               0.000000000               0.000000000               0.000000000               0.000000000              -0.005489230              -0.000047492              -0.000769275              -0.002052523               0.000668339              -0.001384184               0.000000000               0.000000000               0.000000000               0.000000000              -0.003755854               0.000805138              -0.000992315              -0.001509086               0.000771402              -0.000737683               0.000000000               0.000000000               0.000000000               0.000000000              -0.002703132               0.001643614              -0.001042626              -0.001219124               0.000954239              -0.000264885               0.000000000               0.000000000               0.000000000               0.000000000              -0.001984802               0.002367056              -0.001022933              -0.001040181               0.001135737               0.000095557               0.000000000               0.000000000               0.000000000               0.000000000              -0.001436495               0.002965463              -0.000972677              -0.000909367               0.001291600               0.000382233               0.000000000               0.000000000               0.000000000               0.000000000              -0.000965701               0.003453385              -0.000911458              -0.000793810               0.001415720               0.000621910               0.000000000               0.000000000               0.000000000               0.000000000              -0.000524663               0.003855357              -0.000850745              -0.000678667               0.001511328               0.000832661               0.000000000               0.000000000               0.000000000               0.000000000              -0.000091556               0.004189435              -0.000795984              -0.000558012               0.001582468               0.001024456               0.000000000               0.000000000               0.000000000               0.000000000               0.000346669               0.004457807              -0.000738426              -0.000427224               0.001628329               0.001201105               0.000000000               0.000000000               0.000000000               0.000000000               0.000812691               0.004671034              -0.000670938              -0.000279120               0.001650036               0.001370916               0.000000000               0.000000000               0.000000000               0.000000000               0.001324191               0.004835032              -0.000594327              -0.000107808               0.001647597               0.001539789               0.000000000               0.000000000               0.000000000               0.000000000               0.001893586               0.004947002              -0.000503002               0.000091718               0.001618411               0.001710130               0.000000000               0.000000000               0.000000000               0.000000000               0.002532953               0.005003864              -0.000385572               0.000324371               0.001559814               0.001884185               0.000000000               0.000000000               0.000000000               0.000000000               0.003266196               0.005015009              -0.000220122               0.000597942               0.001472339               0.002070281               0.000000000               0.000000000               0.000000000               0.000000000               0.003830300               0.005072062              -0.000133030               0.000802347               0.001423221               0.002225568               0.000000000               0.000000000               0.000000000               0.000000000               0.000000000               0.000000000               0.000000000               0.000000000               0.000000000               0.000000000               0.000000000               0.000000000               0.000000000               0.000000000               0.000000000               0.000000000               0.000000000               0.000000000               0.000000000               0.000000000               0.000000000               0.000000000               0.000000000               0.000000000               0.000000000               0.000000000               0.000000000               0.000000000               0.000000000               0.000000000               0.000000000               0.000000000               0.000000000               0.000000000               0.000000000               0.000000000               0.000000000               0.000000000               0.000000000               0.000000000               0.000000000               0.000000000               0.000000000               0.000000000               0.000000000               0.000000000               0.000000000               0.000000000               0.000000000               0.000000000               0.000000000               0.000000000               0.000000000               0.000000000               0.000000000               0.000000000               0.000000000               0.000000000               0.000000000               0.000000000               0.000000000               0.000000000               0.000000000               0.000000000               0.000000000               0.000000000               0.000000000               0.000000000               0.000000000               0.000000000               0.000000000               0.000000000               0.000000000               0.000000000               0.000000000               0.000000000               0.000000000               0.000000000               0.000000000               0.000000000               0.000000000               0.000000000               0.000000000               0.000000000               0.000000000               0.000000000               0.000000000               0.000000000               0.000000000               0.000000000               0.000000000               0.000000000               0.000000000               0.000000000               0.000000000               0.000000000               0.000000000               0.000000000               0.000000000               0.000000000               0.000000000               0.000000000               0.000000000               0.000000000               0.000000000               0.000000000               0.000000000               0.000000000               0.000000000               0.000000000               0.000000000               0.000000000               0.000000000               0.000000000               0.000000000               0.000000000               0.000000000               0.000000000               0.000000000               0.000000000               0.000000000               0.000000000               0.000000000               0.000000000               0.000000000               0.000000000               0.000000000               0.000000000               0.000000000               0.000000000               0.000000000               0.000000000               0.000000000               0.000000000               0.000000000               0.000000000               0.000000000               0.000000000               0.000000000               0.000000000               0.000000000               0.000000000               0.000000000               0.000000000               0.000000000               0.000000000               0.000000000               0.000000000               0.000000000               0.000000000               0.000000000               0.000000000               0.000000000               0.000000000               0.000000000               0.000000000               0.000000000               0.000000000               0.000000000               0.000000000               0.000000000               0.000000000               0.000000000               0.000000000               0.000000000               0.000000000               0.000000000               0.000000000               0.000000000               0.000000000               0.000000000               0.000000000               0.000000000               0.000000000               0.000000000               0.000000000               0.000000000               0.000000000               0.000000000               0.000000000               0.000000000               0.000000000               0.000000000               0.000000000               0.000000000               0.000000000               0.000000000               0.000000000               0.000000000               0.000000000               0.000000000               0.000000000               0.000000000               0.000000000               0.000000000               0.000000000               0.000000000               0.000000000               0.000000000               0.000000000               0.000000000               0.000000000               0.000000000               0.000000000               0.000000000               0.000000000               0.000000000               0.000000000               0.000000000               0.000000000               0.000000000               0.000000000               0.000000000               0.000000000               0.000000000               0.000000000               0.000000000               0.000000000               0.000000000               0.000000000               0.000000000               0.000000000               0.000000000               0.000000000               0.000000000               0.000000000               0.000000000               0.000000000               0.000000000               0.000000000               0.000000000               0.000000000               0.000000000               0.000000000               0.000000000               0.000000000               0.000000000               0.000000000               0.000000000               0.000000000               0.000000000               0.000000000               0.000000000               0.000000000               0.000000000               0.000000000               0.000000000               0.000000000               0.000000000               0.000000000               0.000000000               0.000000000               0.000000000               0.000000000               0.000000000               0.000000000               0.000000000               0.000000000               0.000000000               0.000000000               0.000000000               0.000000000               0.000000000               0.000000000               0.000000000               0.000000000               0.000000000               0.000000000               0.000000000               0.000000000               0.000000000               0.000000000               0.000000000               0.000000000               0.000000000               0.000000000               0.000000000               0.000000000               0.000000000               0.000000000               0.000000000               0.000000000               0.000000000               0.000000000               0.000000000               0.000000000               0.000000000               0.000000000               0.000000000               0.000000000               0.000000000               0.000000000               0.000000000               0.000000000               0.000000000               0.000000000               0.000000000               0.000000000               0.000000000               0.000000000               0.000000000               0.000000000               0.000000000               0.000000000               0.000000000               0.000000000               0.000000000               0.000000000               0.000000000               0.000000000               0.000000000               0.000000000               0.000000000               0.000000000               0.000000000               0.000000000               0.000000000               0.000000000               0.000000000               0.000000000               0.000000000               0.000000000               0.000000000               0.000000000               0.000000000               0.000000000               0.000000000               0.000000000               0.000000000               0.000000000               0.000000000               0.000000000               0.000000000               0.000000000               0.000000000               0.000000000               0.000000000               0.000000000               0.000000000               0.000000000               0.000000000               0.000000000               0.000000000               0.000000000               0.002326155               0.023814772               0.001638151              -0.002104534               0.008639689               0.006535155               0.000000000               0.000000000               0.000000000               0.000000000               0.002130195               0.018504388               0.000781391              -0.001514222               0.006672808               0.005158586               0.000000000               0.000000000               0.000000000               0.000000000               0.002636999               0.014222230              -0.000064435              -0.000788902               0.005003663               0.004214761               0.000000000               0.000000000               0.000000000               0.000000000               0.002410199               0.011784539              -0.000415639              -0.000569241               0.004117888               0.003548646               0.000000000               0.000000000               0.000000000               0.000000000               0.001988564               0.010226572              -0.000553775              -0.000532609               0.003586359               0.003053751               0.000000000               0.000000000               0.000000000               0.000000000               0.001546936               0.009128846              -0.000597416              -0.000561004               0.003229919               0.002668916               0.000000000               0.000000000               0.000000000               0.000000000               0.001146674               0.008292381              -0.000599273              -0.000606544               0.002966280               0.002359737               0.000000000               0.000000000               0.000000000               0.000000000               0.000799251               0.007609302              -0.000583501              -0.000651442               0.002753556               0.002102114               0.000000000               0.000000000               0.000000000               0.000000000               0.000506785               0.007022083              -0.000559552              -0.000687715               0.002569909               0.001882194               0.000000000               0.000000000               0.000000000               0.000000000               0.000267356               0.006484092              -0.000528105              -0.000710251               0.002398093               0.001687842               0.000000000               0.000000000               0.000000000               0.000000000               0.000081983               0.005966008              -0.000494796              -0.000715006               0.002226985               0.001511979               0.000000000               0.000000000               0.000000000               0.000000000              -0.000053033               0.005449232              -0.000458324              -0.000701040               0.002050073               0.001349033               0.000000000               0.000000000               0.000000000               0.000000000              -0.000139042               0.004916609              -0.000413689              -0.000666715               0.001861092               0.001194376               0.000000000               0.000000000               0.000000000               0.000000000              -0.000172251               0.004355491              -0.000356311              -0.000609029               0.001654826               0.001045796               0.000000000               0.000000000               0.000000000               0.000000000              -0.000155238               0.003748186              -0.000272470              -0.000526736               0.001424961               0.000898225               0.000000000               0.000000000               0.000000000               0.000000000              -0.000091909               0.003075211              -0.000152573              -0.000418866               0.001164682               0.000745816               0.000000000               0.000000000               0.000000000               0.000000000              -0.000104263               0.002566721              -0.000094803              -0.000359938               0.000975544               0.000615607               0.000000000               0.000000000               0.000000000               0.000000000               0.002501556               0.022361865               0.003042646              -0.001857146               0.008072929               0.006215782               0.000000000               0.000000000               0.000000000               0.000000000               0.001951383               0.017575583               0.001445113              -0.001465176               0.006346861               0.004881685               0.000000000               0.000000000               0.000000000               0.000000000               0.002080304               0.013841324              -0.000118347              -0.000950049               0.004930411               0.003980362               0.000000000               0.000000000               0.000000000               0.000000000               0.001718365               0.011685904              -0.000740696              -0.000816349               0.004167379               0.003351030               0.000000000               0.000000000               0.000000000               0.000000000               0.001278969               0.010269952              -0.000973328              -0.000804129               0.003691326               0.002887197               0.000000000               0.000000000               0.000000000               0.000000000               0.000873424               0.009248537              -0.001039777              -0.000828532               0.003358992               0.002530460               0.000000000               0.000000000               0.000000000               0.000000000               0.000527870               0.008448182              -0.001034619              -0.000858070               0.003102056               0.002243986               0.000000000               0.000000000               0.000000000               0.000000000               0.000250004               0.007782128              -0.001003608              -0.000879013               0.002887021               0.002008008               0.000000000               0.000000000               0.000000000               0.000000000               0.000038229               0.007196819              -0.000960228              -0.000885265               0.002694004               0.001808739               0.000000000               0.000000000               0.000000000               0.000000000              -0.000117506               0.006652777              -0.000903609              -0.000875660               0.002509457               0.001633797               0.000000000               0.000000000               0.000000000               0.000000000              -0.000219081               0.006130075              -0.000842680              -0.000848413               0.002326142               0.001477729               0.000000000               0.000000000               0.000000000               0.000000000              -0.000274690               0.005615872              -0.000774657              -0.000804991               0.002140269               0.001335278               0.000000000               0.000000000               0.000000000               0.000000000              -0.000287559               0.005101698              -0.000692553              -0.000745545               0.001949064               0.001203519               0.000000000               0.000000000               0.000000000               0.000000000              -0.000254494               0.004586250              -0.000588289              -0.000668715               0.001751640               0.001082925               0.000000000               0.000000000               0.000000000               0.000000000              -0.000187028               0.004067182              -0.000442907              -0.000578532               0.001548558               0.000970026               0.000000000               0.000000000               0.000000000               0.000000000              -0.000099787               0.003544783              -0.000245207              -0.000480517               0.001341755               0.000861238               0.000000000               0.000000000               0.000000000               0.000000000              -0.000091732               0.003181191              -0.000148149              -0.000432047               0.001204402               0.000772355               0.000000000               0.000000000               0.000000000               0.000000000               0.002663399               0.020153807               0.004024890              -0.001520450               0.007224685               0.005704235               0.000000000               0.000000000               0.000000000               0.000000000               0.001620595               0.016192270               0.001910445              -0.001416308               0.005869472               0.004453164               0.000000000               0.000000000               0.000000000               0.000000000               0.001228962               0.013276685              -0.000128481              -0.001198722               0.004825092               0.003626370               0.000000000               0.000000000               0.000000000               0.000000000               0.000711679               0.011515382              -0.000893151              -0.001172540               0.004229269               0.003056729               0.000000000               0.000000000               0.000000000               0.000000000               0.000274408               0.010297077              -0.001159044              -0.001184229               0.003827068               0.002642839               0.000000000               0.000000000               0.000000000               0.000000000              -0.000057141               0.009368713              -0.001224052              -0.001192514               0.003520378               0.002327863               0.000000000               0.000000000               0.000000000               0.000000000              -0.000297048               0.008613628              -0.001209079              -0.001188094               0.003267212               0.002079118               0.000000000               0.000000000               0.000000000               0.000000000              -0.000460188               0.007964399              -0.001166188              -0.001168118               0.003044146               0.001876028               0.000000000               0.000000000               0.000000000               0.000000000              -0.000554482               0.007375611              -0.001107660              -0.001129879               0.002835139               0.001705259               0.000000000               0.000000000               0.000000000               0.000000000              -0.000595009               0.006821214              -0.001034571              -0.001075778               0.002632308               0.001556530               0.000000000               0.000000000               0.000000000               0.000000000              -0.000589924               0.006292666              -0.000956504              -0.001007803               0.002433468               0.001425666               0.000000000               0.000000000               0.000000000               0.000000000              -0.000541476               0.005788839              -0.000868819              -0.000926656               0.002238479               0.001311823               0.000000000               0.000000000               0.000000000               0.000000000              -0.000457748               0.005308495              -0.000762288              -0.000835216               0.002047886               0.001212670               0.000000000               0.000000000               0.000000000               0.000000000              -0.000348416               0.004854852              -0.000632334              -0.000737511               0.001864105               0.001126594               0.000000000               0.000000000               0.000000000               0.000000000              -0.000226508               0.004441308              -0.000463894              -0.000640103               0.001693789               0.001053686               0.000000000               0.000000000               0.000000000               0.000000000              -0.000110786               0.004085520              -0.000249226              -0.000552234               0.001545904               0.000993671               0.000000000               0.000000000               0.000000000               0.000000000              -0.000078919               0.003874267              -0.000142984              -0.000513877               0.001462702               0.000948825               0.000000000               0.000000000               0.000000000               0.000000000               0.002663729               0.017452344               0.004496682              -0.001182645               0.006211604               0.005028959               0.000000000               0.000000000               0.000000000               0.000000000               0.001107547               0.014534247               0.002161210              -0.001401448               0.005311850               0.003910401               0.000000000               0.000000000               0.000000000               0.000000000               0.000175594               0.012599313              -0.000052702              -0.001509063               0.004702750               0.003193687               0.000000000               0.000000000               0.000000000               0.000000000              -0.000433110               0.011266602              -0.000826071              -0.001570738               0.004279076               0.002708338               0.000000000               0.000000000               0.000000000               0.000000000              -0.000806438               0.010244358              -0.001072742              -0.001582955               0.003942404               0.002359448               0.000000000               0.000000000               0.000000000               0.000000000              -0.001016840               0.009408297              -0.001124516              -0.001557349               0.003655184               0.002097835               0.000000000               0.000000000               0.000000000               0.000000000              -0.001112934               0.008691149              -0.001106141              -0.001503740               0.003398267               0.001894527               0.000000000               0.000000000               0.000000000               0.000000000              -0.001136616               0.008048572              -0.001061607              -0.001432299               0.003160263               0.001727964               0.000000000               0.000000000               0.000000000               0.000000000              -0.001100091               0.007452706              -0.001002042              -0.001344119               0.002932250               0.001588131               0.000000000               0.000000000               0.000000000               0.000000000              -0.001014263               0.006890691              -0.000927834              -0.001241682               0.002710768               0.001469086               0.000000000               0.000000000               0.000000000               0.000000000              -0.000892606               0.006364520              -0.000848223              -0.001130290               0.002498248               0.001367959               0.000000000               0.000000000               0.000000000               0.000000000              -0.000744916               0.005878176              -0.000757647              -0.001014113               0.002297410               0.001283297               0.000000000               0.000000000               0.000000000               0.000000000              -0.000581166               0.005438383              -0.000644944              -0.000897733               0.002112020               0.001214287               0.000000000               0.000000000               0.000000000               0.000000000              -0.000411717               0.005051420              -0.000512135              -0.000785819               0.001945729               0.001159910               0.000000000               0.000000000               0.000000000               0.000000000              -0.000252691               0.004730232              -0.000359203              -0.000686036               0.001805407               0.001119370               0.000000000               0.000000000               0.000000000               0.000000000              -0.000119637               0.004497798              -0.000185565              -0.000607087               0.001701613               0.001094526               0.000000000               0.000000000               0.000000000               0.000000000              -0.000072704               0.004386493              -0.000101802              -0.000575574               0.001654008               0.001078433               0.000000000               0.000000000               0.000000000               0.000000000               0.002362167               0.014542052               0.004473286              -0.000931945               0.005157949               0.004226004               0.000000000               0.000000000               0.000000000               0.000000000               0.000413272               0.012781877               0.002232112              -0.001442756               0.004741501               0.003298746               0.000000000               0.000000000               0.000000000               0.000000000              -0.000950410               0.011859352               0.000136755              -0.001838818               0.004566017               0.002727199               0.000000000               0.000000000               0.000000000               0.000000000              -0.001548154               0.010926075              -0.000545234              -0.001946312               0.004290759               0.002344447               0.000000000               0.000000000               0.000000000               0.000000000              -0.001778687               0.010070032              -0.000754650              -0.001925757               0.003998563               0.002072806               0.000000000               0.000000000               0.000000000               0.000000000              -0.001824296               0.009303057              -0.000802825              -0.001846989               0.003716651               0.001869662               0.000000000               0.000000000               0.000000000               0.000000000              -0.001764860               0.008607715              -0.000797772              -0.001737783               0.003448471               0.001710688               0.000000000               0.000000000               0.000000000               0.000000000              -0.001639408               0.007971179              -0.000772384              -0.001611171               0.003194090               0.001582919               0.000000000               0.000000000               0.000000000               0.000000000              -0.001471530               0.007374546              -0.000726951              -0.001473639               0.002949370               0.001475732               0.000000000               0.000000000               0.000000000               0.000000000              -0.001276594               0.006814820              -0.000665306              -0.001330572               0.002715108               0.001384536               0.000000000               0.000000000               0.000000000               0.000000000              -0.001060814               0.006304645              -0.000598103              -0.001185883               0.002496822               0.001310939               0.000000000               0.000000000               0.000000000               0.000000000              -0.000836850               0.005851023              -0.000522207              -0.001045194               0.002298719               0.001253525               0.000000000               0.000000000               0.000000000               0.000000000              -0.000615518               0.005460973              -0.000429565              -0.000913438               0.002124785               0.001211347               0.000000000               0.000000000               0.000000000               0.000000000              -0.000411970               0.005143035              -0.000322061              -0.000797366               0.001980117               0.001182751               0.000000000               0.000000000               0.000000000               0.000000000              -0.000240462               0.004902099              -0.000210716              -0.000702934               0.001868328               0.001165394               0.000000000               0.000000000               0.000000000               0.000000000              -0.000107811               0.004748045              -0.000103396              -0.000633933               0.001793977               0.001160044               0.000000000               0.000000000               0.000000000               0.000000000              -0.000058954               0.004686357              -0.000055384              -0.000607901               0.001764737               0.001156836               0.000000000               0.000000000               0.000000000               0.000000000               0.001690874               0.011660183               0.004045982              -0.000823447               0.004161170               0.003337723               0.000000000               0.000000000               0.000000000               0.000000000              -0.000430909               0.011071142               0.002184448              -0.001545481               0.004205504               0.002660023               0.000000000               0.000000000               0.000000000               0.000000000              -0.002028034               0.011080171               0.000445025              -0.002145529               0.004408530               0.002263001               0.000000000               0.000000000               0.000000000               0.000000000              -0.002490493               0.010470650              -0.000104709              -0.002242761               0.004237769               0.001995008               0.000000000               0.000000000               0.000000000               0.000000000              -0.002525081               0.009745540              -0.000290270              -0.002165093               0.003970178               0.001805086               0.000000000               0.000000000               0.000000000               0.000000000              -0.002385545               0.009034635              -0.000357621              -0.002023904               0.003686149               0.001662246               0.000000000               0.000000000               0.000000000               0.000000000              -0.002165441               0.008361811              -0.000386387              -0.001857262               0.003406330               0.001549068               0.000000000               0.000000000               0.000000000               0.000000000              -0.001908567               0.007729743              -0.000394393              -0.001681926               0.003137197               0.001455271               0.000000000               0.000000000               0.000000000               0.000000000              -0.001628046               0.007142611              -0.000376184              -0.001503340               0.002881960               0.001378620               0.000000000               0.000000000               0.000000000               0.000000000              -0.001339843               0.006606055              -0.000343254              -0.001328195               0.002644728               0.001316533               0.000000000               0.000000000               0.000000000               0.000000000              -0.001052853               0.006134333              -0.000309281              -0.001161609               0.002431960               0.001270351               0.000000000               0.000000000               0.000000000               0.000000000              -0.000778952               0.005734973              -0.000268289              -0.001008976               0.002247964               0.001238988               0.000000000               0.000000000               0.000000000               0.000000000              -0.000534166               0.005408094              -0.000214289              -0.000876322               0.002094787               0.001218465               0.000000000               0.000000000               0.000000000               0.000000000              -0.000332590               0.005158613              -0.000150146              -0.000769546               0.001976036               0.001206490               0.000000000               0.000000000               0.000000000               0.000000000              -0.000178932               0.004988585              -0.000085522              -0.000690671               0.001893069               0.001202398               0.000000000               0.000000000               0.000000000               0.000000000              -0.000072726               0.004893170              -0.000035807              -0.000638917               0.001844013               0.001205096               0.000000000               0.000000000               0.000000000               0.000000000              -0.000035985               0.004860963              -0.000017833              -0.000621113               0.001827343               0.001206229               0.000000000               0.000000000               0.000000000               0.000000000               0.000694688               0.008990377               0.003324584              -0.000863290               0.003284525               0.002421235               0.000000000               0.000000000               0.000000000               0.000000000              -0.001366573               0.009498200               0.002067476              -0.001699737               0.003732614               0.002032877               0.000000000               0.000000000               0.000000000               0.000000000              -0.002952882               0.010263001               0.000854348              -0.002390200               0.004217700               0.001827499               0.000000000               0.000000000               0.000000000               0.000000000              -0.003178333               0.009897838               0.000423120              -0.002429099               0.004108946               0.001679847               0.000000000               0.000000000               0.000000000               0.000000000              -0.002986469               0.009286138               0.000225967              -0.002280688               0.003855578               0.001574890               0.000000000               0.000000000               0.000000000               0.000000000              -0.002669774               0.008630181               0.000117549              -0.002079933               0.003570009               0.001490076               0.000000000               0.000000000               0.000000000               0.000000000              -0.002313834               0.007982984               0.000046453              -0.001865556               0.003282820               0.001417264               0.000000000               0.000000000               0.000000000               0.000000000              -0.001946557               0.007371853              -0.000005562              -0.001651437               0.003007738               0.001356302               0.000000000               0.000000000               0.000000000               0.000000000              -0.001571252               0.006813567              -0.000034201              -0.001440912               0.002751470               0.001310559               0.000000000               0.000000000               0.000000000               0.000000000              -0.001206275               0.006320630              -0.000047245              -0.001242429               0.002520998               0.001278570               0.000000000               0.000000000               0.000000000               0.000000000              -0.000872513               0.005904675              -0.000060637              -0.001065274               0.002323297               0.001258022               0.000000000               0.000000000               0.000000000               0.000000000              -0.000584726               0.005565998              -0.000065203              -0.000915020               0.002160321               0.001245301               0.000000000               0.000000000               0.000000000               0.000000000              -0.000356560               0.005303836              -0.000053255              -0.000796688               0.002033490               0.001236803               0.000000000               0.000000000               0.000000000               0.000000000              -0.000190797               0.005119615              -0.000032667              -0.000711499               0.001943688               0.001232189               0.000000000               0.000000000               0.000000000               0.000000000              -0.000083834               0.005012284              -0.000011340              -0.000657972               0.001890068               0.001232097               0.000000000               0.000000000               0.000000000               0.000000000              -0.000026487               0.004966214               0.000000357              -0.000630708               0.001865624               0.001234916               0.000000000               0.000000000               0.000000000               0.000000000              -0.000012284               0.004954462               0.000001456              -0.000623913               0.001859442               0.001235529               0.000000000               0.000000000               0.000000000               0.000000000              -0.000501864               0.006730873               0.002432504              -0.001029557               0.002586787               0.001557229               0.000000000               0.000000000               0.000000000               0.000000000              -0.002284126               0.008085311               0.001928919              -0.001867207               0.003317479               0.001450271               0.000000000               0.000000000               0.000000000               0.000000000              -0.003670863               0.009439841               0.001337066              -0.002556548               0.003998765               0.001442217               0.000000000               0.000000000               0.000000000               0.000000000              -0.003641064               0.009336525               0.000981246              -0.002532458               0.003956296               0.001423838               0.000000000               0.000000000               0.000000000               0.000000000              -0.003263837               0.008863328               0.000749359              -0.002331849               0.003731696               0.001399847               0.000000000               0.000000000               0.000000000               0.000000000              -0.002808008               0.008282875               0.000588768              -0.002088357               0.003457050               0.001368692               0.000000000               0.000000000               0.000000000               0.000000000              -0.002343786               0.007692923               0.000467603              -0.001840531               0.003177792               0.001337262               0.000000000               0.000000000               0.000000000               0.000000000              -0.001888407               0.007130590               0.000366635              -0.001599473               0.002909997               0.001310525               0.000000000               0.000000000               0.000000000               0.000000000              -0.001441836               0.006612028               0.000285899              -0.001367189               0.002659717               0.001292528               0.000000000               0.000000000               0.000000000               0.000000000              -0.001021158               0.006162309               0.000216859              -0.001153220               0.002438489               0.001285269               0.000000000               0.000000000               0.000000000               0.000000000              -0.000657873               0.005791202               0.000151181              -0.000970600               0.002253915               0.001283315               0.000000000               0.000000000               0.000000000               0.000000000              -0.000373607               0.005488413               0.000097368              -0.000826152               0.002104837               0.001278685               0.000000000               0.000000000               0.000000000               0.000000000              -0.000175935               0.005254939               0.000060575              -0.000722841               0.001992576               0.001269735               0.000000000               0.000000000               0.000000000               0.000000000              -0.000050959               0.005101862               0.000035675              -0.000656841               0.001919551               0.001262710               0.000000000               0.000000000               0.000000000               0.000000000               0.000013008               0.005023301               0.000018080              -0.000623033               0.001882094               0.001259062               0.000000000               0.000000000               0.000000000               0.000000000               0.000027506               0.004995493               0.000006236              -0.000614120               0.001869855               0.001255734               0.000000000               0.000000000               0.000000000               0.000000000               0.000022677               0.004991697               0.000001206              -0.000615457               0.001869035               0.001253578               0.000000000               0.000000000               0.000000000               0.000000000              -0.001903246               0.004626565               0.001487326              -0.001292035               0.001972851               0.000680816               0.000000000               0.000000000               0.000000000               0.000000000              -0.003053040               0.006450863               0.001771458              -0.001951243               0.002800680               0.000849437               0.000000000               0.000000000               0.000000000               0.000000000              -0.004092520               0.008230944               0.001841809              -0.002563557               0.003598139               0.001034582               0.000000000               0.000000000               0.000000000               0.000000000              -0.003922548               0.008516685               0.001574152              -0.002535535               0.003684045               0.001148510               0.000000000               0.000000000               0.000000000               0.000000000              -0.003471164               0.008307863               0.001309723              -0.002340164               0.003549314               0.001209151               0.000000000               0.000000000               0.000000000               0.000000000              -0.002964896               0.007923862               0.001094643              -0.002102314               0.003342032               0.001239718               0.000000000               0.000000000               0.000000000               0.000000000              -0.002463013               0.007480698               0.000921514              -0.001858713               0.003113112               0.001254399               0.000000000               0.000000000               0.000000000               0.000000000              -0.001981525               0.007034891               0.000777833              -0.001622429               0.002885750               0.001263321               0.000000000               0.000000000               0.000000000               0.000000000              -0.001515869               0.006616839               0.000651115              -0.001395553               0.002670775               0.001275223               0.000000000               0.000000000               0.000000000               0.000000000              -0.001076588               0.006234592               0.000528579              -0.001183042               0.002472524               0.001289482               0.000000000               0.000000000               0.000000000               0.000000000              -0.000687686               0.005897963               0.000410775              -0.000995125               0.002297676               0.001302551               0.000000000               0.000000000               0.000000000               0.000000000              -0.000374096               0.005611032               0.000300986              -0.000841663               0.002150879               0.001309217               0.000000000               0.000000000               0.000000000               0.000000000              -0.000149514               0.005373144               0.000204928              -0.000727709               0.002033600               0.001305891               0.000000000               0.000000000               0.000000000               0.000000000              -0.000008057               0.005196425               0.000127234              -0.000652573               0.001949649               0.001297076               0.000000000               0.000000000               0.000000000               0.000000000               0.000064073               0.005079399               0.000064293              -0.000610896               0.001896748               0.001285852               0.000000000               0.000000000               0.000000000               0.000000000               0.000082881               0.005020868               0.000019746              -0.000596527               0.001872448               0.001275921               0.000000000               0.000000000               0.000000000               0.000000000               0.000078167               0.005007533               0.000002706              -0.000596627               0.001868037               0.001271409               0.000000000               0.000000000               0.000000000               0.000000000              -0.003691280               0.002724577               0.000557123              -0.001724799               0.001483115              -0.000241684               0.000000000               0.000000000               0.000000000               0.000000000              -0.003917675               0.004807760               0.001541465              -0.002070094               0.002292601               0.000222507               0.000000000               0.000000000               0.000000000               0.000000000              -0.004418430               0.006811414               0.002242150              -0.002508332               0.003106559               0.000598227               0.000000000               0.000000000               0.000000000               0.000000000              -0.004122958               0.007465538               0.002136221              -0.002479296               0.003314919               0.000835624               0.000000000               0.000000000               0.000000000               0.000000000              -0.003628160               0.007570930               0.001879760              -0.002306921               0.003292591               0.000985670               0.000000000               0.000000000               0.000000000               0.000000000              -0.003099232               0.007430654               0.001632819              -0.002091039               0.003173872               0.001082833               0.000000000               0.000000000               0.000000000               0.000000000              -0.002580450               0.007175118               0.001418284              -0.001864554               0.003013200               0.001148646               0.000000000               0.000000000               0.000000000               0.000000000              -0.002082394               0.006886075               0.001235100              -0.001641653               0.002842553               0.001200900               0.000000000               0.000000000               0.000000000               0.000000000              -0.001612771               0.006591068               0.001070556              -0.001428669               0.002673224               0.001244554               0.000000000               0.000000000               0.000000000               0.000000000              -0.001165326               0.006293940               0.000912400              -0.001223737               0.002505871               0.001282134               0.000000000               0.000000000               0.000000000               0.000000000              -0.000749432               0.006008022               0.000754310              -0.001032037               0.002346666               0.001314629               0.000000000               0.000000000               0.000000000               0.000000000              -0.000390002               0.005747015               0.000594478              -0.000864626               0.002203861               0.001339235               0.000000000               0.000000000               0.000000000               0.000000000              -0.000110352               0.005514357               0.000439778              -0.000730675               0.002081659               0.001350984               0.000000000               0.000000000               0.000000000               0.000000000               0.000081168               0.005315913               0.000299510              -0.000634050               0.001983303               0.001349253               0.000000000               0.000000000               0.000000000               0.000000000               0.000183480               0.005153626               0.000173219              -0.000575397               0.001909657               0.001334260               0.000000000               0.000000000               0.000000000               0.000000000               0.000214414               0.005052108               0.000070946              -0.000551107               0.001867722               0.001316615               0.000000000               0.000000000               0.000000000               0.000000000               0.000205085               0.005014996               0.000025224              -0.000549966               0.001854971               0.001305004               0.000000000               0.000000000               0.000000000               0.000000000              -0.005746887               0.001177913              -0.000270347              -0.002302319               0.001160069              -0.001142249               0.000000000               0.000000000               0.000000000               0.000000000              -0.004930254               0.003256076               0.001221386              -0.002255851               0.001837296              -0.000418555               0.000000000               0.000000000               0.000000000               0.000000000              -0.004688888               0.005199581               0.002418461              -0.002408275               0.002535934               0.000127658               0.000000000               0.000000000               0.000000000               0.000000000              -0.004184943               0.006109417               0.002516568              -0.002333026               0.002814126               0.000481101               0.000000000               0.000000000               0.000000000               0.000000000              -0.003626401               0.006501587               0.002328002              -0.002172594               0.002891371               0.000718777               0.000000000               0.000000000               0.000000000               0.000000000              -0.003077132               0.006613291               0.002087022              -0.001980582               0.002864602               0.000884020               0.000000000               0.000000000               0.000000000               0.000000000              -0.002554432               0.006578521               0.001856040              -0.001780223               0.002786226               0.001006002               0.000000000               0.000000000               0.000000000               0.000000000              -0.002054137               0.006476940               0.001649634              -0.001579916               0.002685597               0.001105681               0.000000000               0.000000000               0.000000000               0.000000000              -0.001579281               0.006335071               0.001463851              -0.001384111               0.002573039               0.001188928               0.000000000               0.000000000               0.000000000               0.000000000              -0.001127625               0.006159463               0.001287510              -0.001192790               0.002450730               0.001257940               0.000000000               0.000000000               0.000000000               0.000000000              -0.000701882               0.005960953               0.001108678              -0.001008323               0.002323072               0.001314749               0.000000000               0.000000000               0.000000000               0.000000000              -0.000312130               0.005755137               0.000920433              -0.000836439               0.002197173               0.001360733               0.000000000               0.000000000               0.000000000               0.000000000               0.000020984               0.005552537               0.000727258              -0.000686197               0.002079559               0.001393363               0.000000000               0.000000000               0.000000000               0.000000000               0.000274679               0.005359628               0.000534042              -0.000566948               0.001975507               0.001408560               0.000000000               0.000000000               0.000000000               0.000000000               0.000434707               0.005193391               0.000341214              -0.000486158               0.001893166               0.001407008               0.000000000               0.000000000               0.000000000               0.000000000               0.000498174               0.005077443               0.000161371              -0.000447864               0.001841752               0.001393888               0.000000000               0.000000000               0.000000000               0.000000000               0.000490288               0.005024261               0.000072637              -0.000444173               0.001822795               0.001378621               0.000000000               0.000000000               0.000000000               0.000000000              -0.007923067               0.000063480              -0.000870168              -0.002979083               0.001014180              -0.001964902               0.000000000               0.000000000               0.000000000               0.000000000              -0.006036149               0.001885836               0.000859334              -0.002499282               0.001461696              -0.001037586               0.000000000               0.000000000               0.000000000               0.000000000              -0.004932340               0.003542322               0.002339116              -0.002292414               0.001944898              -0.000347516               0.000000000               0.000000000               0.000000000               0.000000000              -0.004130732               0.004569480               0.002624242              -0.002120205               0.002229878               0.000109673               0.000000000               0.000000000               0.000000000               0.000000000              -0.003473230               0.005180885               0.002538634              -0.001950068               0.002376966               0.000426898               0.000000000               0.000000000               0.000000000               0.000000000              -0.002899480               0.005529708               0.002343532              -0.001778515               0.002436055               0.000657540               0.000000000               0.000000000               0.000000000               0.000000000              -0.002375032               0.005725540               0.002127024              -0.001606326               0.002443936               0.000837609               0.000000000               0.000000000               0.000000000               0.000000000              -0.001884445               0.005819257               0.001921906              -0.001434071               0.002417756               0.000983685               0.000000000               0.000000000               0.000000000               0.000000000              -0.001417747               0.005836683               0.001735674              -0.001261238               0.002365954               0.001104716               0.000000000               0.000000000               0.000000000               0.000000000              -0.000969050               0.005798350               0.001558198              -0.001088185               0.002295492               0.001207307               0.000000000               0.000000000               0.000000000               0.000000000              -0.000534389               0.005718584               0.001378143              -0.000915217               0.002211248               0.001296031               0.000000000               0.000000000               0.000000000               0.000000000              -0.000119670               0.005604264               0.001188800              -0.000745408               0.002116538               0.001371131               0.000000000               0.000000000               0.000000000               0.000000000               0.000265109               0.005468631               0.000986601              -0.000584162               0.002017579               0.001433417               0.000000000               0.000000000               0.000000000               0.000000000               0.000596980               0.005327160               0.000767316              -0.000442027               0.001923045               0.001481018               0.000000000               0.000000000               0.000000000               0.000000000               0.000852594               0.005200468               0.000526144              -0.000330335               0.001843584               0.001513249               0.000000000               0.000000000               0.000000000               0.000000000               0.001003205               0.005094405               0.000266963              -0.000260598               0.001784984               0.001524386               0.000000000               0.000000000               0.000000000               0.000000000               0.001042251               0.005040559               0.000133699              -0.000239225               0.001759911               0.001520686               0.000000000               0.000000000               0.000000000               0.000000000              -0.010007885              -0.000638577              -0.001139978              -0.003673132               0.001011511              -0.002661621               0.000000000               0.000000000               0.000000000               0.000000000              -0.007137275               0.000778611               0.000521542              -0.002773802               0.001184129              -0.001589672               0.000000000               0.000000000               0.000000000               0.000000000              -0.005155015               0.002006291               0.002007513              -0.002183914               0.001396725              -0.000787189               0.000000000               0.000000000               0.000000000               0.000000000              -0.004001775               0.003027521               0.002399489              -0.001879103               0.001635529              -0.000243574               0.000000000               0.000000000               0.000000000               0.000000000              -0.003212489               0.003783248               0.002407254              -0.001677586               0.001820264               0.000142678               0.000000000               0.000000000               0.000000000               0.000000000              -0.002598860               0.004322705               0.002281936              -0.001514908               0.001945855               0.000430948               0.000000000               0.000000000               0.000000000               0.000000000              -0.002068916               0.004705443               0.002113397              -0.001364021               0.002023138               0.000659117               0.000000000               0.000000000               0.000000000               0.000000000              -0.001589243               0.004970338               0.001937354              -0.001217256               0.002062514               0.000845258               0.000000000               0.000000000               0.000000000               0.000000000              -0.001140922               0.005145677               0.001770425              -0.001071054               0.002072226               0.001001172               0.000000000               0.000000000               0.000000000               0.000000000              -0.000703825               0.005256134               0.001614240              -0.000920950               0.002059010               0.001138060               0.000000000               0.000000000               0.000000000               0.000000000              -0.000263325               0.005314300               0.001458706              -0.000763033               0.002025760               0.001262726               0.000000000               0.000000000               0.000000000               0.000000000               0.000175579               0.005320368               0.001292746              -0.000599203               0.001973173               0.001373969               0.000000000               0.000000000               0.000000000               0.000000000               0.000607722               0.005289469               0.001110520              -0.000433287               0.001907568               0.001474280               0.000000000               0.000000000               0.000000000               0.000000000               0.001023828               0.005236066               0.000901419              -0.000270573               0.001835529               0.001564956               0.000000000               0.000000000               0.000000000               0.000000000               0.001405139               0.005163701               0.000650500              -0.000118536               0.001760728               0.001642193               0.000000000               0.000000000               0.000000000               0.000000000               0.001722958               0.005083174               0.000347606               0.000010712               0.001690804               0.001701515               0.000000000               0.000000000               0.000000000               0.000000000               0.001895245               0.005055397               0.000189998               0.000078791               0.001658852               0.001737643               0.000000000               0.000000000               0.000000000               0.000000000              -0.011753981              -0.001012385              -0.001041626              -0.004281192               0.001089595              -0.003191597               0.000000000               0.000000000               0.000000000               0.000000000              -0.008088140              -0.000020875               0.000262924              -0.003030441               0.001003182              -0.002027259               0.000000000               0.000000000               0.000000000               0.000000000              -0.005348033               0.000762909               0.001462515              -0.002100874               0.000954587              -0.001146287               0.000000000               0.000000000               0.000000000               0.000000000              -0.003860479               0.001702111               0.001833068              -0.001660441               0.001120842              -0.000539599               0.000000000               0.000000000               0.000000000               0.000000000              -0.002926916               0.002524035               0.001890648              -0.001413096               0.001312367              -0.000100729               0.000000000               0.000000000               0.000000000               0.000000000              -0.002256263               0.003188021               0.001830390              -0.001244599               0.001477529               0.000232930               0.000000000               0.000000000               0.000000000               0.000000000              -0.001716156               0.003703682               0.001723626              -0.001106517               0.001603387               0.000496870               0.000000000               0.000000000               0.000000000               0.000000000              -0.001243559               0.004100436               0.001599555              -0.000978887               0.001693094               0.000714206               0.000000000               0.000000000               0.000000000               0.000000000              -0.000804473               0.004412086               0.001478228              -0.000853187               0.001755076               0.000901889               0.000000000               0.000000000               0.000000000               0.000000000              -0.000372605               0.004661481               0.001367857              -0.000722411               0.001794615               0.001072204               0.000000000               0.000000000               0.000000000               0.000000000               0.000066508               0.004846274               0.001256469              -0.000580843               0.001809023               0.001228180               0.000000000               0.000000000               0.000000000               0.000000000               0.000519758               0.004971530               0.001132334              -0.000426532               0.001799337               0.001372806               0.000000000               0.000000000               0.000000000               0.000000000               0.000995838               0.005056394               0.000992209              -0.000258610               0.001771651               0.001513041               0.000000000               0.000000000               0.000000000               0.000000000               0.001496289               0.005098699               0.000827467              -0.000076229               0.001724959               0.001648730               0.000000000               0.000000000               0.000000000               0.000000000               0.002017891               0.005090490               0.000620114               0.000120396               0.001656681               0.001777077               0.000000000               0.000000000               0.000000000               0.000000000               0.002557679               0.005051506               0.000345076               0.000327688               0.001574589               0.001902277               0.000000000               0.000000000               0.000000000               0.000000000               0.002932639               0.005066125               0.000201406               0.000466469               0.001533202               0.001999671               0.000000000               0.000000000               0.000000000               0.000000000              -0.012924369              -0.001168819              -0.000617457              -0.004700533               0.001177230              -0.003523303               0.000000000               0.000000000               0.000000000               0.000000000              -0.008738454              -0.000496664               0.000099940              -0.003214835               0.000906051              -0.002308784               0.000000000               0.000000000               0.000000000               0.000000000              -0.005489230              -0.000047492               0.000769275              -0.002052523               0.000668339              -0.001384184               0.000000000               0.000000000               0.000000000               0.000000000              -0.003755854               0.000805138               0.000992315              -0.001509086               0.000771402              -0.000737683               0.000000000               0.000000000               0.000000000               0.000000000              -0.002703132               0.001643614               0.001042626              -0.001219124               0.000954239              -0.000264885               0.000000000               0.000000000               0.000000000               0.000000000              -0.001984802               0.002367056               0.001022933              -0.001040181               0.001135737               0.000095557               0.000000000               0.000000000               0.000000000               0.000000000              -0.001436495               0.002965463               0.000972677              -0.000909367               0.001291600               0.000382233               0.000000000               0.000000000               0.000000000               0.000000000              -0.000965701               0.003453385               0.000911458              -0.000793810               0.001415720               0.000621910               0.000000000               0.000000000               0.000000000               0.000000000              -0.000524663               0.003855357               0.000850745              -0.000678667               0.001511328               0.000832661               0.000000000               0.000000000               0.000000000               0.000000000              -0.000091556               0.004189435               0.000795984              -0.000558012               0.001582468               0.001024456               0.000000000               0.000000000               0.000000000               0.000000000               0.000346669               0.004457807               0.000738426              -0.000427224               0.001628329               0.001201105               0.000000000               0.000000000               0.000000000               0.000000000               0.000812691               0.004671034               0.000670938              -0.000279120               0.001650036               0.001370916               0.000000000               0.000000000               0.000000000               0.000000000               0.001324191               0.004835032               0.000594327              -0.000107808               0.001647597               0.001539789               0.000000000               0.000000000               0.000000000               0.000000000               0.001893586               0.004947002               0.000503002               0.000091718               0.001618411               0.001710130               0.000000000               0.000000000               0.000000000               0.000000000               0.002532953               0.005003864               0.000385572               0.000324371               0.001559814               0.001884185               0.000000000               0.000000000               0.000000000               0.000000000               0.003266196               0.005015009               0.000220122               0.000597942               0.001472339               0.002070281               0.000000000               0.000000000               0.000000000               0.000000000               0.003830300               0.005072062               0.000133030               0.000802347               0.001423221               0.002225568               0.000000000               0.000000000               0.000000000               0.000000000               0.000000000               0.000000000               0.000000000               0.000000000               0.000000000               0.000000000               0.000000000               0.000000000               0.000000000               0.000000000               0.000000000               0.000000000               0.000000000               0.000000000               0.000000000               0.000000000               0.000000000               0.000000000               0.000000000               0.000000000               0.000000000               0.000000000               0.000000000               0.000000000               0.000000000               0.000000000               0.000000000               0.000000000               0.000000000               0.000000000               0.000000000               0.000000000               0.000000000               0.000000000               0.000000000               0.000000000               0.000000000               0.000000000               0.000000000               0.000000000               0.000000000               0.000000000               0.000000000               0.000000000               0.000000000               0.000000000               0.000000000               0.000000000               0.000000000               0.000000000               0.000000000               0.000000000               0.000000000               0.000000000               0.000000000               0.000000000               0.000000000               0.000000000               0.000000000               0.000000000               0.000000000               0.000000000               0.000000000               0.000000000               0.000000000               0.000000000               0.000000000               0.000000000               0.000000000               0.000000000               0.000000000               0.000000000               0.000000000               0.000000000               0.000000000               0.000000000               0.000000000               0.000000000               0.000000000               0.000000000               0.000000000               0.000000000               0.000000000               0.000000000               0.000000000               0.000000000               0.000000000               0.000000000               0.000000000               0.000000000               0.000000000               0.000000000               0.000000000               0.000000000               0.000000000               0.000000000               0.000000000               0.000000000               0.000000000               0.000000000               0.000000000               0.000000000               0.000000000               0.000000000               0.000000000               0.000000000               0.000000000               0.000000000               0.000000000               0.000000000               0.000000000               0.000000000               0.000000000               0.000000000               0.000000000               0.000000000               0.000000000               0.000000000               0.000000000               0.000000000               0.000000000               0.000000000               0.000000000               0.000000000               0.000000000               0.000000000               0.000000000               0.000000000               0.000000000               0.000000000               0.000000000               0.000000000               0.000000000               0.000000000               0.000000000               0.000000000               0.000000000               0.000000000               0.000000000               0.000000000               0.000000000               0.000000000               0.000000000               0.000000000               0.000000000               0.000000000               0.000000000               0.000000000               0.000000000               0.000000000               0.000000000               0.000000000               0.000000000               0.000000000               0.000000000               0.000000000               0.000000000               0.000000000               0.000000000               0.000000000               0.000000000               0.000000000               0.000000000               0.000000000               0.000000000               0.000000000               0.000000000               0.000000000               0.000000000               0.000000000 </DataArray>
</PointData>
</Piece>
</UnstructuredGrid> </VTKFile>
